1502
Collab-Geweke equil step 3800000 E=        92.6501
 C      0.00000000      0.00000000      0.00000000
 C      1.54000000      0.00000000      0.00000000
 C      2.16637443     -0.04987826     -1.40597554
 C      3.70627296     -0.06754646     -1.40539395
 C      4.31759063     -1.36497631     -0.84453167
 C      5.82539914     -1.51651955     -1.11866329
 C      6.51010044     -2.60410693     -0.27017180
 C      8.03961968     -2.66085793     -0.44031947
 C      8.66039094     -4.02209415     -0.07524555
 C     10.18064622     -4.09996706     -0.30839720
 C     10.79327923     -5.47679478      0.00881915
 C     12.33002267     -5.51493615     -0.08372723
 C     12.95904928     -6.80667977      0.47064084
 C     14.49440468     -6.85305250      0.36048935
 C     15.12042015     -8.16080015      0.87962395
 C     16.65197213     -8.22407327      0.73148534
 C     17.28665113     -9.49562523      1.32472911
 C     18.82624827     -9.50193587      1.29007615
 C     19.46529499    -10.67317931      2.05910677
 C     20.97266625    -10.50090701      2.32321686
 C     21.54961174    -11.50543494      3.33793729
 C     23.07592148    -11.40736100      3.51782637
 C     23.63000534    -12.28361256      4.65658634
 C     25.15194335    -12.16116098      4.85736064
 C     25.76572084    -13.29440050      5.70035848
 C     27.30413896    -13.26522116      5.76374818
 C     27.93164102    -14.54715061      6.34210625
 C     29.37406207    -14.36454273      6.84972408
 C     29.94153344    -15.59568124      7.58039103
 C     31.09853546    -15.27376769      8.54440244
 C     31.74681594    -16.51666369      9.18200886
 C     32.99772553    -16.20764076     10.02541270
 C     33.62027076    -17.44467788     10.69904215
 C     34.63031106    -17.10992115     11.81230605
 C     35.49755464    -18.30445409     12.25114502
 C     36.40526474    -18.00901714     13.45960660
 C     37.07174204    -19.25939532     14.06289956
 C     38.03454974    -18.95646928     15.22601484
 C     38.46141450    -20.20111769     16.02616284
 C     39.39503868    -19.89378727     17.21169811
 C     40.06024565    -21.14016406     17.82459663
 C     40.91614413    -20.84473317     19.07029258
 C     41.52260682    -22.09950349     19.72554400
 C     42.58339076    -21.79471557     20.79952806
 C     43.07617315    -23.03762095     21.56369539
 C     44.06120429    -22.72175541     22.70454710
 C     44.75233179    -23.96380180     23.29722199
 C     45.73014923    -23.64887407     24.44452038
 C     46.41603896    -24.89159639     25.04184485
 C     47.39782805    -24.57617474     26.18561028
 C     48.42727286    -25.69000585     26.45248789
 C     49.49031296    -25.32157842     27.50406146
 C     50.35208149    -24.10336410     27.12339247
 C     51.51039439    -23.82589303     28.09956922
 C     52.14426740    -22.43158077     27.93926220
 C     53.27146618    -22.13642902     28.94619236
 C     53.68251136    -20.65364540     29.00939516
 C     55.04581601    -20.40972966     29.68282337
 C     55.46440010    -18.92850224     29.73132787
 C     56.88196416    -18.69604322     30.28637286
 C     57.24925150    -17.21110904     30.46433491
 C     58.71636260    -16.97267193     30.86724034
 C     59.01638374    -15.53014403     31.31523652
 C     60.48019671    -15.29533367     31.73202867
 C     60.81933590    -13.82204810     32.02531048
 C     62.32934847    -13.52137221     32.05780732
 C     62.66785966    -12.04072514     32.31215829
 C     64.07296366    -11.62856364     31.83528760
 C     64.55163950    -10.27513103     32.39268299
 C     66.06193017    -10.02660487     32.22280995
 C     66.43929965     -8.54112064     32.07271365
 C     67.86786277     -8.30778623     31.54701179
 C     68.23678827     -6.82269714     31.37379409
 C     69.65853907     -6.58981028     30.82974595
 C     70.02850343     -5.10466258     30.65926818
 C     71.37391871     -4.87207223     29.94697647
 C     71.63713546     -3.40235193     29.56983039
 C     72.81403656     -3.20667838     28.59606673
 C     73.27197376     -1.74331897     28.45298366
 C     74.61333947     -1.57604088     27.71517875
 C     74.85531539     -0.15641445     27.16955211
 C     76.26963073      0.06359736     26.60130311
 C     76.45903650      1.42210377     25.90117043
 C     77.69677364      1.48860462     24.98728618
 C     77.71016473      2.70127344     24.03815235
 C     78.88936669      2.70847839     23.04768234
 C     78.86013068      3.87910501     22.04749308
 C     79.84589617      3.72540965     20.87435875
 C     79.81272805      4.89339714     19.87121116
 C     79.04877800      4.58093761     18.57107680
 C     79.05678626      5.73182087     17.54784487
 C     78.62842966      5.31190285     16.12947275
 C     78.46785133      6.48889875     15.14942414
 C     78.56488099      6.08655967     13.66608045
 C     78.00634940      7.14152482     12.69309997
 C     78.06638236      6.72214707     11.21251956
 C     77.60775319      7.81762255     10.23211518
 C     77.75907495      7.43369180      8.74843769
 C     77.49787518      8.59486391      7.77116903
 C     78.19230839      8.43300384      6.40619144
 C     77.96196658      9.61193246      5.44251620
 C     78.03052402      9.22614874      3.95319730
 C     77.81194478     10.40728910      2.98949062
 C     77.66925454      9.99299617      1.51314348
 C     77.49487169     11.17727035      0.54428577
 C     76.73929256     10.82191350     -0.74970871
 C     75.28042920     10.38382149     -0.52300830
 C     74.60387320      9.78866776     -1.77187339
 C     73.16078776      9.30698474     -1.53294691
 C     72.34074429      9.12120561     -2.82314644
 C     70.83610075      8.89833710     -2.58236136
 C     70.03737204      8.58177807     -3.86041567
 C     68.51063147      8.57336837     -3.65893982
 C     67.74709685      7.72464009     -4.69251381
 C     66.23362797      8.00554095     -4.73841206
 C     65.42471580      6.95353180     -5.51978129
 C     63.92194866      6.94225694     -5.18338299
 C     63.12097889      5.85959188     -5.93029919
 C     61.66061657      5.72485720     -5.46041785
 C     61.13304124      4.27804637     -5.46205680
 C     59.60839928      4.16707217     -5.27563892
 C     59.11507892      2.73703755     -4.98713241
 C     57.60037565      2.63737977     -4.72762844
 C     57.07961482      1.19332637     -4.60467338
 C     55.63766157      1.09053741     -4.07382005
 C     55.08776697     -0.34723438     -4.02878453
 C     53.66978514     -0.45732006     -3.43818428
 C     53.13301395     -1.89875049     -3.36232250
 C     51.61268418     -1.98981570     -3.13449686
 C     51.06189329     -3.42785686     -3.15083692
 C     49.56084813     -3.52746316     -2.82137977
 C     49.03024648     -4.97127784     -2.74748078
 C     47.50236073     -5.06938906     -2.58153110
 C     46.94508179     -6.49590947     -2.74302326
 C     45.71761132     -6.79238362     -1.86153626
 C     45.27873930     -8.26846458     -1.87481573
 C     44.15979827     -8.59832147     -0.86944744
 C     42.81850722     -8.97423239     -1.52612796
 C     41.62654973     -8.99046236     -0.55115415
 C     40.30498413     -9.46258203     -1.18532081
 C     39.10557673     -9.44561066     -0.21953933
 C     37.82975042    -10.08902824     -0.79389204
 C     36.56973603     -9.85106129      0.05894761
 C     35.30381598    -10.53548986     -0.48932600
 C     34.02756335    -10.22982339      0.31649485
 C     32.76749281    -10.93938507     -0.21298079
 C     31.53620229    -10.79385883      0.70044451
 C     30.27293936    -11.49322258      0.16504082
 C     28.97080017    -11.05119015      0.85832349
 C     27.69714526    -11.34214445      0.04300222
 C     26.41798384    -10.72428995      0.63764654
 C     25.29296992    -10.50277656     -0.39039796
 C     24.31159321     -9.37779489     -0.01235562
 C     23.24723121     -9.08775170     -1.08688271
 C     22.26879133     -7.95953436     -0.71087603
 C     21.32367518     -7.54343524     -1.85333697
 C     20.06466475     -6.79194228     -1.38243245
 C     19.14316599     -6.33417494     -2.52824617
 C     17.70618330     -6.00498007     -2.08292439
 C     16.90325896     -5.18763123     -3.11193042
 C     15.41355945     -5.02441281     -2.75731076
 C     14.62985984     -4.13381303     -3.73927154
 C     13.15421183     -3.92283691     -3.35255199
 C     12.38070824     -3.00040382     -4.31297346
 C     10.90856406     -2.77882955     -3.91889688
 C     10.17078951     -1.75576450     -4.80242764
 C      8.72144046     -1.47791065     -4.36221796
 C      8.01236938     -0.39110483     -5.19147746
 C      6.48339320     -0.36245937     -5.00978738
 C      5.80536089      0.88634465     -5.60338718
 C      4.26921653      0.87627983     -5.49494729
 C      3.63965619      2.27762234     -5.38774215
 C      2.10693356      2.26598543     -5.23865848
 C      1.47847810      3.66691153     -5.12012664
 C     -0.06151300      3.66424666     -5.11562084
 C     -0.69000742      5.06617346     -5.00980964
 C     -2.22939953      5.06738144     -5.05305858
 C     -2.86749018      6.39633345     -4.60771950
 C     -4.36352917      6.51916222     -4.95178410
 C     -5.01791730      7.81830913     -4.44622159
 C     -6.55756113      7.79405984     -4.46877990
 C     -7.21218478      9.08162164     -3.93468957
 C     -8.74732195      9.00937910     -3.83602413
 C     -9.46330366     10.30920872     -4.24762243
 C    -10.98924401     10.16384706     -4.39586558
 C    -11.64280491     11.26332745     -5.25353745
 C    -13.17179393     11.35575019     -5.09463309
 C    -13.84401924     12.34309469     -6.06667423
 C    -15.32013641     12.63649812     -5.74018913
 C    -16.01440850     13.56213180     -6.75645118
 C    -17.50846355     13.79978387     -6.46849114
 C    -18.20494524     14.71791944     -7.49002936
 C    -19.74220893     14.62943073     -7.46573780
 C    -20.43615000     15.48941109     -8.53834191
 C    -21.96210531     15.29370465     -8.60733033
 C    -22.64939999     16.11410232     -9.71465759
 C    -24.18688221     16.12036620     -9.62685555
 C    -24.86703251     17.08180515    -10.61914115
 C    -26.40549622     17.01546741    -10.60101104
 C    -27.08125930     17.84329058    -11.70990826
 C    -28.61826743     17.74746140    -11.71468138
 C    -29.29403482     18.57535122    -12.82352622
 C    -30.83149711     18.48698527    -12.82245033
 C    -31.51138185     19.38724940    -13.87072570
 C    -32.98386666     19.71158359    -13.55736360
 C    -33.72590600     20.42408466    -14.70336529
 C    -35.23644931     20.59775319    -14.45903323
 C    -35.96529078     21.37602910    -15.57019331
 C    -37.47041456     21.06536992    -15.66864767
 C    -37.93529740     20.65981900    -17.07968006
 C    -39.46482564     20.56587213    -17.23238027
 C    -39.92327648     19.74990068    -18.45533302
 C    -41.44695948     19.75865241    -18.67874642
 C    -41.92308857     18.80086066    -19.78668868
 C    -43.45268382     18.63722651    -19.85853753
 C    -43.93360257     17.74772831    -21.02004953
 C    -45.46449251     17.60513630    -21.10747661
 C    -45.96467385     17.03100958    -22.44605688
 C    -47.49856914     16.95923872    -22.56273667
 C    -48.00484562     16.64939204    -23.98375009
 C    -49.53845591     16.56923331    -24.09870248
 C    -50.04549453     16.27971935    -25.52372652
 C    -51.56243936     16.47730391    -25.70103616
 C    -51.99622883     16.72111203    -27.15842571
 C    -53.41234243     16.21107179    -27.48412683
 C    -53.71221898     16.11505205    -28.99159300
 C    -55.21290213     16.03443484    -29.32782349
 C    -55.55844673     16.47922022    -30.76112908
 C    -57.06238583     16.42586231    -31.08811547
 C    -57.84400648     17.67743252    -30.64738743
 C    -59.27403792     17.75449520    -31.21366600
 C    -60.15074028     18.83633158    -30.55592516
 C    -61.37159408     19.25070443    -31.39819065
 C    -62.11905292     20.48231764    -30.85410042
 C    -63.12927237     21.09012777    -31.84486958
 C    -64.08500739     22.11902420    -31.21277568
 C    -65.03653864     22.79135458    -32.21983086
 C    -65.76694234     24.02724914    -31.66244851
 C    -67.06885856     24.37460213    -32.40807579
 C    -67.76698591     25.64596436    -31.89052744
 C    -69.20123579     25.83243316    -32.41944773
 C    -69.90350639     27.09775923    -31.89279231
 C    -71.37169086     27.23063031    -32.33819059
 C    -72.08192053     28.48205144    -31.78944750
 C    -73.56917738     28.57879567    -32.17714276
 C    -74.21879328     29.93260266    -31.83537408
 C    -75.68870528     30.05177589    -32.27894645
 C    -76.39380211     31.32476977    -31.77503667
 C    -77.91781293     31.32600673    -31.99637236
 C    -78.60350285     32.65419765    -31.62578064
 C    -80.14210134     32.58991375    -31.63928221
 C    -80.82538632     33.79837481    -30.97269125
 C    -82.33453080     33.90245243    -31.26122335
 C    -83.00290547     35.15179052    -30.65787466
 C    -84.49032946     35.30586965    -31.02588213
 C    -85.27054241     36.25414049    -30.09655432
 C    -86.71546928     36.52946823    -30.55260362
 C    -87.44236603     37.60040279    -29.71814554
 C    -88.86907147     37.91312935    -30.20631938
 C    -89.51883259     39.12251052    -29.50860333
 C    -91.02780203     39.26627949    -29.78052562
 C    -91.58127872     40.67774247    -29.51027424
 C    -92.99321763     40.91601839    -30.07706619
 C    -93.44324687     42.38830247    -30.03894457
 C    -94.86080711     42.62451514    -30.59241231
 C    -95.16717933     44.09730079    -30.92201583
 C    -96.57968087     44.33151913    -31.48909710
 C    -96.76032960     45.69808614    -32.17572703
 C    -98.18981256     45.95864865    -32.68590901
 C    -98.36428822     47.31428780    -33.39541640
 C    -99.82659700     47.66246965    -33.73011393
 C   -100.04201091     49.12997624    -34.14438589
 C   -101.50603488     49.48086854    -34.46859014
 C   -101.67971221     50.81818889    -35.21223688
 C   -101.20598607     50.78638135    -36.67721873
 C   -101.44367281     52.10228109    -37.44109890
 C   -101.05966665     52.03972025    -38.93114098
 C   -101.83540029     53.02955756    -39.81999384
 C   -101.49346038     52.92684641    -41.31803507
 C   -101.97216110     54.12861424    -42.15361852
 C   -101.35729168     54.19560004    -43.56395483
 C   -101.44062084     55.58724924    -44.21814804
 C   -100.80255197     55.66063720    -45.61782026
 C   -100.69196305     57.08943034    -46.18166446
 C   -100.30126204     57.14690833    -47.67017008
 C   -100.00429861     58.56744937    -48.18541359
 C    -98.97823925     58.61583865    -49.33278479
 C    -98.62204698     60.04104352    -49.79486504
 C    -97.29087489     60.13602249    -50.56334396
 C    -97.04659215     61.50438414    -51.22630122
 C    -95.82501986     61.53720085    -52.16346941
 C    -95.59007669     62.90116258    -52.83875462
 C    -95.26088189     64.03894951    -51.85454341
 C    -94.98993547     65.39485622    -52.53255891
 C    -94.20412877     66.38761870    -51.65590020
 C    -94.30230046     67.85116259    -52.12494347
 C    -93.50632652     68.84226104    -51.25560502
 C    -93.70567358     70.31844604    -51.64642285
 C    -92.83021936     71.30166538    -50.84738615
 C    -93.38423625     72.73778860    -50.80031833
 C    -92.76020826     73.61408692    -49.69836991
 C    -93.18870235     75.09216030    -49.75574490
 C    -92.72437157     75.92629429    -48.54735033
 C    -93.17764890     77.39744498    -48.59042365
 C    -92.69744461     78.23619353    -47.39146381
 C    -93.49335595     79.53722594    -47.17829768
 C    -93.04177071     80.35423028    -45.95348151
 C    -94.07974925     81.38409812    -45.47018782
 C    -93.52124326     82.41517743    -44.47191605
 C    -94.60277511     83.25942879    -43.77253884
 C    -94.05073679     84.23250132    -42.71424609
 C    -95.06459223     84.60524296    -41.61663012
 C    -94.43496239     85.28737619    -40.38786630
 C    -95.44670877     86.03446999    -39.49914806
 C    -94.80695382     86.78496293    -38.31632350
 C    -95.53410830     88.08751860    -37.93396884
 C    -94.76357693     88.96301877    -36.92829451
 C    -95.65363521     89.93974668    -36.13747289
 C    -94.86787381     90.98931706    -35.32964800
 C    -95.75702570     91.94630273    -34.51405783
 C    -94.97288357     93.01682347    -33.73258071
 C    -95.72555138     93.57813296    -32.51191580
 C    -94.99008599     94.72635714    -31.79618407
 C    -95.87201874     95.51871035    -30.81334582
 C    -95.08404347     96.22656514    -29.69547438
 C    -95.74635465     97.51954558    -29.18445044
 C    -94.83875601     98.37253701    -28.27876267
 C    -95.60315289     99.21181333    -27.23813177
 C    -94.74869111    100.29912958    -26.56046042
 C    -95.31219027    100.78985243    -25.21388708
 C    -94.62787649    102.05935267    -24.67380949
 C    -95.05070365    102.43809032    -23.24224567
 C    -94.10580681    103.44111275    -22.55470223
 C    -94.59860768    103.92309310    -21.17758849
 C    -93.51674214    104.62453360    -20.33547913
 C    -93.94612901    104.92301107    -18.88698401
 C    -92.79571443    105.39110489    -17.97647071
 C    -93.21185807    105.62732033    -16.51269930
 C    -92.06904122    106.12702567    -15.60944729
 C    -92.52177166    106.53787661    -14.19599879
 C    -91.36222128    106.87243812    -13.23938419
 C    -91.80531283    107.14907892    -11.79068141
 C    -90.73302112    106.82285128    -10.73457251
 C    -91.18564351    107.07377953     -9.28413534
 C    -90.05632513    106.94730158     -8.24478779
 C    -90.41729376    107.50721906     -6.85633756
 C    -89.19662719    107.87950567     -5.99437711
 C    -89.44073851    107.76114470     -4.47846143
 C    -88.23002808    108.16310673     -3.61578723
 C    -88.23673036    107.55064046     -2.20283282
 C    -86.94475436    107.80431013     -1.40405268
 C    -86.90324434    107.09432631     -0.03810982
 C    -86.09395987    105.78411323     -0.03752917
 C    -86.40167661    104.85834389      1.15405026
 C    -85.84780759    103.43001149      0.99690172
 C    -86.15886147    102.50313799      2.18675508
 C    -85.46838394    101.12889212      2.10745141
 C    -85.90468330    100.14423113      3.20821732
 C    -85.30786065     98.73252229      3.05828111
 C    -85.70374008     97.76202709      4.18656235
 C    -85.18233602     96.32642653      3.98961352
 C    -86.01042032     95.25343903      4.72075934
 C    -85.81186395     93.82792461      4.17296010
 C    -86.11799100     92.71630229      5.19383328
 C    -86.53845521     91.37895276      4.55641186
 C    -87.33163647     90.45683971      5.50095990
 C    -87.84699304     89.16894358      4.83213170
 C    -88.83132689     88.36310674      5.70006825
 C    -89.34243188     87.07238142      5.03343503
 C    -90.40596703     86.32137941      5.85592452
 C    -90.74401925     84.92062491      5.31259448
 C    -91.96588903     84.26646121      5.98393948
 C    -92.35270301     82.90093334      5.38618654
 C    -93.39810825     82.12895156      6.21248674
 C    -93.94353298     80.86980132      5.51344988
 C    -93.76239826     79.57418116      6.32595133
 C    -94.37092610     78.32647340      5.65922859
 C    -93.99961291     77.00212204      6.35191899
 C    -94.26949071     75.75051375      5.49620720
 C    -93.65292688     74.45862343      6.06407026
 C    -93.55294184     73.31061447      5.04246446
 C    -92.43583960     72.29561284      5.34816736
 C    -92.27036789     71.20401563      4.27455912
 C    -91.10381047     70.23472039      4.54141215
 C    -90.97033770     69.11224880      3.49554287
 C    -89.73221547     68.21764938      3.69136218
 C    -89.39095738     67.34428046      2.46973636
 C    -88.16872335     66.43017675      2.67506142
 C    -87.86842806     65.50777593      1.47898473
 C    -86.66562882     64.57107635      1.69685603
 C    -86.22607661     63.81136856      0.43145573
 C    -84.78908928     63.26164752      0.49834499
 C    -84.42199043     62.32467269     -0.66738080
 C    -83.02987234     61.67910364     -0.53758161
 C    -82.61513271     60.83417378     -1.75646822
 C    -81.14633468     60.37220692     -1.72785051
 C    -80.95174490     58.88200329     -2.06404686
 C    -79.48144553     58.47339374     -2.27106861
 C    -79.27491658     56.96167613     -2.48000792
 C    -77.87188620     56.46125638     -2.08925756
 C    -77.68525855     54.93995920     -2.23900737
 C    -76.21345254     54.48677550     -2.24241200
 C    -76.02739710     52.96170218     -2.13689075
 C    -74.56681636     52.52206613     -1.92470204
 C    -74.37449924     50.99525421     -1.86588466
 C    -72.91429571     50.55567450     -1.65100021
 C    -72.64599453     49.08057927     -2.00272246
 C    -71.17944932     48.64903066     -1.81668228
 C    -70.92258021     47.15953701     -2.11168551
 C    -69.46662436     46.71638720     -1.87629051
 C    -69.04153388     45.49339194     -2.71006546
 C    -67.55962585     45.10787506     -2.54597600
 C    -67.17680741     43.78439893     -3.23406099
 C    -65.65873282     43.57061289     -3.38016061
 C    -65.24887330     42.09827139     -3.56943731
 C    -63.72658808     41.86557864     -3.55934808
 C    -63.30883988     40.43606086     -3.95122221
 C    -61.88739607     40.05278947     -3.49933670
 C    -61.45465051     38.63778876     -3.92607347
 C    -60.00013388     38.29007317     -3.55854764
 C    -59.32283610     37.31370850     -4.53812905
 C    -57.85533385     36.99829250     -4.19381829
 C    -57.31519108     35.72138148     -4.86414957
 C    -55.95873731     35.24842482     -4.30922149
 C    -55.56474213     33.82544030     -4.74680903
 C    -54.35020100     33.25212074     -3.99328762
 C    -53.88738811     31.87580812     -4.50628647
 C    -52.65412834     31.31633715     -3.77303170
 C    -52.05795028     30.05407643     -4.42331594
 C    -50.70137564     29.62648690     -3.83300041
 C    -50.00804491     28.49380122     -4.61268988
 C    -48.75940531     27.92509681     -3.91335130
 C    -47.94819363     26.94415149     -4.78011649
 C    -46.94946732     26.08348588     -3.98425190
 C    -46.10944249     25.13150385     -4.85585302
 C    -44.90495582     24.51094129     -4.12392819
 C    -44.14985851     23.45099781     -4.94730409
 C    -42.88954538     22.90049452     -4.25437052
 C    -42.08093639     21.91372192     -5.11694304
 C    -40.85583546     21.31467821     -4.40148910
 C    -40.19526798     20.14884473     -5.16049035
 C    -38.84536361     19.70154126     -4.56949306
 C    -38.23435407     18.47062542     -5.26455675
 C    -36.80894535     18.12815235     -4.79283418
 C    -36.10253959     17.06497909     -5.65437555
 C    -34.57921499     17.26099780     -5.76688693
 C    -33.84039605     16.07200181     -6.40878654
 C    -32.30551640     16.17969485     -6.34439183
 C    -31.56667006     14.99482460     -6.99384434
 C    -30.06285009     15.24064105     -7.21677879
 C    -29.20704606     13.96080119     -7.18200229
 C    -27.69001841     14.22262012     -7.14103930
 C    -26.84035643     12.95320576     -6.94543333
 C    -25.32398556     13.21653688     -6.89180383
 C    -24.46535152     11.93820048     -6.90607341
 C    -23.00237142     12.16151414     -6.48013886
 C    -22.15703410     10.87476540     -6.44432695
 C    -20.74900018     11.06664496     -5.85084339
 C    -20.00476027      9.74902810     -5.56519888
 C    -18.48094336      9.91081337     -5.41220364
 C    -17.73155918      8.58716488     -5.17141735
 C    -16.19789488      8.72671347     -5.17130880
 C    -15.44754658      7.39252503     -5.00243426
 C    -13.91402083      7.52632746     -5.04710746
 C    -13.16293423      6.19933308     -4.83134174
 C    -11.64544893      6.29137043     -5.07703974
 C    -10.87015897      5.01774868     -4.69179551
 C     -9.34954470      5.11899734     -4.91333776
 C     -8.64370960      3.75665864     -5.04536075
 C     -7.10632617      3.84263641     -5.01967040
 C     -6.39976089      2.49046133     -5.22940375
 C     -4.89371831      2.51429928     -4.90867413
 C     -4.24984526      1.11812675     -4.82075500
 C     -2.71852069      1.14358045     -4.65951865
 C     -2.08654502     -0.24646570     -4.45957252
 C     -0.59193287     -0.31340330     -4.82461207
 C      0.05637461     -1.68521958     -4.56114002
 C      1.59600590     -1.65718178     -4.54244790
 C      2.24242316     -3.00247521     -4.16306644
 C      3.77195739     -3.03430241     -4.33945259
 C      4.41726737     -4.38264611     -3.96912262
 C      5.95498537     -4.38511876     -4.05289149
 C      6.61193231     -5.65076985     -3.47138650
 C      8.13654819     -5.71661900     -3.67829300
 C      8.78254379     -7.01744294     -3.16629032
 C     10.32155192     -6.97905846     -3.12653349
 C     10.97994270     -8.36640542     -3.01081840
 C     12.51606494     -8.32430109     -2.91004304
 C     13.17286862     -9.71023047     -2.77072796
 C     14.70517218     -9.66528362     -2.62367164
 C     15.36448182    -11.05237246     -2.51011388
 C     16.90295708    -11.01199967     -2.45476140
 C     17.54830776    -12.33438289     -2.00042109
 C     19.07873773    -12.26335305     -1.84441187
 C     19.68203515    -13.43424265     -1.04650851
 C     21.18261436    -13.27530902     -0.73893394
 C     21.80056905    -14.47531027      0.00250318
 C     23.21778177    -14.21389210      0.54542920
 C     23.81163601    -15.39227933      1.33936918
 C     25.28346671    -15.19447187      1.74702909
 H     -0.36333333      0.00000000      1.02766186
 H     -0.36333333     -0.88998127     -0.51383093
 H     -0.36333333      0.88998127     -0.51383093
 H      1.88274777     -0.76530734     -0.69636819
 H      1.88274777      0.77639860     -0.68398040
 H      1.62962592      0.65094801     -2.04538432
 H      2.94681487     -0.81080676     -1.40670802
 H      4.04303660     -0.56106154     -0.49372893
 H      4.03891027     -0.96772047     -1.92224902
 H      3.77126724     -2.21018697     -1.26316000
 H      5.17414753     -1.10022654     -0.22459794
 H      6.30907861     -0.56194374     -0.91144553
 H      5.95874179     -1.77069841     -2.17019210
 H      5.87333770     -3.48877032     -0.26819759
 H      6.61452206     -2.22932971      0.74803160
 H      8.42493419     -1.64146137     -0.41879330
 H      8.26036762     -3.11237040     -1.40753549
 H      8.04249950     -4.80808314     -0.50944766
 H      8.66091348     -4.11842852      1.01048896
 H     10.63312862     -3.18429278      0.07226053
 H     10.35950544     -4.17495864     -1.38100414
 H     10.14554386     -6.24548771     -0.41266641
 H     11.60793378     -5.33409664      0.71880169
 H     12.72514045     -4.62563090      0.40731057
 H     12.61035653     -5.50324520     -1.13699655
 H     12.37821869     -7.65426270      0.10685657
 H     12.90930591     -6.77245325      1.55896714
 H     14.88979513     -5.88653158      0.67290527
 H     14.75796707     -7.03377764     -0.68161107
 H     14.52984983     -8.99631377      0.50379994
 H     15.08265386     -8.15008269      1.96891677
 H     17.06683651     -7.26739737      1.04891057
 H     16.91356370     -9.18203235      0.28205877
 H     16.68258126    -10.35203165      1.02511661
 H     17.27883682     -9.40776126      2.41115392
 H     19.18040588     -8.52357290      1.61485033
 H     19.14524110     -9.68137470      0.26336038
 H     18.91912558    -11.58369166      1.81259868
 H     19.37422520    -10.47260756      3.12661662
 H     21.14705312     -9.47897227      2.65987484
 H     21.50616179    -10.67142695      1.38812037
 H     21.15533191    -12.49420236      3.10345403
 H     21.22283074    -11.21111213      4.33527789
 H     23.34517805    -10.35382552      3.59308525
 H     23.55318956    -11.84252516      2.63979031
 H     23.15877904    -13.26453151      4.59458793
 H     23.37106814    -11.81550922      5.60628671
 H     25.41958800    -11.10543702      4.81361961
 H     25.64858980    -12.69574809      4.04763295
 H     25.34335849    -14.24058447      5.36205987
 H     25.49750796    -13.12920538      6.74384898
 H     27.62064019    -12.23645987      5.93572835
 H     27.69325251    -13.60972205      4.80561991
 H     27.42896866    -15.40579030      5.89695641
 H     27.77128173    -14.55098122      7.42023900
 H     29.42120189    -13.43829811      7.42239216
 H     30.03477567    -14.29164382      5.98587033
 H     29.68350160    -16.48479686      7.00507113
 H     29.47843411    -15.65325680      8.56544132
 H     30.83049213    -14.38597439      9.11718149
 H     31.99070015    -15.06874449      7.95270350
 H     31.88949295    -17.26623614      8.40362309
 H     31.06831257    -16.90579813      9.94115810
 H     32.78714946    -15.33514443     10.64388490
 H     33.82105287    -15.98234657      9.34756712
 H     33.65160403    -18.25326967      9.96876992
 H     32.98516964    -17.73528672     11.53587729
 H     34.20886309    -16.31720858     12.43043903
 H     35.55000327    -16.75682297     11.34584286
 H     35.83760297    -18.82775382     11.35748708
 H     34.88095519    -18.97345655     12.85142898
 H     35.82023957    -17.46842828     14.20365582
 H     37.23176362    -17.38336381     13.12262366
 H     37.44891201    -19.87463682     13.24600256
 H     36.31683526    -19.81593543     14.61830830
 H     37.55787740    -18.23126313     15.88552946
 H     38.94702193    -18.52683906     14.81259935
 H     38.70525811    -20.99524154     15.32046630
 H     37.62251345    -20.51291761     16.64835722
 H     39.00351974    -19.02439561     17.73987524
 H     40.38506287    -19.66412839     16.81773251
 H     40.41545741    -21.77372832     17.01187225
 H     39.31051224    -21.67882144     18.40412062
 H     40.36123443    -20.16152533     19.71325624
 H     41.84085152    -20.36771320     18.74553393
 H     41.92332081    -22.73773700     18.93802493
 H     40.72880487    -22.62833283     20.25310252
 H     42.21102276    -20.98692942     21.42954680
 H     43.49622634    -21.47312673     20.29811823
 H     43.25643699    -23.83445985     20.84213270
 H     42.29403773    -23.34582228     22.25750814
 H     43.67818583    -21.86638739     23.26109216
 H     45.02515555    -22.46666087     22.26429178
 H     45.07119272    -24.60388355     22.47459020
 H     44.02866305    -24.49744310     23.91336363
 H     45.25555096    -22.92917519     25.11152113
 H     46.63058032    -23.20849054     24.01628423
 H     46.73964269    -25.53208884     24.22138763
 H     45.68775798    -25.42441732     25.65324380
 H     46.92833848    -23.85078140     26.85005293
 H     48.29965109    -24.14256614     25.75340803
 H     48.81341363    -26.03667936     25.49394066
 H     47.92002361    -26.51149224     26.95841109
 H     48.98908307    -24.84135699     28.34445182
 H     49.37838292    -24.26539628     27.74911442
 H     49.69468858    -23.32790120     26.73021077
 H     51.05589973    -24.40977900     26.34953861
 H     51.99480148    -24.77356723     28.33486345
 H     51.09519711    -23.39412061     29.01021943
 H     51.34250934    -21.70040084     27.83601521
 H     52.75280066    -22.43363846     27.03494863
 H     53.91440599    -23.01444130     29.00802132
 H     52.82014787    -21.94727129     29.92016933
 H     52.77687697    -20.04726550     29.02455330
 H     54.26127864    -20.42002326     28.11577940
 H     55.75281628    -21.14696235     29.30237815
 H     54.92565862    -20.54261012     30.75800009
 H     54.60094958    -18.33819457     30.03806890
 H     55.77381790    -18.62682576     28.73065213
 H     57.55119621    -19.42842444     29.83487953
 H     56.85597980    -18.84453769     31.36589785
 H     56.40255395    -16.70131873     30.92402730
 H     57.43906085    -16.78455767     29.47938500
 H     59.34910353    -17.61205524     30.25166914
 H     58.83286347    -17.24731696     31.91561892
 H     58.21719586    -15.20486248     31.98126254
 H     59.03410870    -14.89326065     30.43083538
 H     61.12692412    -15.77461391     30.99709051
 H     60.63656370    -15.75469436     32.70805998
 H     60.01533007    -13.39852501     32.62722644
 H     60.88214112    -13.28934573     31.07642498
 H     62.79666773    -14.02108616     31.20927996
 H     62.73858932    -13.92138532     32.98549878
 H     62.03068670    -11.67704531     33.11828954
 H     62.45756079    -11.47973514     31.40157353
 H     64.23763909    -12.05445453     30.84554069
 H     64.80485382    -12.03621407     32.53260957
 H     64.31344869    -10.23869143     33.45571511
 H     64.01531869     -9.48132430     31.87274949
 H     66.34645185    -10.32206537     31.21293348
 H     66.59442436    -10.64454846     32.94578689
 H     65.88124520     -7.96912676     32.81399513
 H     66.15489195     -8.21461669     31.07240998
 H     68.04403252     -8.99278691     30.71765162
 H     68.56925617     -8.52470282     32.35267580
 H     67.89333965     -6.27928590     32.25404818
 H     67.72452370     -6.44313843     30.48970123
 H     69.82892837     -7.28465059     30.00739296
 H     70.36953106     -6.79320946     31.63050756
 H     69.69843460     -4.56513163     31.54699614
 H     69.50503494     -4.71929107     29.78429988
 H     71.42680816     -5.54046815     29.08758738
 H     72.17677549     -5.11223008     30.64400244
 H     71.36432235     -2.77634403     30.41941095
 H     71.00868424     -3.14981779     28.71579551
 H     72.73633374     -3.95706655     27.80931400
 H     73.74293245     -3.35302038     29.14728034
 H     73.31893514     -1.30005811     29.44767680
 H     72.53474222     -1.21065028     27.85227266
 H     74.60565306     -2.22418033     26.83884767
 H     75.41475146     -1.88308487     28.38716298
 H     74.57435457      0.55998677     27.94151734
 H     74.22261053     -0.01343851     26.29357127
 H     76.53058197     -0.79886809     25.98798607
 H     76.96635492      0.13996544     27.43607453
 H     76.00387791      2.19395355     26.52179799
 H     75.95141043      1.38467521     24.93731625
 H     77.73866018      0.57148928     24.39971068
 H     78.58410745      1.55781281     25.61653092
 H     77.41363189      3.58365255     24.60522851
 H     76.98778360      2.52136183     23.24197566
 H     78.99852924      1.70454681     22.63743251
 H     79.79359203      2.97833568     23.59325871
 H     78.61154172      4.78962527     22.59270533
 H     78.08717760      3.67713834     21.30597235
 H     79.78198985      2.70195923     20.50481146
 H     80.85291926      3.91539694     21.24572022
 H     79.78837823      5.82714109     20.43302014
 H     78.77518852      5.07502243     19.59081149
 H     78.12133361      4.07142574     18.83250474
 H     79.66602237      3.92157739     17.96086906
 H     80.06826156      6.13426568     17.49256473
 H     78.37590021      6.50725423     17.89883958
 H     77.74904242      4.67318112     16.21201141
 H     79.44509343      4.74913587     15.67730728
 H     79.31759412      7.15953648     15.27702599
 H     77.54733480      7.01767217     15.39670533
 H     77.97746206      5.18047641     13.51758086
 H     79.61034693      5.88396588     13.43357940
 H     78.36437468      8.12173923     13.00789770
 H     76.91805033      7.11709592     12.74885260
 H     77.72897436      5.68857975     11.13509585
 H     79.10141330      6.79248668     10.87805988
 H     78.05447023      8.76274215     10.54081056
 H     76.52181462      7.89394016     10.28700642
 H     77.39837012      6.41315816      8.61997324
 H     78.81654618      7.48073519      8.48835788
 H     78.00441489      9.48244165      8.15027757
 H     76.42384743      8.77717483      7.73473953
 H     78.05112837      7.40598055      6.06945508
 H     79.25641344      8.62925755      6.53758750
 H     78.08517558     10.54001067      6.00071901
 H     76.94245661      9.54942052      5.06200118
 H     77.47159321      8.30096789      3.81270978
 H     79.07540259      9.06306365      3.68912908
 H     78.39160179     11.25656295      3.35119722
 H     76.75217244     10.66215631      2.99451977
 H     77.00675678      9.12893980      1.46212083
 H     78.65482170      9.71785194      1.13757323
 H     78.21127149     11.95200177      0.81753025
 H     76.48177155     11.56400983      0.65456130
 H     76.32870247      9.81794690     -0.64215944
 H     77.40770494     10.24601195     -1.38975737
 H     74.82500051     11.06670053      0.19418130
 H     75.28567765      9.37469212     -0.11102484
 H     75.30364871      9.10011115     -2.24548086
 H     74.37479835     10.60345248     -2.45871440
 H     72.63853215     10.06522437     -0.94949020
 H     73.19941052      8.37603392     -0.96731553
 H     72.96417874      8.60676048     -3.55443003
 H     72.07244959     10.10677178     -3.20364253
 H     70.49978435      9.61255316     -1.83077191
 H     70.69534094      7.88416697     -2.20853569
 H     70.60077697      7.85487678     -4.44547069
 H     69.92792536      9.50271924     -4.43311872
 H     68.23947505      9.44114382     -3.05765788
 H     68.24041230      7.66244828     -3.12479922
 H     68.27696146      6.78058431     -4.81940815
 H     67.73611593      8.26519590     -5.63896975
 H     66.08451597      9.08503869     -4.71495499
 H     65.77475712      7.55615185     -3.85773790
 H     65.77845543      5.96422444     -5.22954138
 H     65.60309100      7.10531464     -6.58432074
 H     63.57044099      7.97348390     -5.15001676
 H     63.79353793      6.48273592     -4.20335691
 H     63.68627873      4.92837088     -5.89337298
 H     63.00516062      6.17343164     -6.96769532
 H     61.24112485      6.72525664     -5.35398638
 H     61.65691230      5.22441037     -4.49210011
 H     61.89797849      3.63379900     -5.02856362
 H     60.95037319      3.98100142     -6.49477007
 H     59.13030563      4.91344678     -5.91002950
 H     59.37479084      4.37442715     -4.23135399
 H     59.78011486      2.28725168     -4.24989441
 H     59.16041838      2.16529176     -5.91403644
 H     57.08441877      3.24309413     -5.47261072
 H     57.39629472      3.03328907     -3.73278835
 H     57.77013314      0.63241354     -3.97486290
 H     57.05583544      0.75156035     -5.60085475
 H     55.03053702      1.83846852     -4.58381890
 H     55.65036513      1.30060763     -3.00432992
 H     55.85949615     -0.99656069     -3.61537260
 H     54.85854399     -0.65860485     -5.04790437
 H     53.05833349      0.33810440     -3.86424391
 H     53.73704689     -0.32509188     -2.35832708
 H     53.92600825     -2.53998560     -2.97751400
 H     52.86422763     -2.21784123     -4.36931555
 H     51.12409257     -1.26891573     -3.78999779
 H     51.40593474     -1.73431490     -2.09523077
 H     51.73112431     -4.05788870     -2.56492762
 H     51.04546794     -3.77688294     -4.18331501
 H     49.03668460     -2.74565061     -3.37103579
 H     49.43350837     -3.36674886     -1.75083996
 H     49.74460238     -5.57048812     -2.18290775
 H     48.95210467     -5.36010752     -3.76276662
 H     47.03697251     -4.36092717     -3.26680153
 H     47.28101607     -5.92642231     -1.94544891
 H     47.58991310     -7.18024573     -2.19168266
 H     46.96338284     -6.75318085     -3.80206835
 H     45.03931153     -5.94122339     -1.92099760
 H     46.05618321     -6.91599514     -0.83285299
 H     46.16847027     -8.89141644     -1.78311086
 H     44.19801636     -8.30349407     -2.01233247
 H     43.40549385     -7.81354539     -0.92646815
 H     44.59194447     -8.61490225      0.13108979
 H     43.02006096     -9.66005780     -2.34900073
 H     42.36049362     -8.06478614     -1.91501233
 H     41.68598328     -8.10212563      0.07767454
 H     41.70482453     -9.88197624      0.07108057
 H     40.51219889    -10.34242758     -1.79444629
 H     39.92445117     -8.66250133     -1.82027400
 H     39.12867313     -8.51001659      0.33923639
 H     39.20896056    -10.28334490      0.47010777
 H     38.10792714    -11.01995803     -1.28794411
 H     37.39971033     -9.40422249     -1.52478643
 H     36.55337349     -8.80402966      0.36153156
 H     36.11516384    -10.81768614      0.27597415
 H     35.56533357    -11.55033020     -0.78900521
 H     34.96166496     -9.97627094     -1.36013417
 H     34.00828402     -9.16234130      0.53606324
 H     34.06841116    -10.79198156      1.24945232
 H     33.02565616    -11.97434077     -0.43729839
 H     32.45025266    -10.43771382     -1.12719337
 H     31.47101839     -9.75533696      1.02498014
 H     31.67558127    -11.43780637      1.56877916
 H     30.55643657    -12.48019185     -0.20050123
 H     29.87638110    -10.90054895     -0.65932531
 H     28.98412555     -9.96533668      0.95236972
 H     28.94084641    -11.50147749      1.85051505
 H     27.77322925    -12.35071137     -0.36332769
 H     27.64239694    -10.62399240     -0.77514218
 H     26.64001444     -9.70067727      0.93934091
 H     26.13085554    -11.30690053      1.51298777
 H     25.21887114    -11.39326052     -1.01461561
 H     25.55842740     -9.64599288     -1.00971537
 H     24.88896402     -8.52458447      0.34369906
 H     23.66703944     -9.74001738      0.78854719
 H     22.85886924    -10.03919721     -1.45023710
 H     23.72556525     -8.55330498     -1.90765263
 H     22.84259635     -7.13516930     -0.28747310
 H     21.57579482     -8.34237323      0.03831703
 H     20.94346428     -8.44699679     -2.32990405
 H     21.89596576     -6.96389159     -2.57770749
 H     20.36419127     -6.05422578     -0.63801439
 H     19.38558098     -7.51268720     -0.92694151
 H     19.04394173     -7.15595735     -3.23742050
 H     19.60878336     -5.48169451     -3.02279401
 H     17.75758731     -5.41565243     -1.16741876
 H     17.18612421     -6.94186626     -1.88321757
 H     17.07421464     -5.61681818     -4.09918556
 H     17.26826352     -4.16071818     -3.09400673
 H     15.33843605     -4.77655743     -1.69852647
 H     14.91062875     -5.97306786     -2.94496554
 H     14.91257571     -4.41183727     -4.75459132
 H     14.90695683     -3.09561499     -3.55634511
 H     13.10640666     -3.71454379     -2.28370745
 H     12.60860099     -4.84141642     -3.56846979
 H     12.63269916     -3.28152388     -5.33550566
 H     12.69638845     -1.97324101     -4.13026449
 H     10.86517806     -2.59380460     -2.84559197
 H     10.35061854     -3.68515810     -4.15419531
 H     10.42332370     -1.95683012     -5.84353239
 H     10.51481473     -0.75763491     -4.53134837
 H      8.70910366     -1.35909748     -3.27878304
 H      8.10834371     -2.33502066     -4.64074048
 H      8.22876363     -0.56812291     -6.24501347
 H      8.41111039      0.57959157     -4.89676729
 H      6.26279165     -0.45557818     -3.94641358
 H      6.05869389     -1.21192234     -5.54471088
 H      6.23236139      1.07242584     -6.58885375
 H      6.01554204      1.73347986     -4.95048150
 H      3.99852937      0.54374790     -4.49282406
 H      3.87837634      0.17205525     -6.22939380
 H      4.12191075      2.92684504     -6.11852284
 H      3.82418570      2.66039514     -4.38398229
 H      1.83917784      1.50014819     -4.51071604
 H      1.67038567      2.01649310     -6.20575698
 H      1.94032724      4.31396643     -5.86585804
 H      1.68896281      4.05374628     -4.12305339
 H     -0.40095002      2.86608560     -4.45545311
 H     -0.40689254      3.46779443     -6.13061812
 H     -0.15639129      5.73301806     -5.68706300
 H     -0.57172907      5.41836075     -3.98507829
 H     -2.59104414      4.26692700     -4.40762395
 H     -2.54360251      4.87666931     -6.07921907
 H     -2.31681503      7.21384884     -5.07304246
 H     -2.78195283      6.47131200     -3.52367080
 H     -4.85177546      5.57800694     -4.69891593
 H     -4.45520442      6.69975606     -6.02280301
 H     -4.34662614      8.64838447     -4.66631954
 H     -5.15335420      7.73669379     -3.36775240
 H     -6.89110462      6.83529590     -4.07176549
 H     -6.88679745      7.89335762     -5.50311224
 H     -6.68258468      9.93582017     -4.35655282
 H     -7.11233674      9.09211492     -2.84932315
 H     -9.01781146      8.04838554     -3.39850065
 H     -9.15914148      9.07902133     -4.84282830
 H     -9.00110842     10.68020298     -5.16241138
 H    -10.25914215     10.50451196     -3.52887509
 H    -11.36298678      9.59073999     -3.54735828
 H    -11.19380961      9.62155091     -5.31899494
 H    -11.02931851     11.41533468     -6.14158488
 H    -11.67023284     12.18299464     -4.66910613
 H    -13.41067034     11.28997091     -4.03316658
 H    -13.62258969     10.51462129     -5.62130695
 H    -13.41542235     12.19383589     -7.05769720
 H    -13.63077132     13.35679475     -5.72750241
 H    -15.40811340     12.79724422     -4.66570286
 H    -15.91376993     11.76866971     -6.02754449
 H    -15.74127608     13.23556720     -7.75987245
 H    -15.65573205     14.57868295     -6.59497376
 H    -17.62587604     13.99000205     -5.40165875
 H    -18.05741003     12.89789206     -6.73932121
 H    -17.89222860     14.41741158     -8.49003103
 H    -17.88624305     15.74327124     -7.30245914
 H    -20.06960339     14.63750497     -6.42609955
 H    -20.03888983     13.69032086     -7.93280642
 H    -19.90563306     15.35547572     -9.48105771
 H    -20.37533969     16.53382756     -8.23240673
 H    -22.35303107     15.28609590     -7.58987313
 H    -22.16336390     14.33289497     -9.08108103
 H    -22.05542253     16.02710885    -10.62445038
 H    -22.68045789     17.15704142     -9.39935861
 H    -24.47012633     16.27981081     -8.58644688
 H    -24.55307745     15.14869136     -9.95829038
 H    -24.38533115     16.96914165    -11.59041389
 H    -24.72628156     18.10121131    -10.25983590
 H    -26.73543301     16.99428854     -9.56236135
 H    -26.71484237     16.09671556    -11.09930814
 H    -26.54733830     17.66613668    -12.64352749
 H    -27.00758265     18.89770117    -11.44365636
 H    -28.97050863     17.83784530    -10.68713241
 H    -28.89961616     16.77170489    -12.11071436
 H    -28.74364145     18.41947258    -13.75135648
 H    -29.24440269     19.62774402    -12.54405164
 H    -31.17955485     18.58205246    -11.79389890
 H    -31.11901698     17.51146749    -13.21462043
 H    -30.96873707     19.28862882    -14.81089091
 H    -31.45437953     20.41934500    -13.52485087
 H    -33.06137362     19.96578663    -12.50025742
 H    -33.58156588     18.82339427    -13.76224251
 H    -33.47372768     19.92372593    -15.63832370
 H    -33.38493484     21.45867870    -14.74149457
 H    -35.38096712     20.93695081    -13.43328493
 H    -35.71885431     19.62952753    -14.59291561
 H    -35.61663472     21.00482849    -16.53390959
 H    -35.71016102     22.43132246    -15.47342175
 H    -37.88480394     21.05450275    -14.66054879
 H    -37.58762945     20.06998011    -16.09708647
 H    -37.21343185     19.95271315    -17.48835037
 H    -37.96055400     21.55403720    -17.70244479
 H    -39.91153537     21.43479645    -16.74914023
 H    -39.80399528     19.65815643    -16.73326489
 H    -39.32197002     18.84221749    -18.50673112
 H    -39.75406352     20.34897599    -19.35008201
 H    -41.80651710     20.77944749    -18.54914814
 H    -41.90686209     19.11364063    -17.93004796
 H    -41.40398477     17.85024303    -19.66438832
 H    -41.66200756     19.23592264    -20.75139473
 H    -43.90747177     19.62384677    -19.76994651
 H    -43.77039742     18.01429265    -19.02240867
 H    -43.29672811     16.86411477    -21.06149876
 H    -43.83366495     18.31146624    -21.94757960
 H    -45.90910771     18.59024623    -20.96614101
 H    -45.79297076     16.94025302    -20.30864480
 H    -45.33068044     16.18609481    -22.71489028
 H    -45.87700066     17.80735779    -23.20612060
 H    -47.91474745     17.89571253    -22.19137104
 H    -47.85115900     16.13419937    -21.94379365
 H    -47.39690925     15.84416830    -24.39621597
 H    -47.88400962     17.54478138    -24.59348494
 H    -49.96772517     17.40512624    -23.54633402
 H    -49.86712162     15.63112122    -23.65146143
 H    -49.43299699     15.48560447    -25.95072572
 H    -49.93189592     17.18594686    -26.11866101
 H    -51.84680610     17.40729365    -25.20874087
 H    -52.07497451     15.64207956    -25.22374378
 H    -51.46921123     16.01145493    -27.79618684
 H    -51.71396358     17.73704528    -27.43466104
 H    -54.07690097     16.50176567    -26.67051819
 H    -53.37744253     15.12386956    -27.55393592
 H    -52.85195523     15.66162638    -29.48398659
 H    -53.86106328     17.12395019    -29.37639155
 H    -55.74003935     16.77108937    -28.72155090
 H    -55.56754126     15.03516961    -29.07523670
 H    -54.83131481     16.03673651    -31.44200157
 H    -55.48707730     17.56580931    -30.80940485
 H    -57.61150882     16.84540364    -30.24517477
 H    -57.34793341     15.38206282    -31.21867272
 H    -57.26527068     18.55837600    -30.92506254
 H    -57.95974699     17.64539078    -29.56402348
 H    -59.73496883     16.77163610    -31.11552990
 H    -59.21106986     18.02260252    -32.26830029
 H    -59.55975769     19.74765204    -30.46463119
 H    -60.43764484     18.48840552    -29.56358791
 H    -61.83837752     18.34802215    -31.79237071
 H    -61.02347791     19.87030826    -32.22463256
 H    -61.38162631     21.23376251    -30.57190794
 H    -62.68396797     20.17868834    -29.97274905
 H    -63.69464722     20.27693046    -32.30001945
 H    -62.57407896     21.62314530    -32.61671970
 H    -63.50233077     22.77754122    -30.56861475
 H    -64.81968474     21.58136360    -30.61338410
 H    -65.43674501     22.02162086    -32.87971332
 H    -64.46347052     23.51008006    -32.80560096
 H    -65.04476509     24.63554443    -31.11789654
 H    -66.54413833     23.68650284    -30.97837370
 H    -67.62509668     23.45210393    -32.57449761
 H    -66.80594681     24.81859059    -33.36820686
 H    -67.01045350     26.41682537    -31.74378955
 H    -68.23872544     25.41344368    -30.93580447
 H    -69.71669597     24.87401445    -32.35752544
 H    -69.14405962     26.14758328    -33.46132646
 H    -69.19939742     27.92808334    -31.94657348
 H    -70.18455099     26.92642551    -30.85367793
 H    -71.85459629     26.26050950    -32.22085362
 H    -71.38624942     27.51898069    -33.38925771
 H    -71.40921088     29.33289793    -31.89725271
 H    -72.29556428     28.31935772    -30.73304459
 H    -74.02441890     27.59839793    -32.03687365
 H    -73.63175977     28.86145816    -33.22799259
 H    -73.53373932     30.72639337    -32.13319511
 H    -74.37698547     29.97453058    -30.75772976
 H    -76.20263268     29.12774261    -32.01410478
 H    -75.71071119     30.18251656    -33.36085339
 H    -75.71980359     32.16937054    -31.91812941
 H    -76.60298185     31.20285200    -30.71226675
 H    -78.30640544     30.34844909    -31.71093073
 H    -78.11022436     31.49841338    -33.05531230
 H    -78.00279756     33.47250199    -32.02280854
 H    -78.64417436     32.72737372    -30.53900049
 H    -80.45106571     31.66971115    -31.14343124
 H    -80.47535018     32.57303203    -32.67695278
 H    -80.32307484     34.70510514    -31.30977180
 H    -80.71483841     33.70188588    -29.89261299
 H    -82.77338781     32.91059352    -31.15296243
 H    -82.46437745     34.24721668    -32.28707786
 H    -82.35946593     36.01066731    -30.84870498
 H    -83.10051973     35.00273878    -29.58253516
 H    -84.97249335     34.33426717    -30.91814817
 H    -84.55462217     35.63021686    -32.06451841
 H    -84.66436117     37.14418846    -29.92785661
 H    -85.43807672     35.74354161    -29.14822893
 H    -87.16549721     35.58389029    -30.85502257
 H    -86.68230200     37.20571090    -31.40682594
 H    -86.75984778     38.43609203    -29.56357412
 H    -87.70608454     37.16371861    -28.75489091
 H    -89.37104308     36.97048880    -30.42438654
 H    -88.79708476     38.50588281    -31.11821919
 H    -88.78204639     39.92400620    -29.45521082
 H    -89.80435552     38.82367464    -28.50000342
 H    -91.48792741     38.28245808    -29.68843833
 H    -91.15914571     39.63503430    -30.79781060
 H    -90.88797560     41.40459998    -29.93348688
 H    -91.64379338     40.82063568    -28.43149093
 H    -93.60689135     40.04543008    -29.84559147
 H    -92.91411812     41.02764392    -31.15844633
 H    -92.61536315     43.00875646    -30.38208507
 H    -93.68719766     42.64555813    -29.00821301
 H    -95.51783081     41.85190793    -30.19304036
 H    -94.82260029     42.54310163    -31.67869592
 H    -94.30909425     44.51662850    -31.44732932
 H    -95.31756339     44.63403633    -29.98531972
 H    -97.28808859     43.75633010    -30.89292927
 H    -96.59876755     43.97582644    -32.51925166
 H    -95.89112085     45.88194649    -32.80721061
 H    -96.81695118     46.46498871    -31.40322820
 H    -98.89177965     45.65025871    -31.91115883
 H    -98.34924710     45.35728102    -33.58091605
 H    -97.51928760     47.46023120    -34.06830159
 H    -98.36628643     48.09921656    -32.63912093
 H   -100.44215159     47.42803477    -32.86164814
 H   -100.14049785     47.04857799    -34.57433149
 H    -99.25095037     49.40932179    -34.84029485
 H    -99.97641583     49.75140284    -33.25128664
 H   -102.14208876     49.04110122    -33.70038433
 H   -101.75543568     49.04903369    -35.43782588
 H   -100.77919263     51.00440528    -35.79746156
 H   -101.52096477     51.62890939    -34.50115917
 H   -101.56953920     49.86645255    -37.13510531
 H   -100.11602112     50.79007742    -36.68513981
 H   -101.14519045     52.93044290    -36.79832655
 H   -102.50750092     52.18127066    -37.66499706
 H   -101.43729896     51.10402624    -39.34341584
 H    -99.97237202     52.05709351    -39.00589766
 H   -101.86528761     53.99424676    -39.31345511
 H   -102.85078006     52.65379733    -39.94612137
 H   -101.46141004     51.87199894    -41.59074297
 H   -100.51181145     53.37318939    -41.47691656
 H   -101.73156818     55.04195683    -41.60954099
 H   -103.05260106     54.05244658    -42.27588042
 H   -101.38399321     53.19581847    -43.99734131
 H   -100.32204709     54.52389925    -43.47128185
 H   -101.16008749     56.33299108    -43.47432673
 H   -102.47039606     55.75710503    -44.53249183
 H   -101.11420699     54.78229967    -46.18305855
 H    -99.71882720     55.65203944    -45.50134406
 H   -100.32576777     57.74296567    -45.38989897
 H   -101.68572533     57.41402946    -46.49016397
 H   -100.88784070     56.40173262    -48.20751414
 H    -99.24165341     56.90613511    -47.75594776
 H    -99.38441682     59.07700456    -47.44771442
 H   -100.95051127     59.09765688    -48.29340249
 H    -99.22217559     57.82689682    -50.04423812
 H    -97.98795443     58.43476535    -48.91487518
 H    -98.46808796     60.65959293    -48.91067431
 H    -99.45946327     60.43368769    -50.37163580
 H    -97.24801940     59.31375789    -51.27758785
 H    -96.47436202     60.03871230    -49.84784591
 H    -97.31035208     62.28364228    -50.51125756
 H    -97.69149583     61.58113574    -52.10169167
 H    -95.84097719     60.63776406    -52.77898450
 H    -94.92329294     61.54247016    -51.55112898
 H    -96.19598010     63.64713795    -52.32445722
 H    -96.33905298     63.03033780    -53.62006652
 H    -94.53634578     63.66671019    -51.13026079
 H    -96.17828190     64.32171910    -51.33828904
 H    -95.74766449     65.55167108    -53.30025405
 H    -94.00475509     65.35491437    -52.99723544
 H    -93.38229489     65.85058622    -51.18231262
 H    -94.87567419     66.77366104    -50.88902469
 H    -95.34215996     68.06206233    -52.37457026
 H    -93.68407487     67.96802862    -53.01502181
 H    -92.52744281     68.40883909    -51.05058769
 H    -94.04417456     68.98463358    -50.31829528
 H    -94.76900734     70.48743724    -51.81631486
 H    -93.15604233     70.50603057    -52.56882056
 H    -91.82127921     70.89324355    -50.78966803
 H    -93.24412536     71.39078795    -49.84297637
 H    -94.45418440     72.68596531    -50.59876117
 H    -93.21981602     73.20064757    -51.77336898
 H    -91.68194459     73.45463705    -49.70318819
 H    -93.16958992     73.30041535    -48.73810078
 H    -94.26441079     75.13075702    -49.92738884
 H    -92.67056908     75.56713686    -50.58883264
 H    -91.68418799     75.67673478    -48.33797470
 H    -93.34170962     75.65988554    -47.68943419
 H    -94.22508766     77.42471134    -48.89080439
 H    -92.57340851     77.92070856    -49.33149637
 H    -91.64863201     78.00284595    -47.20804883
 H    -93.57059106     78.53998297    -46.81403221
 H    -94.55435952     79.31129127    -47.28471648
 H    -93.19511736     80.25116775    -47.94604819
 H    -91.95221518     80.38388536    -45.94403026
 H    -93.39935149     79.85110846    -45.05509161
 H    -95.05964844     80.90673642    -45.46535290
 H    -94.08586412     82.21918493    -46.17068238
 H    -92.55454818     82.75937234    -44.83951704
 H    -93.38924060     81.92280034    -43.50846388
 H    -95.40935112     82.59485765    -43.46289333
 H    -94.98585482     83.98680351    -44.48827340
 H    -93.16969648     84.72396687    -43.12695616
 H    -93.76634520     83.65614125    -41.83388793
 H    -95.57281380     83.69573198    -41.29631684
 H    -95.79154768     85.29703117    -42.04214729
 H    -93.72373208     86.03546256    -40.73803516
 H    -93.90889093     84.52962450    -39.80721046
 H    -96.32368053     85.40010107    -39.37032022
 H    -95.73533298     86.95457611    -40.00728268
 H    -93.92307229     87.30867701    -38.68043476
 H    -94.51155478     86.05249509    -37.56510431
 H    -96.60653372     87.89263391    -37.92910223
 H    -95.30526561     88.84156247    -38.68706171
 H    -93.71919463     89.00232022    -37.23784421
 H    -94.83381585     88.49812895    -35.94491058
 H    -96.54431301     89.40344632    -35.81009699
 H    -95.94339039     90.75393606    -36.80173005
 H    -94.07027724     91.38098844    -35.96094289
 H    -94.43385491     90.49733221    -34.45920070
 H    -96.53088839     91.35830533    -34.02060511
 H    -96.22097891     92.65310163    -35.20201331
 H    -94.20458643     93.42601863    -34.38861335
 H    -94.50079692     92.53788285    -32.87476367
 H    -96.17694831     92.74423163    -31.97437568
 H    -96.50881890     94.24637327    -32.86975218
 H    -94.60672779     95.41170342    -32.55211856
 H    -94.15770449     94.30264797    -31.23430191
 H    -96.45658994     94.80863289    -30.22839582
 H    -96.54380447     96.15364007    -31.39098601
 H    -94.21264945     96.70620594    -30.14125142
 H    -94.75720678     95.47444432    -28.97742700
 H    -96.81168817     97.33011617    -29.05299322
 H    -95.60549433     98.29678594    -29.93555350
 H    -93.84876665     98.41964992    -28.73241609
 H    -94.76990866     97.88536007    -27.30612776
 H    -96.37177313     98.58319165    -26.78851227
 H    -96.07396379    100.04962122    -27.75244203
 H    -94.16133705    100.80187873    -27.32880832
 H    -94.07887808     99.81519046    -25.84964861
 H    -95.63006060     99.92060742    -24.63815141
 H    -96.17320883    101.42740950    -25.41455605
 H    -94.51474632    102.76447509    -25.49728015
 H    -93.64414840    101.78331986    -24.29409259
 H    -95.05705024    101.53239661    -22.63579812
 H    -96.05653120    102.85628775    -23.28125668
 H    -93.86316798    104.22818080    -23.26867021
 H    -93.19464604    102.91446963    -22.27091872
 H    -94.96046151    103.05847204    -20.62117836
 H    -95.41857100    104.62421537    -21.33311249
 H    -92.97211458    105.31288662    -20.98173832
 H    -92.83311640    103.86567127    -19.95484305
 H    -94.44754304    104.04062340    -18.48939634
 H    -94.64291324    105.76108703    -18.90183062
 H    -92.20318933    106.12502203    -18.52271207
 H    -92.17462146    104.52778693    -17.73767030
 H    -93.84186463    104.79573492    -16.19701363
 H    -93.78278511    106.55456103    -16.46404735
 H    -91.52412099    106.90461946    -16.14471344
 H    -91.40146135    105.28963201    -15.40644733
 H    -93.20877330    105.77878104    -13.82196314
 H    -93.04025732    107.49406275    -14.26657274
 H    -90.64449490    107.49385567    -13.77492978
 H    -90.88381132    105.93952125    -12.94123988
 H    -92.53534428    106.39175458    -11.50499989
 H    -92.27124212    108.13389800    -11.75689871
 H    -89.77657720    107.20950143    -11.08644848
 H    -90.67138434    105.73943756    -10.63202678
 H    -92.19371973    106.67636529     -9.16604946
 H    -91.19650952    108.14968419     -9.10974757
 H    -89.17694042    107.46373140     -8.62960304
 H    -89.82811030    105.88956137     -8.11362517
 H    -91.42182715    107.16968662     -6.60122087
 H    -90.40277351    108.59573226     -6.91136628
 H    -88.48528325    108.41691606     -6.62149742
 H    -88.73886603    106.95880728     -5.63261864
 H    -89.96710162    106.82584369     -4.28805689
 H    -90.06368558    108.59893051     -4.16516942
 H    -87.81050400    109.08364439     -4.02163197
 H    -87.48711354    107.36777379     -3.67598281
 H    -88.51073167    106.49895888     -2.28643379
 H    -88.98337822    108.07428339     -1.60582775
 H    -86.66010956    108.84828390     -1.53518659
 H    -86.16171588    107.16103486     -1.80548471
 H    -87.21354052    106.05914843     -0.18031751
 H    -87.56740069    107.62480855      0.64422803
 H    -85.16537056    105.95457790     -0.58228938
 H    -86.67946482    105.01937659     -0.54788377
 H    -87.48262477    104.82161453      1.28933524
 H    -85.93812630    105.28127546      2.04531341
 H    -84.82757147    103.49764137      0.61921870
 H    -86.46818264    102.89936687      0.27464755
 H    -87.20183268    102.64633207      2.46925553
 H    -85.51477602    102.78624956      3.01928242
 H    -84.43307813    101.28254752      1.80309650
 H    -85.98283050    100.52967771      1.35619458
 H    -86.98931340    100.19525976      3.30347285
 H    -85.44268739    100.45209329      4.14623687
 H    -84.24990379     98.83169159      2.81539690
 H    -85.82259386     98.22785066      2.24068936
 H    -86.77068134     97.87613580      4.37817540
 H    -85.14305059     98.03039047      5.08194405
 H    -84.14209006     96.38060673      3.66859505
 H    -85.77823749     95.84904207      3.21172823
 H    -87.06705062     95.46749783      4.56010058
 H    -85.78536788     95.31341107      5.78558550
 H    -84.74553267     93.66717698      4.01422197
 H    -86.33668627     93.75045715      3.22077297
 H    -87.04498743     92.96930466      5.70838884
 H    -85.30110458     92.67834271      5.91449662
 H    -85.86884627     91.17158505      3.72171281
 H    -87.55881461     91.48117647      4.18692977
 H    -88.07442100     91.05914496      6.02402732
 H    -86.63759902     90.02765093      6.22360021
 H    -87.04287436     88.75233754      4.22555725
 H    -88.68874530     89.42919750      4.19039887
 H    -89.54282911     89.05787173      6.14634864
 H    -88.26572112     87.86606427      6.48819190
 H    -88.49454585     86.56582957      4.57235532
 H    -90.06410860     87.34662331      4.26397152
 H    -91.12273402     87.04948671      6.23566764
 H    -89.90869896     85.83062656      6.69257625
 H    -89.81139811     84.41858977      5.05514833
 H    -91.35271694     85.03844253      4.41609789
 H    -92.75390097     85.01512088      6.06546175
 H    -91.67354324     83.93662865      6.98085694
 H    -91.44229658     82.31855389      5.24443213
 H    -92.82868932     83.07189565      4.42062508
 H    -94.18154071     82.82556376      6.51092438
 H    -92.90736586     81.73169210      7.10100057
 H    -93.10432573     80.33196805      5.07235288
 H    -94.62790532     81.18444903      4.72558484
 H    -94.04006553     79.77665786      7.36036134
 H    -92.71220619     79.28570706      6.28146212
 H    -94.10525888     78.33870945      4.60217079
 H    -95.45488196     78.37715539      5.76204410
 H    -94.10048830     77.13845262      7.42864464
 H    -92.96265243     76.76822216      6.11087167
 H    -93.91510486     75.94451710      4.48384690
 H    -95.34489286     75.57375323      5.47707755
 H    -93.84792198     74.42818886      7.13605470
 H    -92.57711884     74.48747447      5.89114054
 H    -93.17563932     73.71827772      4.10461933
 H    -94.55174277     72.90322749      4.88583575
 H    -92.46395665     72.06541182      6.41321051
 H    -91.47862652     72.75457764      5.10079226
 H    -92.31079409     71.67861094      3.29413829
 H    -93.09660510     70.49973891      4.37164859
 H    -91.12612075     69.95315152      5.59418052
 H    -90.17032691     70.75372216      4.32382173
 H    -91.08750441     69.55124524      2.50475829
 H    -91.76546557     68.38687435      3.66789016
 H    -89.64754461     67.97676577      4.75103474
 H    -88.85182809     68.77669485      3.37436653
 H    -89.47155355     67.96074166      1.57442645
 H    -90.11455061     66.53080490      2.41710213
 H    -88.24722053     65.96891913      3.65953061
 H    -87.26978609     67.04516361      2.63260005
 H    -87.95225948     66.09447017      0.56418302
 H    -88.60995574     64.70896064      1.46754654
 H    -86.73950724     64.14547900      2.69761018
 H    -85.75281116     65.16176495      1.61971389
 H    -86.21616795     64.51242607     -0.40312212
 H    -86.95280840     63.02305910      0.23516742
 H    -84.64213445     62.80468786      1.47696246
 H    -84.09724658     64.09545596      0.37910929
 H    -84.78294946     62.77208917     -1.59346237
 H    -84.91956118     61.36805874     -0.50796597
 H    -82.90701915     61.33272869      0.48859161
 H    -82.27850925     62.43752507     -0.75746896
 H    -82.86726175     61.38921090     -2.66005260
 H    -83.17810876     59.90107979     -1.73425209
 H    -80.91931939     60.01360887     -0.72387267
 H    -80.51310398     61.22859704     -1.95961515
 H    -81.57346322     58.64115712     -2.92634579
 H    -81.27550274     58.29207580     -1.20657009
 H    -78.88485220     58.92748571     -1.47988160
 H    -79.15276450     58.85422714     -3.23804053
 H    -80.03423022     56.60496431     -3.17592421
 H    -79.39967294     56.46264992     -1.51901433
 H    -77.60008445     56.91334462     -1.13540221
 H    -77.16758758     56.78164471     -2.85699109
 H    -78.11852143     54.63356767     -3.19111425
 H    -78.21514540     54.44771991     -1.42351953
 H    -75.69004493     55.01594665     -1.44609399
 H    -75.77521656     54.75254410     -3.20439759
 H    -76.73818084     52.48231291     -2.80999727
 H    -76.23893695     52.66078649     -1.11083001
 H    -74.11960313     53.17074212     -1.17149570
 H    -74.03322518     52.63892167     -2.86795451
 H    -74.95946111     50.54496968     -2.66785937
 H    -74.74336933     50.64015206     -0.90362829
 H    -72.47889168     51.18190036     -0.87230610
 H    -72.59066753     49.99977939     -2.53096921
 H    -73.13969431     48.85853506     -2.94879693
 H    -73.07150697     48.45774146     -1.21588561
 H    -70.82262783     49.04788001     -0.86710467
 H    -70.59187102     49.07127045     -2.63189102
 H    -71.44702419     46.89667364     -3.03035921
 H    -71.32193291     46.57249631     -1.28464219
 H    -69.12681254     47.14302870     -0.93257182
 H    -68.85463343     47.10313363     -2.69114896
 H    -69.40254905     45.63116449     -3.72927436
 H    -69.50407130     44.60619266     -2.27758822
 H    -67.31059018     45.14736122     -1.48554115
 H    -66.95443242     45.83409382     -3.08860592
 H    -67.62831210     43.77072420     -4.22605722
 H    -67.57688160     42.96172506     -2.64139891
 H    -65.18198502     43.84362234     -2.43873755
 H    -65.29552676     44.22325978     -4.17403302
 H    -65.92689025     41.64390760     -4.29189601
 H    -65.34578142     41.58950057     -2.61034343
 H    -63.29732196     42.44105289     -2.73918957
 H    -63.31912264     42.22184858     -4.50546839
 H    -63.89209852     40.13492214     -4.82140888
 H    -63.53306067     39.77237961     -3.11614602
 H    -61.75235526     40.38864049     -2.47119854
 H    -61.17306584     40.56342311     -4.14515836
 H    -61.74557555     38.48941198     -4.96599989
 H    -61.97496195     37.91582347     -3.29667525
 H    -59.81591415     38.62248183     -2.53694714
 H    -59.33748892     38.82421574     -4.23949800
 H    -59.55895010     37.62899575     -5.55446764
 H    -59.72792883     36.31695012     -4.36356500
 H    -57.78633301     36.81668030     -3.12127184
 H    -57.24803390     37.86481297     -4.45540775
 H    -57.63415320     35.72025441     -5.90643643
 H    -57.74222925     34.85881384     -4.35256823
 H    -55.99303728     35.31024855     -3.22151687
 H    -55.18292196     35.91453823     -4.68671782
 H    -55.77376838     33.72412294     -5.81177045
 H    -56.17294105     33.11423642     -4.18789660
 H    -54.46884873     33.47401989     -2.93272952
 H    -53.45160722     33.74176350     -4.36862636
 H    -53.88005203     31.90092687     -5.59597231
 H    -54.60037173     31.12531319     -4.16494833
 H    -52.79182154     31.47178083     -2.70299532
 H    -51.77590977     31.86697368     -4.11012451
 H    -52.01619847     30.21091280     -5.50116525
 H    -52.71496491     29.21250567     -4.20379278
 H    -50.76428703     29.69203847     -2.74679364
 H    -49.93777852     30.31498454     -4.19492641
 H    -50.08465366     28.71386883     -5.67749096
 H    -50.52795222     27.56055866     -4.39623036
 H    -48.99141772     27.78600903     -2.85745129
 H    -47.95020083     28.64820261     -4.01536160
 H    -47.85751435     27.36564011     -5.78122818
 H    -48.49225301     26.00100685     -4.83088637
 H    -47.44976224     25.71947479     -3.08686629
 H    -46.10561090     26.71218454     -3.70009643
 H    -45.76495465     25.68234147     -5.73107073
 H    -46.74633909     24.30597572     -5.17360453
 H    -45.23412551     24.18531712     -3.13715759
 H    -44.13731038     25.27725794     -4.01632111
 H    -44.02446751     23.83018402     -5.96150078
 H    -44.75174423     22.54254977     -4.97087811
 H    -43.13300384     22.69686865     -3.21160282
 H    -42.11104984     23.66181420     -4.30373686
 H    -42.00431926     22.32236852     -6.12453313
 H    -42.61875610     20.96618970     -5.14907782
 H    -41.15448785     21.02656505     -3.39357167
 H    -40.08257215     22.08091166     -4.34626083
 H    -40.12131466     20.42310686     -6.21282641
 H    -40.83085361     19.26927800     -5.05805365
 H    -38.94683795     19.64739081     -3.48557854
 H    -38.09413323     20.44807901     -4.82724158
 H    -38.33126166     18.60224325     -6.34223280
 H    -38.79462096     17.58857544     -4.95441351
 H    -36.78136328     18.19939128     -3.70551443
 H    -36.12144669     18.85688375     -5.22224790
 H    -36.27821995     17.30207869     -6.70367065
 H    -36.53768036     16.09256074     -5.42382171
 H    -34.18956988     17.49443243     -4.77603631
 H    -34.39008362     18.09858984     -6.43828019
 H    -34.40592158     15.74841464     -7.28261273
 H    -33.79948922     15.26096398     -5.68170727
 H    -32.02664263     16.50755090     -5.34297292
 H    -31.98323806     16.92346713     -7.07311639
 H    -32.04950371     14.76947075     -7.94473199
 H    -31.65034623     14.13374022     -6.33079684
 H    -29.65363338     15.70033534     -6.31715507
 H    -29.94829360     15.92393163     -8.05826010
 H    -29.71697163     13.19164215     -7.76206288
 H    -29.11888040     13.63550248     -6.14541773
 H    -27.49853651     15.01614412     -6.41871366
 H    -27.37151909     14.54813164     -8.13134250
 H    -27.23309840     12.17388847     -7.59851702
 H    -26.93140661     12.63655844     -5.90642210
 H    -25.14893429     14.08311077     -6.25422503
 H    -24.97776941     13.43313724     -7.90240695
 H    -24.86665109     11.26419831     -7.66289554
 H    -24.53588575     11.46697573     -5.92573053
 H    -22.99608790     12.80250987     -5.59855789
 H    -22.48021620     12.66095583     -7.29623439
 H    -22.37209662     10.29823335     -7.34402629
 H    -22.44689802     10.29858706     -5.56563620
 H    -20.83621116     11.67676093     -4.95181461
 H    -20.13546245     11.58795991     -6.58562375
 H    -20.14136208      9.08606104     -6.41954929
 H    -20.44346497      9.29304269     -4.67766551
 H    -18.28996888     10.78189864     -4.78543478
 H    -18.05257003     10.07382989     -6.40115354
 H    -18.12550851      7.84002752     -5.86039463
 H    -17.91795224      8.26948790     -4.14553288
 H    -15.93388993      9.60721682     -4.58554840
 H    -15.86598655      8.86220283     -6.20066758
 H    -15.91892835      6.65026468     -5.64659946
 H    -15.53547169      7.07912719     -3.96216941
 H    -13.62697137      8.38426667     -4.43912479
 H    -13.61487998      7.69744111     -6.08119395
 H    -13.65198318      5.42802066     -5.42632768
 H    -13.22572073      5.93778071     -3.77505191
 H    -11.27595768      7.20053622     -4.60270465
 H    -11.47509602      6.34746685     -6.15218302
 H    -11.42265482      4.15465946     -5.06317850
 H    -10.80881147      4.96951549     -3.60459266
 H     -9.01245466      6.08607189     -4.54019284
 H     -9.15406901      5.05434876     -5.98371611
 H     -9.24075807      3.12347996     -5.70165177
 H     -8.58671150      3.30286227     -4.05595685
 H     -6.81441681      4.52310320     -4.21976173
 H     -6.76928206      4.24100246     -5.97664781
 H     -6.89455063      1.96860829     -6.04852066
 H     -6.49848527      1.90657515     -4.31429150
 H     -4.75104859      3.05503660     -3.97307353
 H     -4.38007843      3.03957714     -5.71388047
 H     -4.61094666      0.52082065     -5.65797134
 H     -4.56055446      0.65577931     -3.88384804
 H     -2.46464097      1.89949973     -3.91639609
 H     -2.27733691      1.41446574     -5.61872563
 H     -2.53978740     -0.93485350     -5.17287021
 H     -2.30441213     -0.57926552     -3.44474338
 H     -0.09813552      0.56539967     -4.40992000
 H     -0.50354987     -0.30109067     -5.91095310
 H     -0.61992922     -2.45926667     -4.92385785
 H      0.19453380     -1.79817384     -3.48584779
 H      1.91603079     -0.79189821     -3.96195809
 H      1.94947301     -1.55713864     -5.56868003
 H      1.72656038     -3.79541289     -4.70457862
 H      2.11623327     -3.15311361     -3.09092644
 H      4.18281358     -2.10873116     -3.93619703
 H      3.99288251     -3.09598949     -5.40504482
 H      3.81098600     -5.18154101     -4.39607678
 H      4.42398304     -4.47254996     -2.88285737
 H      6.32477553     -3.46874846     -3.59286897
 H      6.24092075     -4.40474990     -5.10453571
 H      6.05386767     -6.51877196     -3.82243662
 H      6.55518471     -5.59773981     -2.38415721
 H      8.55667041     -4.73826745     -3.44500010
 H      8.33053145     -5.95536508     -4.72398454
 H      8.16137857     -7.85579202     -3.48160699
 H      8.81492966     -6.97856691     -2.07746535
 H     10.62972562     -6.02353875     -2.70213856
 H     10.69291933     -7.05954719     -4.14815368
 H     10.47758253     -9.04293880     -3.70222050
 H     10.84655804     -8.72503827     -1.99018574
 H     12.79199079     -7.53886191     -2.20644498
 H     12.91780638     -8.08717386     -3.89516968
 H     12.70001329    -10.38673517     -3.48266140
 H     13.00005998    -10.07105546     -1.75680365
 H     14.95844348     -8.87751952     -1.91417790
 H     15.13613843     -9.43009690     -3.59683930
 H     14.91593853    -11.70726175     -3.25712723
 H     15.16396913    -11.44665436     -1.51390284
 H     17.20055840    -10.21850533     -1.76926874
 H     17.28890346    -11.85058888     -3.03434188
 H     17.05119544    -13.15426008     -2.51886176
 H     17.39638517    -12.43856413     -0.92610000
 H     19.32770368    -11.33818631     -1.32462108
 H     19.52451780    -12.25257057     -2.83902931
 H     19.22012448    -14.35888185     -1.39260225
 H     19.45098826    -13.28531155      0.00826012
 H     21.35778253    -12.25226742     -0.40606461
 H     21.70069862    -14.16810052     -1.08909397
 H     21.44338865    -15.39065645     -0.46936919
 H     21.46605061    -14.44670602      1.03950810
 H     23.21319670    -14.40031666      1.61935884
 H     23.91366707    -14.22512650     -0.29344947
 H     24.74116201    -15.69612166      0.85795329
 H     23.32064352    -15.43254302      2.31168868
 H     25.37412520    -14.29482413      2.35572851
 H     25.89754577    -15.09126136      0.85240375
 H     25.62047946    -16.05732355      2.32149353
