1502
Collab-Geweke equil step 3200000 E=        93.0370
 C      0.00000000      0.00000000      0.00000000
 C      1.54000000      0.00000000      0.00000000
 C      2.16637443     -1.40276682      0.10723951
 C      3.70616000     -1.40482086      0.08162368
 C      4.33535711     -2.78326449      0.35658583
 C      5.79078291     -2.71913394      0.85580823
 C      6.43198155     -4.09856014      1.09590751
 C      6.14802214     -5.12367215     -0.01769583
 C      5.99376926     -6.57036716      0.48716020
 C      5.51326008     -7.56149655     -0.58911740
 C      5.26817746     -8.98776200     -0.06252329
 C      4.61171838     -9.93009339     -1.08852185
 C      3.12768495     -9.62248804     -1.36169531
 C      2.49792691    -10.49981843     -2.45955514
 C      1.02766491    -10.15972885     -2.76658727
 C      0.53670146    -10.67783599     -4.13118240
 C     -0.97806187    -10.51394304     -4.35530550
 C     -1.84782039    -11.26046060     -3.32679606
 C     -3.35803717    -10.99852732     -3.47591428
 C     -4.21485948    -11.61880228     -2.35666699
 C     -5.72510324    -11.35711365     -2.50594144
 C     -6.60585127    -12.23664856     -1.59913317
 C     -8.10532616    -11.89029539     -1.65583009
 C     -8.91840912    -12.43033982     -0.46467598
 C    -10.44350019    -12.30988182     -0.64127469
 C    -11.25788807    -12.91190965      0.51886965
 C    -12.77696704    -12.68869466      0.39981443
 C    -13.56942010    -13.08909834      1.65810495
 C    -15.09764128    -13.06702936      1.46928494
 C    -15.87838793    -13.76567181      2.59797152
 C    -17.31803170    -14.15609639      2.21509498
 C    -18.10719382    -14.83169619      3.35192745
 C    -19.47606661    -15.38886367      2.91908604
 C    -20.01290010    -16.50871157      3.82977286
 C    -21.46992378    -16.91113194      3.53525658
 C    -22.05806790    -17.91621502      4.54297405
 C    -23.47007625    -18.41284342      4.18076877
 C    -23.69014982    -19.91553386      4.43589436
 C    -25.01124489    -20.46128523      3.86277724
 C    -25.23064088    -21.96428875      4.11663906
 C    -26.26529112    -22.61346681      3.17873356
 C    -26.24605951    -24.15326270      3.19481951
 C    -27.33248042    -24.80245532      2.31741507
 C    -27.61222837    -26.27839326      2.65645533
 C    -28.72655441    -26.91609764      1.80603743
 C    -29.11464135    -28.33947133      2.24762079
 C    -30.19064370    -28.99785015      1.36424304
 C    -30.19942667    -30.53643422      1.42967941
 C    -30.71656923    -31.21496078      0.14758531
 C    -32.24241732    -31.12171683     -0.03867570
 C    -32.75631903    -31.77542025     -1.33489207
 C    -34.28552466    -31.95055358     -1.38447483
 C    -34.83383457    -32.27377861     -2.78678785
 C    -36.35220543    -32.52851727     -2.82225848
 C    -36.86796621    -33.05260171     -4.17537574
 C    -38.35598451    -33.44926110     -4.16744747
 C    -38.82876093    -34.13345702     -5.46357957
 C    -40.23118415    -34.76194094     -5.36449851
 C    -40.51101489    -35.84001071     -6.42801171
 C    -41.81925238    -36.61990255     -6.20023245
 C    -42.06831304    -37.73920740     -7.22820396
 C    -43.46161297    -38.38683508     -7.12383105
 C    -43.62407382    -39.66316745     -7.97010650
 C    -44.92498790    -40.43854498     -7.69079978
 C    -45.06888006    -41.73567527     -8.50832535
 C    -46.42112071    -42.44809032     -8.31988434
 C    -46.43616827    -43.90526605     -8.81789284
 C    -46.32867355    -44.04551444    -10.34772135
 C    -46.75214667    -45.42662108    -10.88140193
 C    -46.66038711    -45.56146120    -12.41274066
 C    -46.92113657    -46.98737341    -12.93272536
 C    -46.31687890    -47.26805174    -14.32113897
 C    -46.44510734    -48.73394213    -14.77536671
 C    -46.06942499    -48.96777922    -16.25042026
 C    -45.92922363    -50.45283482    -16.63324322
 C    -46.00342050    -50.71883706    -18.14828039
 C    -45.81832915    -52.19813424    -18.53431281
 C    -45.99063796    -52.47921564    -20.03860764
 C    -45.45848050    -53.85402732    -20.48391799
 C    -45.23097695    -53.97583896    -22.00214197
 C    -44.57465968    -55.30072994    -22.43285244
 C    -44.80088927    -55.65960040    -23.91326865
 C    -44.06704519    -56.93491781    -24.36784360
 C    -44.11006224    -57.17399797    -25.88856389
 C    -43.28180901    -58.38528489    -26.35587597
 C    -43.33126406    -58.62913505    -27.87564283
 C    -42.58535890    -59.89708966    -28.33118274
 C    -42.49435163    -60.05492594    -29.86036729
 C    -41.71806992    -61.30448060    -30.31599855
 C    -41.48898712    -61.37951633    -31.83701489
 C    -40.61891564    -62.56992106    -32.28143835
 C    -40.21450490    -62.53009917    -33.76685619
 C    -39.26661341    -63.66814951    -34.18868930
 C    -38.83993421    -63.61228633    -35.66734550
 C    -38.01354764    -64.82770933    -36.12716303
 C    -37.98022268    -65.02082320    -37.65464347
 C    -37.16969976    -66.24727470    -38.11341281
 C    -36.78271362    -66.22055612    -39.60375768
 C    -35.66808028    -67.21458314    -39.97939421
 C    -35.16679936    -67.07515967    -41.42883497
 C    -33.82572571    -67.78251900    -41.69858347
 C    -33.35456927    -67.69483489    -43.16211451
 C    -32.36222664    -68.80033300    -43.56798401
 C    -31.97976995    -68.78194988    -45.05962370
 C    -31.44499034    -70.12686184    -45.58576300
 C    -31.00348598    -70.09153546    -47.06069552
 C    -30.59150867    -71.46422270    -47.62425956
 C    -30.35375680    -71.47091991    -49.14578156
 C    -29.76268743    -72.78816340    -49.68160485
 C    -29.57717571    -72.81544602    -51.21014698
 C    -28.85721188    -74.07304539    -51.73139155
 C    -28.28032189    -73.92134547    -53.15117501
 C    -28.00670140    -75.25958951    -53.86239559
 C    -27.39974762    -75.10840414    -55.26964472
 C    -27.29530121    -76.43068607    -56.05211609
 C    -26.98621465    -76.24947947    -57.54985761
 C    -27.41692518    -77.43987419    -58.42681190
 C    -27.02911307    -77.29759741    -59.91037487
 C    -27.45769152    -78.48909383    -60.78687747
 C    -27.38316400    -78.21239771    -62.29998187
 C    -27.64191889    -79.45164893    -63.17685262
 C    -28.09771880    -79.12069671    -64.61014151
 C    -27.96634021    -80.29616686    -65.59635123
 C    -27.73473148    -79.86567712    -67.05670597
 C    -26.91987352    -80.87576079    -67.88576416
 C    -26.13173320    -80.24179603    -69.04702362
 C    -25.17175531    -81.21433937    -69.75709538
 C    -24.31884347    -80.55943076    -70.85947286
 C    -23.36775112    -81.53453461    -71.57794055
 C    -22.56232597    -80.89402134    -72.72364255
 C    -21.82125107    -81.90998156    -73.61259296
 C    -21.26891561    -81.31251027    -74.92009194
 C    -20.60402610    -82.34535242    -75.84894017
 C    -20.29507894    -81.81143129    -77.25999647
 C    -19.48039944    -82.78378876    -78.13316213
 C    -18.85728546    -82.13248380    -79.38181372
 C    -17.62825520    -82.88037629    -79.93112370
 C    -16.87897894    -82.12240412    -81.04272762
 C    -15.53955619    -82.76615797    -81.44661829
 C    -14.74868216    -81.96145882    -82.49474879
 C    -13.57229284    -82.73371332    -83.12031346
 C    -12.38965086    -81.84115050    -83.54018194
 C    -11.20858410    -82.61467645    -84.15527455
 C     -9.96467386    -81.74781880    -84.42517288
 C     -9.01073946    -82.33324731    -85.48294537
 C     -7.78304237    -81.45093842    -85.77601683
 C     -6.85275073    -82.01428088    -86.86633913
 C     -5.47191060    -81.33489350    -86.92390041
 C     -4.78749286    -81.42277053    -88.30065384
 C     -3.36290735    -80.83858580    -88.33039151
 C     -2.83643204    -80.54334378    -89.74716810
 C     -1.33087391    -80.22415100    -89.80203795
 C     -0.94713451    -79.19818941    -90.88451053
 C      0.57071317    -78.98881417    -91.03910817
 C      0.95031851    -77.79409949    -91.93362291
 C      2.46239207    -77.50706254    -91.98694587
 C      2.82638931    -76.19892417    -92.71349938
 C      4.28448575    -75.75032885    -92.50298330
 C      4.66692333    -74.47778081    -93.28141953
 C      6.12087832    -74.02115678    -93.05981316
 C      6.43719518    -72.63206048    -93.64458246
 C      7.92435580    -72.24100133    -93.56076108
 C      8.28126748    -70.96380725    -94.34369744
 C      9.66298923    -70.38043933    -93.99423089
 C     10.00503266    -69.08362940    -94.75112605
 C     11.31101348    -68.41290424    -94.28621546
 C     11.55447770    -67.02230887    -94.90149563
 C     12.88481291    -66.37343231    -94.47632811
 C     13.01141124    -64.88954610    -94.86831611
 C     14.35273905    -64.24798079    -94.46727540
 C     14.34863487    -62.70860385    -94.51088488
 C     15.68421310    -62.06654411    -94.09185017
 C     15.68791240    -60.52801468    -94.15903288
 C     16.93283578    -59.87651064    -93.52870896
 C     16.62002036    -58.65942385    -92.63851445
 C     17.81549355    -58.17489073    -91.79728232
 C     17.53897733    -56.88703224    -90.99943565
 C     18.76214280    -56.35012354    -90.23314896
 C     18.60126762    -54.90305323    -89.73144516
 C     19.90940968    -54.26588911    -89.22707801
 C     19.72675925    -52.86852234    -88.60610706
 C     21.03456482    -52.23233721    -88.09963583
 C     20.82920730    -50.93871568    -87.28971509
 C     21.98057580    -50.61835432    -86.31846889
 C     21.84551602    -49.25518027    -85.61482453
 C     23.02897123    -48.90593325    -84.69337985
 C     22.82296549    -47.62180132    -83.86865760
 C     23.97070528    -47.31601838    -82.88845855
 C     23.98344995    -45.86531389    -82.37184065
 C     24.87417631    -45.64889662    -81.13435525
 C     24.73548190    -44.25286432    -80.49917208
 C     25.76190622    -43.96567226    -79.38760839
 C     25.77825824    -42.50057981    -78.91343888
 C     26.80262001    -42.21403386    -77.79980772
 C     26.64058657    -40.83190940    -77.14020395
 C     27.50880461    -40.63164229    -75.88414244
 C     27.29833810    -39.27467294    -75.18704989
 C     28.08641029    -39.11638334    -73.87347209
 C     27.79260856    -37.80533824    -73.12084915
 C     28.72339169    -37.54986039    -71.92086005
 C     28.44292803    -36.22883217    -71.18070831
 C     28.64188133    -36.31076667    -69.65581346
 C     28.08308109    -35.10013913    -68.88527907
 C     28.09130579    -35.27348090    -67.35508791
 C     27.56295926    -34.05006564    -66.58326860
 C     27.56526587    -34.22580362    -65.05333041
 C     27.47918674    -32.90230401    -64.27068159
 C     27.97706178    -33.00088181    -62.81672050
 C     27.29092366    -32.01634511    -61.85157699
 C     28.11445692    -31.70006502    -60.58929339
 C     27.32355458    -30.96010433    -59.49451868
 C     28.12599815    -30.70713879    -58.20467654
 C     27.38308483    -29.85049250    -57.16264154
 C     28.17149858    -29.62668085    -55.85883477
 C     27.60228776    -28.50776198    -54.96685966
 C     27.97180098    -28.64448124    -53.47811260
 C     27.24111591    -27.64946527    -52.55743755
 C     27.65594719    -27.74481900    -51.07742989
 C     27.19913614    -26.54949900    -50.22061382
 C     27.67158001    -26.61166334    -48.75619162
 C     26.89707737    -25.67752071    -47.80797054
 C     27.44787079    -25.64772632    -46.37014618
 C     26.78623700    -24.58966878    -45.46772999
 C     27.22799184    -24.65863023    -43.99406212
 C     27.10187982    -23.32228820    -43.23915437
 C     27.61849929    -23.37078570    -41.78920529
 C     27.62949668    -22.00276975    -41.08209045
 C     27.61127986    -22.09211759    -39.54479246
 C     27.46531785    -20.73070230    -38.83992120
 C     27.50613028    -20.81368161    -37.30270007
 C     27.60839418    -19.44510365    -36.60403244
 C     27.74184655    -19.53220324    -35.07230005
 C     27.57433895    -18.18183154    -34.35116381
 C     27.86040600    -18.23951429    -32.83906648
 C     27.92196750    -16.85863812    -32.16010315
 C     28.15557983    -16.91836251    -30.63909747
 C     28.32818854    -15.53860072    -29.97723372
 C     28.20765568    -15.56078979    -28.44211826
 C     28.20913277    -14.16407137    -27.79344617
 C     27.97196057    -14.17983488    -26.27190062
 C     27.37189471    -12.87421366    -25.71793834
 C     26.91711370    -12.96742515    -24.24957671
 C     26.45195404    -11.62666016    -23.65160035
 C     25.75875604    -11.75820871    -22.28274262
 C     24.95077119    -10.51462052    -21.86771383
 C     24.16598253    -10.68728047    -20.55398048
 C     23.34542941     -9.44921334    -20.14718526
 C     22.58707177     -9.60991867    -18.81652095
 C     21.81231595     -8.35218543    -18.38125034
 C     21.17040171     -8.46356571    -16.98585056
 C     20.24390195     -7.28699165    -16.62686356
 C     19.55816504     -7.42571162    -15.25495917
 C     18.53259131     -6.31744417    -14.95240041
 C     18.01307616     -6.32358679    -13.50268793
 C     16.82265823     -5.37724987    -13.25988844
 C     16.45564347     -5.20065482    -11.77472368
 C     15.19138674     -4.35366832    -11.53835790
 C     14.63921596     -4.43945949    -10.10331529
 C     13.40256816     -3.55615802     -9.85415523
 C     12.88594753     -3.59645345     -8.40395544
 C     11.41361626     -3.17148852     -8.25149089
 C     10.77011820     -3.60798045     -6.92221100
 C      9.23924217     -3.44498683     -6.88411048
 C      8.58749061     -3.95212046     -5.58425072
 C      7.06441951     -3.73350057     -5.52053449
 C      6.42509554     -4.16380216     -4.18722830
 C      4.88517823     -4.15250431     -4.19849949
 C      4.24472702     -4.86191912     -2.99095947
 C      2.72824509     -4.62839408     -2.85924536
 C      2.02132609     -5.62002250     -1.91662211
 C      0.49443692     -5.68470695     -2.10642571
 C     -0.23510563     -6.51744808     -1.03595391
 C     -1.76450111     -6.56100670     -1.21103140
 C     -2.50727952     -7.26116533     -0.05792337
 C     -4.02552620     -7.39316128     -0.27951782
 C     -4.74407414     -8.23449677      0.79167005
 C     -6.28042198     -8.14945374      0.72840081
 C     -7.00182652     -9.16932143      1.62898140
 C     -8.22272071     -8.59557695      2.37183715
 C     -9.22621019     -9.66328806      2.84575890
 C    -10.62321239     -9.10653565      3.17743886
 C    -11.53330327    -10.10106881      3.92191074
 C    -13.01700242     -9.68967617      3.95342191
 C    -13.88114974    -10.53459559      4.90786446
 C    -15.38807490    -10.49010888      4.59354377
 C    -16.25812930    -11.28725949      5.58306701
 C    -17.76424278    -11.24954235      5.26400651
 C    -18.65428355    -11.84266248      6.37199384
 C    -20.06529249    -12.23740488      5.89782908
 C    -20.85091013    -13.09023286      6.91128326
 C    -22.09919966    -13.77241849      6.32137139
 C    -22.74694885    -14.81012527      7.25688496
 C    -24.11951543    -15.31646986      6.77597320
 C    -24.74099690    -16.39642158      7.68099533
 C    -26.02462910    -17.02834969      7.11129783
 C    -26.39144101    -18.38241476      7.74655904
 C    -27.56888093    -19.09837187      7.05907038
 C    -27.79419652    -20.54209830      7.54536955
 C    -28.99038745    -21.24770970      6.87990742
 C    -29.07715539    -22.75481785      7.18436818
 C    -30.19465774    -23.48554301      6.41701607
 C    -30.23073582    -25.00579697      6.66017501
 C    -31.38256777    -25.72858395      5.93735959
 C    -31.23704444    -27.26132141      5.90361328
 C    -32.21294087    -27.96210769      4.94022096
 C    -32.16951415    -29.49975178      5.01346555
 C    -33.25015862    -30.19792275      4.16708216
 C    -33.54456043    -31.64669354      4.59834863
 C    -34.31953695    -32.46697378      3.55042128
 C    -34.03563911    -33.97962999      3.60402348
 C    -34.41259476    -34.73374197      2.31529560
 C    -34.29609793    -36.26512702      2.42882232
 C    -34.13229911    -36.98284088      1.07617426
 C    -34.25950255    -38.51524725      1.16073202
 C    -33.74732939    -39.25616699     -0.08839431
 C    -33.94394160    -40.78265901     -0.03580399
 C    -33.67541560    -41.49527720     -1.37433643
 C    -33.63996888    -43.03133645     -1.27009877
 C    -33.58403208    -43.75036388     -2.63078633
 C    -33.56207781    -45.28670277     -2.52695556
 C    -33.34034946    -46.00233310     -3.87243308
 C    -33.13197691    -47.52294413     -3.74624677
 C    -32.77965923    -48.21920148     -5.07391313
 C    -33.19524259    -49.70086011     -5.13373107
 C    -32.60592310    -50.46883959     -6.33144141
 C    -33.03043564    -51.94770147     -6.39744615
 C    -32.27307617    -52.77010460     -7.45653053
 C    -32.69121681    -54.25104284     -7.51636633
 C    -31.99730404    -55.05321137     -8.63288356
 C    -32.42801169    -56.53006943     -8.70346115
 C    -31.65639756    -57.35835930     -9.74756246
 C    -32.04631178    -58.84787035     -9.77795513
 C    -31.34995625    -59.65508744    -10.88930095
 C    -31.93408297    -61.06439727    -11.09963829
 C    -31.16238933    -61.91566900    -12.12502864
 C    -32.02415709    -62.97807569    -12.83231102
 C    -31.21121227    -64.01302393    -13.63206277
 C    -32.07412820    -65.06106051    -14.35910845
 C    -31.27402802    -66.25186978    -14.91894143
 C    -32.13841715    -67.47621832    -15.27306301
 C    -31.33778068    -68.66860101    -15.82876504
 C    -32.12691726    -69.99054932    -15.86504323
 C    -31.37216401    -71.15233803    -16.53749733
 C    -32.16165598    -72.47405181    -16.57457960
 C    -31.46834721    -73.59568530    -17.37010538
 C    -32.27925331    -74.90265675    -17.44663587
 C    -31.65638099    -75.97360939    -18.36134376
 C    -32.49363807    -77.26075788    -18.47902702
 C    -31.78168858    -78.40516741    -19.22404698
 C    -32.73533097    -79.35036171    -19.97821802
 C    -32.06562838    -80.64019510    -20.48755902
 C    -32.94529797    -81.46735252    -21.44337909
 C    -32.67900894    -82.98306832    -21.38597019
 C    -33.24972817    -83.76510610    -22.58359136
 C    -33.20502791    -85.29480261    -22.41145634
 C    -33.54445635    -86.07945326    -23.69235903
 C    -33.29891159    -87.59571733    -23.58167451
 C    -32.65400756    -88.21885175    -24.83363389
 C    -32.42731292    -89.73860819    -24.73092112
 C    -31.64731054    -90.33708783    -25.91625584
 C    -31.19292255    -91.79201530    -25.69644320
 C    -30.26196277    -92.33077605    -26.79855514
 C    -29.80432726    -93.78436777    -26.57665228
 C    -28.77371949    -94.28089643    -27.60762605
 C    -28.61439881    -95.81213874    -27.64653470
 C    -27.61665356    -96.31130916    -28.70810585
 C    -27.70470347    -97.82296441    -28.98872239
 C    -26.40493219    -98.43353516    -29.54495793
 C    -26.56480583    -99.87038921    -30.07551505
 C    -25.23650143   -100.54643182    -30.46303773
 C    -25.39876878   -101.97327530    -31.01926338
 C    -24.19072539   -102.46828908    -31.83608193
 C    -24.44047369   -103.79047580    -32.58511335
 C    -23.43633401   -104.06707841    -33.71948299
 C    -23.81387736   -105.26375858    -34.61224140
 C    -22.70343409   -105.69062554    -35.59014749
 C    -23.22398547   -106.36231513    -36.87446029
 C    -22.12124885   -107.00405401    -37.73686574
 C    -22.65451998   -107.89149548    -38.87689625
 C    -21.58348075   -108.30194737    -39.90451690
 C    -22.14005648   -109.07515784    -41.11446278
 C    -21.09292870   -109.37124823    -42.20416635
 C    -21.62162285   -110.23842457    -43.36178793
 C    -20.85261282   -110.05534769    -44.68341815
 C    -21.54855537   -110.68339167    -45.90523021
 C    -21.08629316   -110.10477160    -47.25545703
 C    -21.62388998   -110.86727896    -48.48068035
 C    -21.04341573   -110.38472615    -49.82298896
 C    -21.68405978   -111.04719179    -51.05681005
 C    -21.18060094   -110.48779470    -52.40038888
 C    -21.85866989   -111.11400977    -53.63314075
 C    -21.42303994   -110.49027946    -54.97209073
 C    -21.93300145   -111.24855808    -56.21166840
 C    -21.15418317   -110.93427643    -57.50250887
 C    -21.94232382   -111.21883110    -58.79458587
 C    -21.22828016   -110.75683266    -60.07844687
 C    -21.93424382   -111.18775941    -61.37749169
 C    -21.24510932   -110.68733624    -62.66056234
 C    -21.68780807   -111.42501110    -63.93784602
 C    -21.52522067   -110.59825088    -65.22688942
 C    -22.44077753   -111.04942258    -66.38005885
 C    -22.46489620   -110.08023365    -67.57659180
 C    -23.70577378   -110.22711575    -68.47672983
 C    -24.12749386   -108.92345139    -69.17973155
 C    -25.18376278   -109.12015366    -70.28300132
 C    -25.62293693   -107.81362077    -70.96980398
 C    -26.71827690   -108.00370277    -72.03549586
 C    -27.19174556   -106.69160158    -72.68804309
 C    -27.56675772   -106.83132975    -74.17513485
 C    -28.33684608   -105.62463222    -74.74297725
 C    -28.71351819   -105.76518568    -76.22957163
 C    -29.19813713   -104.45583453    -76.87945167
 C    -29.50478194   -104.57916497    -78.38356555
 C    -30.07959585   -103.29652387    -79.01286737
 C    -30.32618781   -103.39909932    -80.52953170
 C    -30.71481140   -102.06459775    -81.19261334
 C    -31.02971396   -102.18028392    -82.69562801
 C    -31.66684365   -100.91581441    -83.30125382
 C    -31.33491886   -100.69839318    -84.78925716
 C    -31.97276905    -99.43439714    -85.39511288
 C    -31.77533348    -99.30087161    -86.91655632
 C    -31.92503273    -97.86166279    -87.44368828
 C    -32.02018131    -97.76313150    -88.97758473
 C    -32.57961293    -96.42126569    -89.48555365
 C    -32.16750088    -96.07697348    -90.92889233
 C    -32.40875369    -94.60585911    -91.31518184
 C    -31.67636255    -94.16654339    -92.59666727
 C    -31.78890492    -92.66038811    -92.89738390
 C    -31.06152300    -92.22208475    -94.18206507
 C    -30.97257349    -90.69517644    -94.36161726
 C    -30.01126314    -90.25090989    -95.47970028
 C    -29.57015637    -88.77892413    -95.37829644
 C    -28.12339506    -88.52527643    -95.84105400
 C    -27.46141721    -87.29974151    -95.18420585
 C    -26.05065872    -86.98872692    -95.71771349
 C    -25.36937615    -85.79272632    -95.02703511
 C    -23.85031503    -85.71282011    -95.26717743
 C    -23.15081085    -84.58614336    -94.48430234
 C    -21.63649003    -84.48791989    -94.74657052
 C    -20.90358959    -83.49805914    -93.82210709
 C    -19.36827366    -83.57210291    -93.91656629
 C    -18.63940993    -82.43984899    -93.16933224
 C    -17.10397344    -82.51694795    -93.25927964
 C    -16.37233835    -81.49223753    -92.37255609
 C    -16.48373476    -81.77737608    -90.86328910
 C    -15.92537182    -80.65354854    -89.97062875
 C    -15.83357919    -81.02557917    -88.47906336
 C    -16.16053304    -79.86384709    -87.52246534
 C    -16.40345991    -80.30118620    -86.06598979
 C    -17.14027834    -79.25282897    -85.21179678
 C    -17.48761506    -79.73454861    -83.79091557
 C    -18.33836950    -78.73776857    -82.98206055
 C    -18.89763690    -79.31377646    -81.66789356
 C    -19.71387282    -78.30470326    -80.83896040
 C    -20.48146076    -78.93602280    -79.66259124
 C    -21.39816017    -77.95179925    -78.91254711
 C    -21.93165133    -78.49020767    -77.57198620
 C    -23.02108186    -77.60956939    -76.93228522
 C    -23.58581254    -78.17049000    -75.61393499
 C    -24.70435743    -77.31121202    -74.99579368
 C    -25.16836811    -77.79100896    -73.60795761
 C    -25.59867884    -76.65331276    -72.66345772
 C    -25.70106976    -77.07164493    -71.18490631
 C    -26.41096142    -76.03918343    -70.28954209
 C    -26.51335895    -76.45751894    -68.81099208
 C    -26.69263212    -75.27797766    -67.83726547
 C    -26.33067896    -75.61006077    -66.37770707
 C    -26.31742428    -74.38711545    -65.44184967
 C    -26.29419532    -74.74473193    -63.94412778
 C    -26.04634948    -73.54075376    -63.01643763
 C    -26.58876048    -73.72895896    -61.58746278
 C    -26.55752106    -72.44882516    -60.73196202
 C    -27.00515898    -72.65903130    -59.27352667
 C    -27.30063193    -71.35209436    -58.51444065
 C    -27.83908725    -71.56460990    -57.08737968
 C    -28.01059919    -70.26304748    -56.28232134
 C    -28.84507473    -70.42608605    -54.99831628
 C    -29.31845937    -69.09485318    -54.38567771
 C    -30.41099529    -69.25290715    -53.31190668
 C    -30.65650715    -67.98276486    -52.47640534
 C    -31.84456632    -68.09338420    -51.50281468
 C    -32.02300524    -66.86575694    -50.59029572
 C    -33.11979277    -67.03327574    -49.52230950
 C    -32.96256780    -66.09591259    -48.31060382
 C    -34.06592443    -66.25519352    -47.24813796
 C    -34.09134730    -65.12922054    -46.19783395
 C    -35.41962944    -65.02258020    -45.42589198
 C    -35.34469143    -64.13441880    -44.17004421
 C    -36.71006104    -63.86614558    -43.51019929
 C    -36.61525933    -63.34206734    -42.06522363
 C    -37.95630049    -62.85346151    -41.48688728
 C    -37.85975005    -62.32067083    -40.04521739
 C    -39.14597772    -61.63979064    -39.54160983
 C    -38.90901698    -60.59061219    -38.43948725
 C    -40.18406180    -60.18310798    -37.67804059
 C    -39.98162794    -59.01155226    -36.69922615
 C    -41.29107133    -58.33555606    -36.25202690
 C    -41.10171311    -57.26026698    -35.16598046
 C    -42.38600394    -56.92628972    -34.38453549
 C    -42.87587523    -58.06367851    -33.46912692
 H     -0.36333333      0.00000000      1.02766186
 H     -0.36333333     -0.88998127     -0.51383093
 H     -0.36333333      0.88998127     -0.51383093
 H      1.88274777     -0.58698924      0.85209601
 H      1.88274777     -0.68535985     -0.77518117
 H      2.93162810     -1.49624616     -0.66331122
 H      1.82362666     -1.86117670      1.03486247
 H      4.06382423     -1.84815274      1.01094233
 H      4.03631321     -2.17392759     -0.61664110
 H      5.31815455     -2.81144198     -0.11396195
 H      4.00848535     -3.11908088      1.34070076
 H      5.91449895     -3.45819699      1.64737639
 H      6.38886248     -3.40674095      0.25781373
 H      5.67872963     -4.86389269      0.90888443
 H      5.83731844     -4.62805752      1.84029203
 H      6.53306560     -4.72544337     -0.95644785
 H      5.34703388     -5.78202156      0.31859849
 H      5.00707894     -6.93131344      0.19688449
 H      6.91680620     -6.85797575      0.99053293
 H      6.23009266     -7.54999584     -1.41016477
 H      4.73567810     -8.18940664     -0.15415167
 H      4.26305053     -9.29267267     -0.35381240
 H      5.71659064     -9.69318552     -0.76209693
 H      5.26234311     -9.99383885     -1.96071676
 H      4.10117615     -9.32172978     -1.83507416
 H      3.00400280     -9.45316180     -2.43133607
 H      2.58183321     -9.70536892     -0.42186733
 H      2.55091824    -11.54033814     -2.13922618
 H      3.07614200    -10.37145837     -3.37459121
 H      0.98339870     -9.68317637     -3.74589225
 H      0.44832437    -10.28664252     -1.85206146
 H      0.64810482    -11.76202089     -4.14642692
 H      1.16006822    -10.23755823     -4.90943002
 H     -1.22257206     -9.45419246     -4.28289370
 H     -1.42979645    -10.18748914     -3.41857516
 H     -1.60533107    -10.88195368     -2.33380491
 H     -1.60636099    -12.32205079     -3.37993392
 H     -3.63673400    -11.18109606     -4.51374699
 H     -3.55129423     -9.95532967     -3.22593355
 H     -3.88730495    -11.20293547     -1.40384863
 H     -4.05217052    -12.69659213     -2.35782756
 H     -6.05251560    -11.77313963     -3.45873918
 H     -5.88795460    -10.27934819     -2.50491871
 H     -6.32614866    -12.04820964     -0.56262112
 H     -6.41324168    -13.28135034     -1.84326372
 H     -8.44597407    -12.00946696     -2.68435191
 H     -8.22891054    -10.85133696     -1.35022861
 H     -8.50401457    -12.01023987      0.45178088
 H     -8.81780211    -13.51550609     -0.44486711
 H    -10.73037473    -12.86730766     -1.53294695
 H    -10.69084710    -11.25687937     -0.77583076
 H    -10.97753396    -12.39706920      1.43780430
 H    -11.00499981    -13.96883301      0.60289663
 H    -13.09352237    -13.00793254     -0.59315078
 H    -12.97744264    -11.62408467      0.52029309
 H    -13.20103195    -12.49911196      2.49733451
 H    -13.39261903    -14.14698734      1.85230133
 H    -15.35401592    -13.75991144      0.66785717
 H    -15.39331528    -12.05716500      1.18494208
 H    -15.64192897    -13.26694288      3.53789525
 H    -15.55401489    -14.80515231      2.64657627
 H    -17.27431951    -14.83074145      1.36008429
 H    -17.85611605    -13.25019469      1.93597610
 H    -18.15174542    -14.14226579      4.19501753
 H    -17.57458423    -15.73509426      3.64907882
 H    -19.31323187    -16.12399588      2.13094553
 H    -20.07385972    -14.56487139      2.52949635
 H    -20.10830322    -16.11226722      4.84062899
 H    -19.29321583    -17.32733645      3.82696929
 H    -21.52196833    -17.28632718      2.51319010
 H    -22.09616869    -16.02392226      3.62893847
 H    -21.97311052    -17.48920178      5.54224475
 H    -22.47026281    -18.75801699      3.98658857
 H    -23.48449845    -18.66057603      3.11939205
 H    -24.17736346    -17.60662441      4.37533421
 H    -23.51862121    -20.11223611      5.49418835
 H    -22.96736679    -20.47368246      3.84078526
 H    -24.99710621    -20.32685506      2.78119107
 H    -25.83330912    -19.88671634      4.28960390
 H    -25.22809345    -22.13398619      5.19334528
 H    -24.40658074    -22.51281997      3.66041720
 H    -25.92437123    -22.48557516      2.15134982
 H    -27.21789830    -22.10073110      3.31193132
 H    -26.44822552    -24.48795176      4.21227326
 H    -25.25316332    -24.48680642      2.89314791
 H    -27.18800410    -24.46859178      1.28991241
 H    -28.30653056    -24.46809703      2.67452968
 H    -27.93197549    -26.33641411      3.69688570
 H    -26.68723253    -26.84068147      2.52872643
 H    -28.55748498    -26.64834659      0.76304898
 H    -29.68332200    -26.51038154      2.13480818
 H    -29.45510108    -28.29651232      3.28219398
 H    -28.22928261    -28.97191998      2.18243936
 H    -29.77008858    -29.15398750      0.37083752
 H    -31.04076904    -28.31904751      1.29631743
 H    -30.52273582    -30.83524327      2.42681748
 H    -29.18423736    -30.89272589      1.25490269
 H    -30.07873369    -30.91083553     -0.68233858
 H    -31.38520155    -30.52094832     -0.36170588
 H    -32.51981111    -30.06815293     -0.07267274
 H    -32.72185781    -31.59621939      0.81752762
 H    -32.29883024    -32.76049766     -1.42668799
 H    -32.45163018    -31.15345133     -2.17656860
 H    -34.74635426    -30.96724395     -1.29046288
 H    -34.58648012    -32.57479088     -0.54313447
 H    -34.25780028    -33.10311216     -3.19726362
 H    -34.70363266    -31.39394215     -3.41689519
 H    -36.85815560    -31.63616820     -2.45371059
 H    -36.57409439    -33.36948086     -2.16526111
 H    -36.35787975    -33.99009350     -4.39678249
 H    -36.62579183    -32.31720071     -4.94260253
 H    -38.94291152    -32.57268734     -3.89315725
 H    -38.49854473    -34.23022754     -3.42054185
 H    -38.23447198    -35.03512474     -5.61162003
 H    -38.66131136    -33.44752868     -6.29397884
 H    -40.94241005    -33.97511293     -5.11318317
 H    -40.21747457    -35.50696810     -4.56898196
 H    -39.77142920    -36.63273919     -6.31534151
 H    -40.40831663    -35.38460762     -7.41297927
 H    -42.64664366    -35.91032814     -6.20550708
 H    -41.76347724    -37.10575331     -5.22609787
 H    -41.23690635    -38.44227211     -7.17757856
 H    -42.10501673    -37.29080513     -8.22102229
 H    -44.21233898    -37.61085757     -7.27339502
 H    -43.56941253    -38.80891201     -6.12466624
 H    -42.88246439    -40.39034924     -7.63946758
 H    -43.44218162    -39.40770436     -9.01401926
 H    -45.76806509    -39.77973075     -7.89884945
 H    -44.93609500    -40.72149154     -6.63822300
 H    -44.22560770    -42.38479777     -8.27246163
 H    -45.04403600    -41.47802515     -9.56714507
 H    -47.18634654    -41.87499442     -8.84342089
 H    -46.65038314    -42.47203480     -7.25453679
 H    -45.67598175    -44.46245921     -8.27039651
 H    -45.57099068    -44.05575530     -9.46358681
 H    -45.39566991    -43.58291415    -10.66959895
 H    -47.16973339    -43.52002087    -10.80002086
 H    -47.78851298    -45.60244482    -10.59307769
 H    -46.11416684    -46.18181637    -10.42231390
 H    -45.62788144    -45.38042170    -12.71149931
 H    -47.30631243    -44.80742382    -12.86252741
 H    -47.95924940    -47.24447955    -12.72220652
 H    -46.26187505    -47.67247549    -12.39970625
 H    -45.23907901    -47.11619873    -14.26293193
 H    -46.74566180    -46.56063292    -15.03093037
 H    -47.50357424    -48.99269603    -14.80354892
 H    -45.93622659    -49.36445577    -14.04626252
 H    -45.03579743    -48.65336707    -16.39484698
 H    -46.72496702    -48.35777871    -16.87192168
 H    -46.88064654    -50.94808575    -16.43928195
 H    -45.15456735    -50.89637880    -16.00772232
 H    -45.20146290    -50.16258589    -18.63361393
 H    -46.96624161    -50.36042945    -18.51244999
 H    -46.42816947    -52.80572630    -17.86571227
 H    -44.76768183    -52.45748856    -18.40402254
 H    -45.25518107    -51.88800547    -20.58420245
 H    -46.99425307    -52.17140154    -20.33204789
 H    -45.99232555    -54.62469939    -19.92788380
 H    -44.39607267    -53.90398379    -20.24539349
 H    -44.64423857    -53.11800405    -22.33071060
 H    -46.20236126    -53.96242894    -22.49644218
 H    -45.21851410    -56.12113129    -22.11584597
 H    -43.60906525    -55.38300201    -21.93389482
 H    -44.55495053    -54.78731134    -24.51884765
 H    -45.85297000    -55.91064785    -24.04818089
 H    -44.41541320    -57.76723711    -23.75630103
 H    -42.99833152    -56.79021093    -24.20969491
 H    -43.64947905    -56.31880092    -26.38313554
 H    -45.15352628    -57.25170365    -26.19392375
 H    -43.66572493    -59.27566155    -25.85794227
 H    -42.24417683    -58.22435738    -26.06343488
 H    -42.95115343    -57.73963640    -28.37804512
 H    -44.36992140    -58.79276350    -28.16289997
 H    -43.14668254    -60.76652709    -27.98899224
 H    -41.59760208    -59.89789447    -27.87027515
 H    -41.75966381    -59.34238566    -30.23536083
 H    -43.47132847    -59.82797085    -30.28710801
 H    -42.28166270    -62.18719316    -30.01386991
 H    -40.74784033    -61.30527438    -29.81925523
 H    -40.92758791    -60.49674700    -32.14303653
 H    -42.46095105    -61.38104118    -32.33035434
 H    -41.06580689    -63.48502350    -31.89288239
 H    -39.62277034    -62.44355739    -31.85737849
 H    -39.65556716    -61.61150733    -33.94539927
 H    -41.12282903    -62.52564893    -34.36937378
 H    -39.76404174    -64.61833753    -33.99424709
 H    -38.36141013    -63.60172193    -33.58512124
 H    -38.33453318    -62.66257190    -35.84259475
 H    -39.73640210    -63.66620449    -36.28503324
 H    -38.61239938    -65.72599027    -35.97693666
 H    -37.11479448    -64.88327758    -35.51295222
 H    -37.55158948    -64.12507404    -38.10409536
 H    -39.00389199    -65.14953129    -38.00626171
 H    -37.61128730    -67.13722180    -37.66497708
 H    -36.14497864    -66.13264339    -37.75999194
 H    -36.18573047    -65.32715136    -39.78689439
 H    -37.69747749    -66.17370425    -40.19461467
 H    -36.00777246    -68.22018643    -39.73146025
 H    -34.78243260    -66.97484782    -39.39095972
 H    -34.78354076    -66.06363987    -41.56315004
 H    -36.01025779    -67.23624875    -42.10019789
 H    -33.99115340    -68.85900686    -41.65490779
 H    -33.12169025    -67.49119203    -40.91912041
 H    -33.24594693    -66.64254188    -43.42475608
 H    -34.11589265    -68.15060485    -43.79517096
 H    -32.84593552    -69.76598986    -43.42090394
 H    -31.48747046    -68.72992371    -42.92149800
 H    -31.52812637    -67.81604502    -45.28577825
 H    -32.88901248    -68.90460386    -45.64812521
 H    -32.21589489    -70.88332285    -45.43888581
 H    -30.55979751    -70.39328452    -45.00822285
 H    -30.21599780    -69.34515016    -47.16496131
 H    -31.86095881    -69.80232449    -47.66831164
 H    -31.44243766    -72.13983797    -47.53728903
 H    -29.76273391    -71.84504357    -47.02742804
 H    -29.56272379    -70.75601655    -49.37223233
 H    -31.27551159    -71.16091755    -49.63808902
 H    -30.45195721    -73.59691070    -49.43883955
 H    -28.80832266    -72.96272223    -49.18479795
 H    -28.90823628    -72.00121854    -51.48881101
 H    -30.55040606    -72.66181265    -51.67632237
 H    -29.44050957    -74.94694040    -51.44126860
 H    -27.87291345    -74.12226010    -51.26573663
 H    -27.56805934    -73.09627064    -53.14537880
 H    -29.09993308    -73.68901953    -53.83114718
 H    -28.94528209    -75.80958300    -53.93075829
 H    -27.29566459    -75.82750468    -53.26239642
 H    -26.45692922    -74.56879582    -55.18011081
 H    -28.09246521    -74.53048989    -55.88141056
 H    -28.29678321    -76.84874721    -56.15389370
 H    -26.67085175    -77.11817110    -55.48156618
 H    -26.05694583    -75.68736052    -57.64249535
 H    -27.80028059    -75.68270443    -58.00170128
 H    -28.49211910    -77.57809695    -58.31300275
 H    -26.89680288    -78.33076733    -58.07484285
 H    -25.94534225    -77.19983038    -59.97348114
 H    -27.49874432    -76.39545771    -60.30240860
 H    -28.54606152    -78.54786067    -60.77701914
 H    -27.04076495    -79.39924053    -60.35571021
 H    -26.33322654    -78.14266155    -62.58435524
 H    -27.87749757    -77.26160556    -62.49930224
 H    -28.63687670    -79.83268370    -62.94669733
 H    -26.89702370    -80.20803322    -62.92964022
 H    -27.24376873    -78.72226012    -65.15797138
 H    -28.87948880    -78.36314714    -64.55487572
 H    -28.57221053    -81.12330586    -65.22640228
 H    -26.91990838    -80.59930031    -65.63085555
 H    -26.81758577    -79.27821551    -67.09951503
 H    -28.57667426    -79.24818304    -67.36964911
 H    -27.45360817    -81.82613756    -67.88912875
 H    -25.94852552    -81.00624983    -67.40873620
 H    -25.44402074    -79.50473340    -68.63242713
 H    -26.83949198    -79.74532504    -69.71087154
 H    -25.75613184    -82.04506624    -70.15269233
 H    -24.45844863    -81.58897952    -69.02297119
 H    -23.74167289    -79.75068008    -70.41125812
 H    -24.99004483    -80.15131420    -71.61513788
 H    -23.96576392    -82.32500163    -72.03141887
 H    -22.69607325    -81.96706999    -70.83641377
 H    -21.96902262    -80.07801346    -72.31106253
 H    -23.26492378    -80.49782769    -73.45677754
 H    -22.55742673    -82.58607131    -74.04738952
 H    -21.13335757    -82.47674799    -72.98515504
 H    -20.57588048    -80.51089474    -74.66471998
 H    -22.10356242    -80.90356412    -75.48950195
 H    -21.34450156    -83.10333013    -76.10441204
 H    -19.77910105    -82.81060294    -75.30936569
 H    -19.46213759    -81.11214990    -77.18709760
 H    -21.17724489    -81.28848891    -77.62933981
 H    -20.04579074    -83.71027387    -78.23345185
 H    -18.53555592    -82.98746824    -77.62929172
 H    -18.19679947    -81.32899642    -79.05582862
 H    -19.66150353    -81.71773321    -79.98952685
 H    -17.93151884    -83.89507958    -80.18901593
 H    -16.87037108    -82.91549433    -79.14851372
 H    -16.54642008    -81.16534248    -80.64081019
 H    -17.57149842    -81.94961176    -81.86653559
 H    -15.73787118    -83.77931807    -81.79630068
 H    -14.89845283    -82.80471639    -80.56593689
 H    -14.62512066    -80.94395258    -82.12392051
 H    -15.32519140    -81.94359585    -83.41963690
 H    -13.96694436    -83.62857461    -83.60153425
 H    -12.88838825    -83.02204428    -82.32204047
 H    -12.02475031    -81.31759900    -82.65652962
 H    -12.74986002    -81.11558542    -84.26949989
 H    -11.56810965    -83.14459906    -85.03733090
 H    -10.85024045    -83.33482440    -83.41969534
 H     -9.63631117    -81.31577934    -83.47985820
 H    -10.24588491    -80.94907437    -85.11148744
 H     -9.56108988    -82.44334223    -86.41734011
 H     -8.67795865    -83.31280630    -85.13969457
 H     -7.22648787    -81.31892158    -84.84815981
 H     -8.13419204    -80.48170823    -86.13011676
 H     -7.42731314    -82.11875050    -87.78670001
 H     -6.50133237    -82.99448706    -86.54415755
 H     -4.98528076    -81.46513931    -85.95729427
 H     -5.62049278    -80.27222439    -87.11562338
 H     -5.43505704    -80.94586969    -89.03640258
 H     -4.66245613    -82.47535177    -88.55469823
 H     -2.75377758    -81.38376437    -87.60939134
 H     -3.41668740    -79.78915761    -88.04072243
 H     -3.50973847    -79.82908704    -90.22108346
 H     -2.83697992    -81.47439496    -90.31395149
 H     -0.78445945    -81.07950930    -89.40467991
 H     -1.14268011    -79.35082238    -89.17755399
 H     -1.43799375    -78.25346447    -90.65073287
 H     -1.30467515    -79.56508572    -91.84661853
 H      1.03177032    -79.95644540    -91.23713874
 H      0.95828132    -78.58640644    -90.10318139
 H      0.52224190    -76.89082402    -91.49894618
 H      0.52436906    -77.95807232    -92.92346127
 H      2.97194030    -78.41324809    -92.31449488
 H      2.79704248    -77.24461908    -90.98333612
 H      2.33867330    -75.37254585    -92.19645784
 H      2.45270080    -76.25916755    -93.73566749
 H      4.94194563    -76.53943863    -92.86788365
 H      4.44793121    -75.60613637    -91.43499729
 H      4.00989843    -73.66935264    -92.96069819
 H      4.51687871    -74.66799521    -94.34415426
 H      6.78471416    -74.82699093    -93.37294778
 H      6.26100465    -73.82751243    -91.99634408
 H      5.77427100    -71.90419084    -93.17678195
 H      6.24654663    -72.66029388    -94.71740864
 H      8.50536577    -72.98354079    -94.10771865
 H      8.22183282    -72.24729163    -92.51215827
 H      7.68750633    -70.14079087    -93.94596420
 H      8.02700003    -71.12195440    -95.39176115
 H     10.41841377    -71.13634698    -94.20879414
 H      9.67648224    -70.14511117    -92.93002292
 H      9.13382399    -68.42926627    -94.72105341
 H     10.23110872    -69.34029168    -95.78607247
 H     12.12883542    -69.11915493    -94.42931418
 H     11.21643617    -68.17640653    -93.22639285
 H     10.72078071    -66.37567303    -94.62779613
 H     11.59096583    -67.12882430    -95.98566493
 H     13.69942198    -67.03044541    -94.78103428
 H     12.88568586    -66.27293268    -93.39097146
 H     12.09184008    -64.37955532    -94.58126511
 H     13.13755484    -64.83017190    -95.94936306
 H     15.15620636    -64.80081597    -94.95401306
 H     14.46068629    -64.32714107    -93.38552634
 H     13.57880528    -62.34843641    -93.82843209
 H     14.10898350    -62.39514099    -95.52695981
 H     16.46327301    -62.42639273    -94.76391760
 H     15.91032023    -62.37995482    -93.07265966
 H     14.90570853    -60.15420783    -93.49833209
 H     15.47080421    -60.22919810    -95.18454382
 H     17.81058623    -60.20529002    -94.08508858
 H     17.01026147    -60.21417165    -92.49522441
 H     15.95873732    -58.98347655    -91.83490099
 H     16.11252809    -57.91101301    -93.24714638
 H     18.62472681    -57.90445868    -92.47559496
 H     18.13793298    -58.99495961    -91.15570626
 H     16.70052521    -57.07302074    -90.32823798
 H     17.27299214    -56.09830672    -91.70318556
 H     19.55417004    -56.14392328    -90.95306166
 H     19.09533044    -57.11976330    -89.53691578
 H     17.73719261    -54.86432651    -89.06813933
 H     18.42689349    -54.25888344    -90.59326819
 H     20.62900996    -54.26680083    -90.04578101
 H     20.29201669    -54.87265200    -88.40637668
 H     18.87004936    -52.90187756    -87.93302788
 H     19.52981292    -52.15928074    -89.41002776
 H     21.72215128    -52.14629713    -88.94101682
 H     21.46527119    -52.88949378    -87.34416428
 H     20.35616593    -51.19867042    -86.34274339
 H     20.17050514    -50.28053142    -87.85628807
 H     22.89908350    -50.51848350    -86.89680219
 H     22.08002299    -51.44846467    -85.61909269
 H     20.91927499    -49.25634457    -85.04021493
 H     21.79852250    -48.47857651    -86.37822364
 H     23.91841346    -48.77981809    -85.31070268
 H     23.18114809    -49.73465969    -84.00189255
 H     21.93396709    -47.74998375    -83.25112128
 H     22.66944789    -46.79217240    -84.55876499
 H     24.89202241    -47.21126922    -83.46143531
 H     24.06510679    -48.15482522    -82.19882718
 H     23.03842668    -45.67423263    -81.86339304
 H     24.07688356    -45.19735766    -83.22811434
 H     25.89506770    -45.92939292    -81.39358989
 H     24.51203677    -46.29448910    -80.33425194
 H     23.70864491    -44.13414367    -80.15332357
 H     24.95018190    -43.50577641    -81.26328174
 H     26.76150732    -44.05051089    -79.81387126
 H     25.63649659    -44.71279923    -78.60391602
 H     24.78629434    -42.25114880    -78.53675359
 H     26.01236237    -41.86622923    -79.76836262
 H     27.79518025    -42.46412289    -78.17448043
 H     26.56637199    -42.84821120    -76.94534533
 H     25.76337659    -40.86130295    -76.49387689
 H     26.48793016    -40.09264796    -77.92651721
 H     28.55416969    -40.75616855    -76.16664034
 H     27.23643978    -41.39386655    -75.15412081
 H     26.25086649    -39.19794366    -74.89547513
 H     27.53647001    -38.48352564    -75.89802045
 H     29.14789590    -39.22683783    -74.09516580
 H     27.77413075    -39.90530125    -73.18922797
 H     26.72604548    -37.76912288    -72.89896711
 H     28.05719909    -36.97073112    -73.77009702
 H     29.73556972    -37.40240854    -72.29749460
 H     28.70007757    -38.42825933    -71.27590133
 H     27.41502625    -36.25033385    -70.81869229
 H     28.56202834    -35.40784541    -71.88774145
 H     29.67413367    -36.60091882    -69.45993891
 H     27.96933672    -37.07326093    -69.26289329
 H     26.99530584    -35.16955008    -68.88007060
 H     28.38672987    -34.19225523    -69.40647408
 H     29.11985849    -35.43882931    -67.03440233
 H     27.48819331    -36.14652811    -67.10580113
 H     26.53770181    -33.86078191    -66.90126047
 H     28.18562598    -33.19135911    -66.83428501
 H     28.58893572    -34.41791752    -64.73193923
 H     26.93974639    -35.08347787    -64.80590313
 H     26.55775248    -32.39470271    -64.55598812
 H     28.33430497    -32.28502363    -64.54606813
 H     29.01829618    -33.32289939    -62.83206949
 H     27.37396963    -33.74585243    -62.29768424
 H     26.21963483    -32.21720327    -61.86138726
 H     27.47384448    -31.00282348    -62.20852777
 H     29.06592187    -31.26848607    -60.90002491
 H     28.29570216    -32.63303854    -60.05561693
 H     26.47644685    -31.58161176    -59.20428258
 H     26.95934728    -30.02070830    -59.91043710
 H     28.94410044    -30.02571289    -58.43805907
 H     28.53230247    -31.65862655    -57.86161991
 H     26.45773684    -30.36113075    -56.89603383
 H     27.14894770    -28.88691109    -57.61517957
 H     29.10897657    -29.12872351    -56.10636963
 H     28.38297911    -30.59945560    -55.41489189
 H     26.57571102    -28.76569716    -54.70664890
 H     27.61023541    -27.57822561    -55.53606875
 H     29.05618193    -28.72257312    -53.39988453
 H     27.51323016    -29.55542068    -53.09340214
 H     26.16816912    -27.81149002    -52.66055476
 H     27.48858119    -26.63829677    -52.88054619
 H     28.72667879    -27.55276000    -51.00853015
 H     27.44469935    -28.75498508    -50.72666098
 H     26.11187370    -26.48902807    -50.26861017
 H     27.63240318    -25.64157423    -50.64019967
 H     28.76112178    -26.64233033    -48.74855869
 H     27.27926051    -27.52448996    -48.30793616
 H     25.84313173    -25.95368283    -47.84011212
 H     27.01543594    -24.65382702    -48.16313595
 H     28.48518418    -25.31500993    -46.40730434
 H     27.40493033    -26.65897743    -45.96563745
 H     25.71751810    -24.79887108    -45.42110062
 H     26.94526875    -23.60895809    -45.91607744
 H     28.30799166    -24.51715455    -43.95301300
 H     26.97586726    -25.64571106    -43.60649970
 H     26.05849985    -23.00841779    -43.26987258
 H     27.71918786    -22.58175591    -43.74772364
 H     28.67059867    -23.65499218    -41.80954171
 H     27.04864295    -24.12562778    -41.24737765
 H     26.61092089    -21.61487455    -41.07023039
 H     28.26870298    -21.32785138    -41.65130087
 H     28.49016293    -22.65108560    -39.22351484
 H     26.71047729    -22.62661325    -39.24318160
 H     26.53180186    -20.27334581    -39.16775187
 H     28.30298629    -20.09954760    -39.13666236
 H     28.45990418    -21.25156180    -37.00829172
 H     26.69249371    -21.45953428    -36.97259425
 H     26.69301689    -18.88847692    -36.80490829
 H     28.45934778    -18.90869364    -37.02384462
 H     28.63966050    -20.10434679    -34.83845849
 H     26.86743339    -20.05225818    -34.68109105
 H     26.58597146    -17.78749138    -34.58722640
 H     28.33689543    -17.49763341    -34.72329354
 H     28.84555421    -18.68260245    -32.69327257
 H     27.10514002    -18.87099864    -32.37119811
 H     26.98444849    -16.33827355    -32.35600826
 H     28.74735603    -16.29766388    -32.59844283
 H     29.09955191    -17.43211361    -30.45722795
 H     27.34069792    -17.48549759    -30.18918052
 H     27.42699173    -14.95424461    -30.16290072
 H     29.18361419    -15.04290677    -30.43618304
 H     28.97378648    -16.22835006    -28.04777465
 H     27.22158002    -15.94511675    -28.18125893
 H     27.36822921    -13.59871765    -28.19513804
 H     29.14158071    -13.66481528    -28.05685496
 H     28.75960892    -14.77384970    -25.80837450
 H     27.00525305    -14.64560875    -26.08050761
 H     26.41612767    -12.69957787    -26.21201495
 H     28.05538174    -12.05741122    -25.94984186
 H     27.78034456    -13.23374355    -23.63965296
 H     26.16289042    -13.75065440    -24.17342437
 H     25.61645033    -11.25756319    -24.24641208
 H     27.27967062    -10.91984101    -23.70984086
 H     26.42082088    -12.30925925    -21.61482537
 H     24.83319657    -12.31741523    -22.41959191
 H     24.33309849    -10.20958394    -22.71242273
 H     25.65162459     -9.71644744    -21.62312388
 H     24.87522966    -10.91634947    -19.75862150
 H     23.47413957    -11.52082597    -20.67503919
 H     22.65335931     -9.21571772    -20.95627041
 H     24.03202696     -8.61480464    -20.00419601
 H     23.31399907     -9.81287124    -18.03008153
 H     21.90680991    -10.45646856    -18.90977911
 H     21.08994008     -8.10795123    -19.16011025
 H     22.52238821     -7.53216165    -18.27420655
 H     21.96108781     -8.64787310    -16.25856364
 H     20.47938698     -9.30650761    -16.99275019
 H     19.44629974     -7.24022609    -17.36831058
 H     20.82797894     -6.36740187    -16.66303961
 H     20.33200312     -7.49813805    -14.49074125
 H     18.96497191     -8.34015356    -15.25918266
 H     17.76329522     -6.34237137    -15.72419195
 H     19.04690699     -5.35689921    -14.98294157
 H     18.86367561     -6.19548475    -12.83323260
 H     17.54217372     -7.28783347    -13.31143097
 H     16.01194271     -5.66788869    -13.92799728
 H     17.13952794     -4.36088535    -13.49376177
 H     17.32426849     -4.79978411    -11.25233182
 H     16.20481990     -6.17906476    -11.36496580
 H     14.35520559     -4.83782770    -12.04282869
 H     15.35436501     -3.36651257    -11.97086410
 H     15.41397306     -4.09774222     -9.41696207
 H     14.39873872     -5.48104216     -9.89029830
 H     12.61631051     -3.86507457    -10.54297266
 H     13.67526101     -2.52012886    -10.05510841
 H     13.64444419     -3.15498924     -7.75750964
 H     12.73164025     -4.63850104     -8.12390887
 H     10.79939940     -3.84167680     -8.85289368
 H     11.31076106     -2.15221422     -8.62378208
 H     11.33369797     -3.15840525     -6.10467813
 H     10.83172812     -4.69396457     -6.85190668
 H      8.81050842     -4.04593967     -7.68607248
 H      9.00217401     -2.39423848     -7.05092357
 H      8.97793168     -3.36469603     -4.75323428
 H      8.86078865     -4.99865630     -5.44945121
 H      6.60753603     -4.25742821     -6.36009230
 H      6.86754976     -2.66503825     -5.60845824
 H      6.88763393     -3.58979995     -3.38430882
 H      6.62563481     -5.22469178     -4.03757128
 H      4.54316906     -4.82992681     -4.98094980
 H      4.55149084     -3.13952621     -4.42350633
 H      4.58448239     -4.36547991     -2.08199611
 H      4.57984332     -5.89911085     -2.98544577
 H      2.24538163     -4.99222254     -3.76620276
 H      2.55382052     -3.55707550     -2.75948280
 H      2.42545033     -5.48652120     -0.91314764
 H      2.23337606     -6.63185314     -2.26206902
 H      0.28918543     -5.98330740     -3.13443816
 H      0.08446278     -4.69061815     -1.92807594
 H     -0.02935041     -6.07728837     -0.06023662
 H      0.15739028     -7.53388261     -1.06608343
 H     -1.98552362     -6.98992997     -2.18841253
 H     -2.14361023     -5.53995782     -1.16818900
 H     -2.28316596     -6.72963586      0.86692772
 H     -2.14119234     -8.28534341      0.01376644
 H     -4.19279750     -7.78127072     -1.28425229
 H     -4.47183727     -6.40242924     -0.19374798
 H     -4.43027605     -7.87987933      1.77344254
 H     -4.44412878     -9.27512658      0.66829102
 H     -6.60277539     -8.49662421     -0.25326153
 H     -6.57166586     -7.10721916      0.85887717
 H     -6.69114476     -8.99672369      2.65941183
 H     -6.70105429    -10.17093641      1.32172990
 H     -8.93356906     -8.22925276      1.63116097
 H     -7.88664067     -7.76620998      2.99417197
 H     -8.70714304    -10.34761654      3.51685043
 H     -9.58215805    -10.21054780      1.97288554
 H    -11.02469934     -8.63235821      2.28185860
 H    -10.51697902     -8.36187406      3.96629473
 H    -11.04487248    -10.37981008      4.85563375
 H    -11.65640329    -10.98626096      3.29790654
 H    -13.37087535     -9.60419718      2.92601386
 H    -13.09350919     -8.72028554      4.44589376
 H    -13.47649432    -10.43538046      5.91509350
 H    -13.82095389    -11.57642478      4.59311312
 H    -15.52443793    -10.71624953      3.53601574
 H    -15.75161348     -9.48339858      4.79963612
 H    -16.10404906    -10.87813286      6.58155320
 H    -15.93436382    -12.32786870      5.56285817
 H    -17.90490832    -11.57941381      4.23468731
 H    -18.11066718    -10.22115557      5.36652850
 H    -18.41286891    -11.34264828      7.30997292
 H    -18.43052012    -12.90589606      6.45896677
 H    -19.96554530    -12.97854825      5.10482404
 H    -20.55592340    -11.34741820      5.50374149
 H    -20.94673931    -12.52165124      7.83628689
 H    -20.28584831    -14.00251724      7.10244381
 H    -21.78211249    -14.41844706      5.50271224
 H    -22.76343071    -12.99835654      5.93702102
 H    -22.81532497    -14.37661103      8.25462746
 H    -22.10645032    -15.69158115      7.28683773
 H    -23.99185044    -15.77255477      5.79424604
 H    -24.79101272    -14.46170258      6.69495290
 H    -24.84834510    -15.98300876      8.68382443
 H    -24.06390686    -17.25010729      7.71048757
 H    -25.78537639    -17.48292185      6.14993302
 H    -26.76069516    -16.23762429      6.96617682
 H    -26.52927675    -18.23251676      8.81736803
 H    -25.56571271    -19.07413392      7.57983356
 H    -27.24589519    -19.41426146      6.06710568
 H    -28.39246533    -18.39061784      6.96476782
 H    -27.98774472    -20.51628356      8.61773734
 H    -26.88626707    -21.11396018      7.35369766
 H    -28.81900331    -21.27135030      5.80372500
 H    -29.89022176    -20.67025955      7.09192049
 H    -29.16118309    -22.88217833      8.26363582
 H    -28.16072488    -23.22882238      6.83283607
 H    -30.01488997    -23.36139431      5.34913468
 H    -31.14778808    -23.02716961      6.68071360
 H    -30.37723014    -25.17899588      7.72630894
 H    -29.27284618    -25.42498348      6.35223004
 H    -31.27755786    -25.55517599      4.86637752
 H    -32.32473059    -25.30365045      6.28356870
 H    -31.19541799    -27.62435091      6.93053919
 H    -30.30526200    -27.50599979      5.39369763
 H    -32.03678839    -27.57888225      3.93512963
 H    -33.23049738    -27.72111808      5.24779657
 H    -32.41670943    -29.80152362      6.03127116
 H    -31.15751820    -29.82587644      4.77345120
 H    -33.26885281    -29.73113205      3.18226900
 H    -34.21394033    -30.05436109      4.65556436
 H    -33.87699022    -31.63448291      5.63634734
 H    -32.62221082    -32.22208109      4.51897377
 H    -33.73277297    -32.49171315      2.63216424
 H    -35.27058541    -31.96941010      3.36058657
 H    -34.30761202    -34.34452053      4.59447067
 H    -32.96919012    -34.13423087      3.44005665
 H    -33.84313480    -34.30718237      1.48954609
 H    -35.47789475    -34.59116395      2.13389151
 H    -34.95683639    -36.60081436      3.22809617
 H    -33.26512083    -36.51262960      2.68166357
 H    -33.23018357    -36.60522206      0.59483075
 H    -34.99892385    -36.74996018      0.45744319
 H    -35.24506933    -38.75589023      1.55929075
 H    -33.49227548    -38.88587007      1.84051238
 H    -32.69542854    -39.00671978     -0.22760885
 H    -34.31950439    -38.91175982     -0.94984627
 H    -35.00911704    -40.98754705      0.07153735
 H    -33.41056957    -41.16718781      0.83353593
 H    -32.74455805    -41.10766284     -1.78829215
 H    -34.49716464    -41.26925964     -2.05385434
 H    -34.60251267    -43.37123945     -0.88790065
 H    -32.85230505    -43.30926334     -0.56978289
 H    -32.68698747    -43.42164553     -3.15552932
 H    -34.46570293    -43.46606122     -3.20518037
 H    -34.46422024    -45.60797517     -2.00635679
 H    -32.68543255    -45.57866120     -1.94872258
 H    -32.38575402    -45.67285217     -4.28266456
 H    -34.14505391    -45.71603435     -4.54962122
 H    -34.01451637    -47.95159340     -3.27139532
 H    -32.25945834    -47.69827388     -3.11690519
 H    -31.86025872    -47.77803990     -5.45885359
 H    -33.59105734    -48.04184846     -5.77980193
 H    -34.27427831    -49.76019688     -4.99138969
 H    -32.69236493    -50.23081186     -4.32480265
 H    -31.51883409    -50.42004785     -6.26853795
 H    -32.93903101    -49.98215609     -7.24810836
 H    -34.11754672    -51.98955319     -6.46481044
 H    -32.70400526    -52.43922659     -5.48096032
 H    -31.21135383    -52.75086005     -7.21061327
 H    -32.42928596    -52.30334588     -8.42907092
 H    -33.75627616    -54.29756535     -7.74348795
 H    -32.50813811    -54.69862087     -6.53950600
 H    -30.93430722    -55.11578365     -8.40002641
 H    -32.13240352    -54.51904580     -9.57337028
 H    -33.50400857    -56.56552121     -8.87397182
 H    -32.19582030    -57.00083888     -7.74817937
 H    -30.59594034    -57.32214741     -9.49812472
 H    -31.81474977    -56.90794886    -10.72743746
 H    -33.11056483    -58.91906232    -10.00244823
 H    -31.85355634    -59.27279429     -8.79287392
 H    -30.27252915    -59.58582090    -10.73945774
 H    -31.61235246    -59.21242713    -11.85018600
 H    -32.98808817    -60.96344162    -11.35844514
 H    -31.84082679    -61.61710459    -10.16480253
 H    -30.13368840    -62.01903639    -11.77979022
 H    -31.17381489    -61.39360425    -13.08180335
 H    -32.83712198    -62.47009229    -13.35109899
 H    -32.43678234    -63.64447416    -12.07484586
 H    -30.53460901    -64.52202344    -12.94560262
 H    -30.63127452    -63.48342229    -14.38790290
 H    -32.73803922    -64.53969305    -15.04867217
 H    -32.66761968    -65.59224817    -13.61499318
 H    -30.76477249    -66.74282891    -14.08965382
 H    -30.53551841    -65.86803336    -15.62276894
 H    -32.87119126    -67.17363120    -16.02111591
 H    -32.65451351    -67.80397002    -14.37066434
 H    -30.60711187    -68.97038962    -15.07833401
 H    -30.81917663    -68.34282836    -16.73044238
 H    -33.00731611    -69.84708745    -16.49147484
 H    -32.43932910    -70.23122460    -14.84888661
 H    -30.44512252    -71.32148529    -15.98969876
 H    -31.14082111    -70.86302261    -17.56262028
 H    -33.18290222    -72.25465142    -16.88605929
 H    -32.17102826    -72.89600313    -15.56960734
 H    -30.49724048    -73.78918083    -16.91446166
 H    -31.32690486    -73.25206902    -18.39481115
 H    -33.23540043    -74.68539803    -17.92274650
 H    -32.45172234    -75.25897501    -16.43106129
 H    -30.66107872    -76.20934084    -17.98464221
 H    -31.57591577    -75.56079244    -19.36693190
 H    -33.47327343    -76.99715912    -18.87768759
 H    -32.60954142    -77.68656893    -17.48235688
 H    -30.86190677    -78.64226928    -18.68936565
 H    -31.53909685    -78.06096815    -20.22942060
 H    -33.29491022    -78.76321305    -20.70638525
 H    -33.42544944    -79.78803868    -19.25691686
 H    -31.68615868    -81.19200048    -19.62755112
 H    -31.23490914    -80.36199375    -21.13610319
 H    -33.19318106    -80.84678186    -22.30450976
 H    -33.85991267    -81.74077625    -20.91724279
 H    -32.86372566    -83.32519063    -20.36767158
 H    -31.63447662    -83.15757307    -21.64404058
 H    -32.79962079    -83.37232159    -23.49530606
 H    -34.32784493    -83.60741016    -22.61352885
 H    -33.78199778    -85.55692306    -21.52460875
 H    -32.16630728    -85.59365237    -22.27057246
 H    -32.82820120    -85.80042934    -24.46516186
 H    -34.54892420    -85.79946743    -24.00977400
 H    -33.91294528    -87.98394830    -22.76906185
 H    -32.24597106    -87.75641771    -23.35017584
 H    -31.69607135    -87.72819250    -25.00600475
 H    -33.31230352    -88.03939362    -25.68365813
 H    -33.39207630    -90.21877155    -24.56729113
 H    -31.77633309    -89.93118255    -23.87813722
 H    -30.67449789    -89.84817927    -25.96825566
 H    -32.20497500    -90.13476011    -26.83068125
 H    -32.07753801    -92.40498966    -25.52376449
 H    -30.55261639    -91.82163589    -24.81483634
 H    -29.37584627    -91.69730126    -26.83864552
 H    -30.79050626    -92.27684867    -27.75030806
 H    -30.68908331    -94.41961102    -26.53454821
 H    -29.27470761    -93.83552446    -25.62534475
 H    -27.89790703    -93.63409960    -27.55560299
 H    -29.21962944    -94.20960646    -28.59968556
 H    -29.58181357    -96.25131361    -27.89012063
 H    -28.30071291    -96.14931211    -26.65859984
 H    -26.61664886    -95.99045250    -28.41631550
 H    -27.87880568    -95.85883461    -29.66447557
 H    -28.71369146    -98.04939148    -29.33335846
 H    -27.51039029    -98.35620721    -28.05813414
 H    -25.60927211    -98.26543754    -28.81916993
 H    -26.15930659    -97.92554684    -30.47754355
 H    -27.30763166    -99.86056576    -30.87314484
 H    -26.91715521   -100.50017507    -29.25861867
 H    -24.59681998   -100.57595582    -29.58097425
 H    -24.75959921    -99.94606909    -31.23778212
 H    -26.03062641   -101.92560897    -31.90615901
 H    -25.88529082   -102.58426940    -30.25894601
 H    -23.31100286   -102.44917944    -31.19279110
 H    -24.04230038   -101.78824457    -32.67489626
 H    -25.27869358   -103.64529267    -33.26658915
 H    -24.69603852   -104.55628885    -31.85277668
 H    -22.43493570   -104.10016385    -33.29028980
 H    -23.49693704   -103.24948860    -34.43779642
 H    -24.78840440   -105.06475515    -35.05810538
 H    -23.87603055   -106.15309851    -33.98509589
 H    -21.78928945   -105.85558189    -35.01985898
 H    -22.54558745   -104.88189307    -36.30368532
 H    -23.88047351   -105.65921641    -37.38707676
 H    -23.79123677   -107.24910488    -36.59174152
 H    -21.61288050   -107.75899865    -37.13709895
 H    -21.41166019   -106.22663728    -38.02007442
 H    -23.28212694   -107.27834164    -39.52362020
 H    -23.25441369   -108.68900058    -38.43847505
 H    -20.79922494   -108.84968123    -39.38199376
 H    -21.16401851   -107.39632704    -40.34269866
 H    -22.87304707   -108.44397252    -41.61688681
 H    -22.62826946   -109.97852181    -40.74883781
 H    -20.29702276   -109.96984400    -41.76108979
 H    -20.68342478   -108.42311614    -42.55266611
 H    -22.46016796   -109.71807132    -43.82457793
 H    -21.96542084   -111.18726501    -42.94995696
 H    -19.80792999   -110.31405715    -44.51077054
 H    -20.92362499   -109.00863063    -44.97912185
 H    -22.53098428   -110.22389500    -46.01384070
 H    -21.66528402   -111.75147435    -45.72172591
 H    -20.01304198   -110.27009945    -47.34978941
 H    -21.29054044   -109.03408071    -47.25747456
 H    -22.71312797   -110.83957331    -48.45079718
 H    -21.28484871   -111.90123587    -48.41677308
 H    -19.96066089   -110.50621874    -49.79165998
 H    -21.28727906   -109.32906181    -49.94216733
 H    -22.75201484   -110.82929874    -51.04708348
 H    -21.53231283   -112.12419504    -50.98513814
 H    -20.10224574   -110.63816016    -52.45177262
 H    -21.40053289   -109.42066260    -52.43135666
 H    -22.93081215   -110.92961062    -53.56525905
 H    -21.67303088   -112.18797668    -53.61786870
 H    -20.34495680   -110.61490677    -55.07360317
 H    -21.66551202   -109.42781503    -54.95025899
 H    -23.02240453   -111.26471454    -56.17942098
 H    -21.55307800   -112.26932636    -56.16935652
 H    -20.10858729   -111.19888128    -57.34498578
 H    -21.23280437   -109.86492695    -57.69849457
 H    -22.84786385   -110.61220751    -58.78433588
 H    -22.21247697   -112.27476308    -58.80576361
 H    -20.26945416   -111.27140077    -60.14147363
 H    -21.06001353   -109.68212390    -60.00925564
 H    -22.83557682   -110.58592039    -61.49363221
 H    -22.20839832   -112.23875979    -61.28618174
 H    -20.22757576   -111.07776123    -62.67770231
 H    -21.21589725   -109.59811708    -62.63143691
 H    -22.76057547   -111.27868928    -64.06378258
 H    -21.47847964   -112.48708602    -63.81025888
 H    -20.46085962   -110.43988901    -65.40054733
 H    -22.01669120   -109.63628338    -65.08137221
 H    -23.47578148   -110.96702340    -66.04828000
 H    -22.21470790   -112.09065725    -66.60989112
 H    -21.43940215   -109.78623566    -67.80025929
 H    -23.04162438   -109.19985882    -67.29299921
 H    -24.59280270   -110.04482332    -67.87005927
 H    -23.73168211   -111.24679904    -68.86101454
 H    -23.29572823   -108.58168185    -69.79573440
 H    -24.34464358   -108.17687232    -68.41581684
 H    -26.06944021   -109.56911377    -69.83343453
 H    -24.77418891   -109.79692236    -71.03289023
 H    -24.74381629   -107.34864565    -71.41594862
 H    -26.03904982   -107.15071482    -70.21118302
 H    -27.59001938   -108.44839218    -71.55547881
 H    -26.33885726   -108.68192723    -72.79979444
 H    -26.33310583   -106.21439726    -73.16039238
 H    -27.58379371   -106.04171412    -71.90571034
 H    -28.36879624   -107.56468871    -74.25891345
 H    -26.69084704   -107.18728197    -74.71751710
 H    -27.71533433   -104.73657168    -74.62820961
 H    -29.25478449   -105.50246622    -74.16802982
 H    -29.33559863   -106.65301129    -76.34306880
 H    -27.79625656   -105.88820583    -76.80541636
 H    -28.40153912   -103.71651759    -76.79613254
 H    -30.07572790   -104.10728445    -76.33498196
 H    -30.27993425   -105.33420263    -78.51455032
 H    -28.59609520   -104.89907185    -78.89351456
 H    -29.41994808   -102.46601788    -78.76142231
 H    -31.06683473   -103.11829973    -78.58660977
 H    -31.02867623   -104.21313776    -80.70828135
 H    -29.37743364   -103.62439230    -81.01657235
 H    -29.90874023   -101.35052494    -81.02394415
 H    -31.62744925   -101.70042809    -80.72083733
 H    -31.85750049   -102.87848972    -82.81963658
 H    -30.14661437   -102.57015758    -83.20182327
 H    -30.97825327   -100.08301925    -83.15844098
 H    -32.59720184   -100.71307534    -82.77075359
 H    -31.69018388   -101.56321095    -85.34959366
 H    -30.25256986   -100.61917832    -84.89097072
 H    -31.61808427    -98.56928524    -84.83486284
 H    -33.05507841    -99.51426136    -85.29348537
 H    -32.37832770   -100.06395013    -87.40870379
 H    -30.72214636    -99.46899718    -87.14156896
 H    -31.18469922    -97.23552350    -86.94573660
 H    -32.92582238    -97.50814466    -87.19560559
 H    -32.88521783    -98.33980991    -89.30508105
 H    -31.11421529    -98.19236676    -89.40546632
 H    -31.92884765    -95.62218676    -89.13047985
 H    -33.57873093    -96.28746765    -89.07087148
 H    -32.52676888    -96.86889118    -91.58607789
 H    -31.07928125    -96.03353773    -90.97351702
 H    -31.83628081    -93.97469894    -90.63546745
 H    -33.47144785    -94.39156181    -91.20178962
 H    -32.01579538    -94.79683731    -93.41862526
 H    -30.60640223    -94.31041058    -92.44637701
 H    -31.36729771    -92.11044758    -92.05600838
 H    -32.84446785    -92.40987628    -93.00288615
 H    -31.48711169    -92.77193404    -95.02149347
 H    -30.00573704    -92.47344742    -94.08090772
 H    -30.32021338    -90.29615580    -93.58488770
 H    -31.97275981    -90.27762381    -94.24595769
 H    -30.35251616    -90.68711385    -96.41851469
 H    -29.01547562    -90.62701474    -95.24506790
 H    -29.07074300    -88.63601127    -94.42003646
 H    -30.45987979    -88.15073672    -95.42157240
 H    -27.96588767    -89.05586926    -96.78007618
 H    -27.44688997    -88.91980075    -95.08290400
 H    -27.45442664    -87.45133844    -94.10482200
 H    -28.05723275    -86.41893520    -95.42354676
 H    -26.14298172    -86.63324859    -96.74397448
 H    -25.46799126    -87.90980793    -95.70327721
 H    -25.29269124    -86.01028465    -93.96172398
 H    -25.99338864    -84.91116079    -95.17383642
 H    -23.67667237    -85.63333551    -96.34031787
 H    -23.39537037    -86.62971311    -94.89243406
 H    -23.32142990    -84.75096310    -93.42043036
 H    -23.59510741    -83.63592908    -94.78060182
 H    -21.48378016    -84.31139514    -95.81128583
 H    -21.17784095    -85.43609570    -94.46602879
 H    -21.05279778    -83.81758393    -92.79072896
 H    -21.34068305    -82.50953669    -93.96307753
 H    -19.07753683    -83.35975219    -94.94539050
 H    -19.05695617    -84.58270383    -93.65224226
 H    -18.92074545    -82.48684961    -92.11731453
 H    -18.96315748    -81.48776023    -93.58982541
 H    -16.81955642    -82.47240734    -94.31057555
 H    -16.78321691    -83.46886904    -92.83612305
 H    -17.07113062    -81.13119970    -91.61794291
 H    -16.68366389    -80.49257939    -92.67564025
 H    -16.06084130    -82.76294017    -90.66854684
 H    -17.53915683    -81.77459493    -90.59093546
 H    -16.47541421    -79.73795357    -90.18797458
 H    -14.87280733    -80.51199276    -90.21592442
 H    -15.18361986    -81.89520493    -88.38208962
 H    -16.83360739    -81.27829951    -88.12667715
 H    -17.17561550    -79.52485046    -87.72932007
 H    -15.45963709    -79.05205775    -87.71699798
 H    -15.50503027    -80.80092463    -85.70379414
 H    -17.23884390    -81.00123485    -86.05312607
 H    -18.10624097    -79.05106048    -85.67472840
 H    -16.54488379    -78.33987579    -85.20075924
 H    -16.56057794    -80.00037574    -83.28294106
 H    -18.12242308    -80.61674195    -83.87370253
 H    -19.26907430    -78.56426043    -83.52223044
 H    -17.78538027    -77.80195472    -82.90109544
 H    -18.05880472    -79.63036707    -81.04802990
 H    -19.51776563    -80.17725254    -81.90862040
 H    -20.55114234    -77.96025393    -81.44594839
 H    -19.06940743    -77.45986230    -80.59604455
 H    -19.76062700    -79.41836011    -79.00240231
 H    -21.16579381    -79.68447625    -80.06209807
 H    -22.12421630    -77.55220567    -79.62054957
 H    -20.78398276    -77.13924684    -78.52441740
 H    -21.08001710    -78.72099125    -76.93201896
 H    -22.49576346    -79.40185864    -77.76888724
 H    -23.85607020    -77.53694618    -77.62914987
 H    -22.60321621    -76.61747834    -76.76127751
 H    -22.76466275    -78.26970733    -74.90402728
 H    -24.01327872    -79.15287788    -75.81465048
 H    -25.51989412    -77.24077638    -75.71554276
 H    -24.30434892    -76.31606912    -74.80141311
 H    -24.31111839    -77.77350906    -72.93496676
 H    -25.53451917    -78.81322012    -73.70344455
 H    -26.50911927    -76.20422840    -73.06034746
 H    -24.80474594    -75.90677681    -72.64213608
 H    -24.70042079    -77.31436688    -70.82729241
 H    -26.33397714    -77.95685454    -71.12219903
 H    -27.41980280    -75.88841656    -70.67374052
 H    -25.85792937    -75.10141621    -70.34291048
 H    -25.50451943    -76.60828991    -68.42679041
 H    -27.06639412    -77.39528457    -68.75762799
 H    -27.60520575    -74.74645761    -68.10707247
 H    -25.83773849    -74.61060679    -67.94622874
 H    -25.25567079    -75.78126447    -66.32161127
 H    -26.85885982    -76.51974839    -66.09206149
 H    -27.29184337    -73.90189194    -65.49811321
 H    -25.54774894    -73.69794309    -65.78932820
 H    -25.40057669    -75.33690643    -63.74696008
 H    -27.18033022    -75.33845686    -63.71972715
 H    -26.83909192    -72.81128837    -63.18238843
 H    -25.08507643    -73.09855080    -63.27818307
 H    -26.10677746    -74.60342247    -61.15030613
 H    -27.66367516    -73.89905410    -61.64850429
 H    -27.15988613    -71.68902313    -61.22991502
 H    -25.52474465    -72.10692879    -60.66428806
 H    -26.34401614    -73.39415966    -58.81464060
 H    -28.02560468    -73.04210869    -59.28002943
 H    -28.09207370    -70.82037166    -59.04263653
 H    -26.39502040    -70.74550085    -58.51096831
 H    -27.09783939    -72.12932546    -56.52191709
 H    -28.76264540    -72.13994330    -57.15165901
 H    -28.70620559    -69.61751277    -56.81852715
 H    -27.03967425    -69.77256574    -56.21280565
 H    -28.35336846    -71.16103266    -54.36099499
 H    -29.83420423    -70.79003320    -55.27628265
 H    -29.92617612    -68.57395525    -55.12557344
 H    -28.43981523    -68.49459553    -54.14950992
 H    -30.01630981    -69.87775996    -52.51073108
 H    -31.27023150    -69.74546998    -53.76709345
 H    -30.95322927    -67.18030031    -53.15176201
 H    -29.72426078    -67.71365021    -51.97982301
 H    -31.65222878    -68.92094119    -50.81998548
 H    -32.74409944    -68.30181610    -52.08203511
 H    -32.17667687    -65.98973796    -51.22043520
 H    -31.11181303    -66.73768618    -50.00597848
 H    -32.88068516    -67.90971569    -48.91999682
 H    -34.07150581    -67.18997685    -50.03003685
 H    -32.98673310    -65.06651912    -48.66818616
 H    -31.99751380    -66.29631039    -47.84518842
 H    -34.05044950    -67.28440975    -46.88956511
 H    -35.02721688    -66.04879207    -47.71868580
 H    -34.24709920    -64.18211504    -46.71439229
 H    -33.12681901    -65.11199683    -45.69040067
 H    -35.59736390    -65.97000173    -44.91706695
 H    -36.21943352    -64.83996649    -46.14357273
 H    -35.04489282    -63.13223713    -44.47639807
 H    -35.88027710    -64.63527077    -43.36357331
 H    -37.14805314    -64.82337236    -43.22739226
 H    -36.69363350    -62.86300706    -43.08412035
 H    -36.05028806    -62.40996724    -42.07506605
 H    -36.08466042    -64.08223631    -41.46629567
 H    -38.66047432    -63.68528885    -41.50428002
 H    -37.80458937    -61.86207290    -41.06000046
 H    -37.04843776    -61.59403356    -40.00196655
 H    -38.69799554    -62.72103302    -39.47499408
 H    -39.95773268    -62.36592401    -39.58501725
 H    -39.37172460    -60.80254535    -40.20203293
 H    -38.24638168    -59.82111041    -38.83556994
 H    -38.42880023    -61.08377885    -37.59433726
 H    -39.95886984    -60.17597000    -36.61158027
 H    -39.95317787    -60.15524869    -36.61313850
 H    -40.60489325    -58.17953364    -37.02692321
 H    -39.07125536    -59.19508293    -36.12857894
 H    -41.96788976    -59.10772687    -35.88628239
 H    -41.15111500    -57.25542017    -36.29467301
 H    -41.83853001    -56.47395285    -35.33002603
 H    -40.64348426    -57.72943387    -34.29534348
 H    -43.11193728    -57.71952882    -34.56312022
 H    -42.19897535    -57.10440815    -33.32557650
 H    -42.11742439    -58.84516758    -33.42300576
 H    -43.80126231    -58.47859517    -33.86863026
 H    -43.05566607    -57.67230771    -32.46782569
