1502
Step 0 E=        43.5105
 C      0.00000000      0.00000000      0.00000000
 C      1.54000000      0.00000000      0.00000000
 C      2.16637443      0.52019975      1.30715236
 C      3.69904070      0.66084876      1.25469335
 C      4.19511508      1.75332859      0.28929289
 C      5.72838159      1.88028439      0.22164661
 C      6.25308135      2.42712178     -1.11897229
 C      7.74657962      2.80227231     -1.10094487
 C      8.49230297      2.46749632     -2.40609687
 C     10.00572841      2.74720853     -2.35220343
 C     10.71572301      2.61637208     -3.71249365
 C     12.09495993      3.29922584     -3.76741429
 C     12.66477091      3.44648193     -5.19052044
 C     14.09306306      4.02042862     -5.23706856
 C     14.79083382      3.85414668     -6.59981076
 C     16.28993074      4.20632174     -6.58304381
 C     17.01086409      3.94010109     -7.91757807
 C     18.43513788      4.52167286     -7.98699297
 C     19.13507450      4.30449676     -9.34143872
 C     20.51558915      4.97855947     -9.44829732
 C     21.14496344      4.89816654    -10.85151682
 C     22.53773027      5.54763534    -10.95147103
 C     23.05187643      5.70826600    -12.39419467
 C     24.37247912      6.49271918    -12.50483720
 C     24.96885509      6.51817880    -13.92444542
 C     26.39542746      7.09403472    -13.99431122
 C     26.89852563      7.34894641    -15.42731934
 C     28.43276321      7.35897418    -15.56003897
 C     28.93571022      7.59623245    -16.99612838
 C     30.45841778      7.80125058    -17.10067143
 C     30.96063041      8.04432850    -18.53604441
 C     32.48112482      8.26612928    -18.63851969
 C     32.92307359      8.99218078    -19.92270445
 C     34.43031643      8.88053715    -20.21826280
 C     34.83809935      9.41430644    -21.60404901
 C     36.36002241      9.53592955    -21.80543918
 C     36.76471117     10.39158228    -23.02021711
 C     38.25177757     10.79151421    -23.03718706
 C     38.71530436     11.42368899    -24.36274278
 C     40.08477585     12.12295952    -24.27807542
 C     40.69403302     12.47509134    -25.64789617
 C     41.83824764     13.50348816    -25.57881006
 C     42.50554620     13.79024587    -26.93678011
 C     43.52219284     14.94649592    -26.90338185
 C     44.84252080     14.64097214    -27.63481148
 C     45.90823729     15.74322394    -27.49028012
 C     47.31097749     15.32484283    -27.96869120
 C     48.36605586     16.44214983    -27.86851780
 C     49.78686855     15.99931058    -28.26447828
 C     50.82156652     17.13992408    -28.26350098
 C     52.22948732     16.70805443    -27.81311488
 C     53.17783311     17.88280422    -27.50946510
 C     54.61962985     17.45451347    -27.17872475
 C     55.64145728     18.60570513    -27.22591004
 C     57.10672061     18.14807864    -27.10269736
 C     58.11483205     19.30440385    -26.96770353
 C     59.53326611     18.85555714    -26.56998321
 C     60.56114590     20.00112364    -26.51763315
 C     62.00906377     19.53316832    -26.28066975
 C     63.05624590     20.65712992    -26.38892821
 C     64.47195710     20.23858160    -25.95054582
 C     65.46213331     21.41165041    -25.82782406
 C     66.93939093     21.00249573    -25.97581854
 C     67.91637355     22.19171008    -26.02943017
 C     69.40122034     21.78333076    -26.02192555
 C     70.37439036     22.96300192    -25.84049768
 C     71.81169883     22.66680301    -26.30741368
 C     72.76897944     22.26330112    -25.17057593
 C     74.18977970     21.90607590    -25.64525137
 C     75.09496189     21.33476772    -24.53806929
 C     76.13968920     20.32241624    -25.04333090
 C     77.02329738     19.72659811    -23.93164869
 C     77.78361203     18.45442707    -24.35010119
 C     78.04282905     17.47078859    -23.19387375
 C     78.98880565     16.31141481    -23.55799007
 C     80.14399250     16.10852880    -22.56000178
 C     80.77266902     14.70347462    -22.60678395
 C     81.82013534     14.44899887    -21.50694013
 C     82.47176421     13.05522002    -21.57297278
 C     83.61433639     12.84937957    -20.56116325
 C     84.21506862     11.43144471    -20.57463579
 C     85.19531733     11.15547048    -19.41940824
 C     86.09302728      9.92384807    -19.64036769
 C     87.03780527      9.61809972    -18.46328975
 C     87.66485903      8.21239392    -18.51222634
 C     87.80445748      7.54045659    -17.13359931
 C     87.51700925      6.02754556    -17.14218572
 C     87.67206134      5.35268956    -15.76663920
 C     87.55543723      3.81760019    -15.80536186
 C     87.89102731      3.13001355    -14.46887247
 C     87.50380959      1.64041875    -14.41624387
 C     87.40563936      1.06877099    -12.98964601
 C     87.09438904     -0.43859397    -12.93891041
 C     86.98152124     -1.00720259    -11.51218510
 C     86.64960999     -2.51014902    -11.46132301
 C     86.62566664     -3.09852285    -10.03835324
 C     86.61637357     -4.63794334     -9.99714408
 C     86.47670838     -5.22579124     -8.58062423
 C     85.96688044     -6.67868647     -8.55285901
 C     85.26372064     -7.07078364     -7.24006576
 C     84.91337894     -8.56705017     -7.13983022
 C     84.22450640     -8.96204450     -5.82034770
 C     83.79096931    -10.43842780     -5.75759446
 C     82.91100916    -10.78169445     -4.54127290
 C     82.62039279    -12.28571132     -4.38292089
 C     81.78466211    -12.63444072     -3.13731179
 C     81.65225182    -14.14614217     -2.87496421
 C     80.79670532    -14.49551495     -1.64306371
 C     80.49278139    -15.99817033     -1.49726567
 C     79.66253607    -16.35108917     -0.24917072
 C     79.29136075    -17.84204039     -0.14479944
 C     79.51965782    -18.44804593      1.25242557
 C     79.04162476    -19.90561374      1.38873576
 C     79.09970733    -20.45191858      2.82740786
 C     78.23955706    -21.70881383      3.05534611
 C     78.14043910    -22.14098961      4.53013414
 C     77.36279906    -23.45230737      4.74766964
 C     77.08247499    -23.77629092      6.22687655
 C     76.09197532    -24.93659069      6.43714983
 C     75.70089996    -25.16742319      7.90867163
 C     74.58735241    -26.21306609      8.10422922
 C     74.02079065    -26.26458184      9.53529661
 C     73.22565806    -27.54571677      9.84843790
 C     72.75516249    -27.64911970     11.31115515
 C     72.12152922    -29.00584075     11.67090071
 C     71.09064210    -28.93263876     12.81261574
 C     70.61268578    -30.30801105     13.31412232
 C     69.54243278    -30.23455969     14.41900394
 C     69.04058844    -31.60967190     14.89735389
 C     67.83671885    -31.53864482     15.85508724
 C     66.90383568    -32.76165016     15.78034143
 C     65.62058397    -32.62287683     16.62034559
 C     64.58736895    -33.73805973     16.37451266
 C     63.19446300    -33.44173845     16.96069243
 C     62.06023855    -34.27106371     16.33033181
 C     60.65708104    -33.91389966     16.85491054
 C     59.50663401    -34.47870416     16.00105603
 C     58.10673129    -34.22869357     16.59212886
 C     56.95475078    -34.47672518     15.60065459
 C     55.55959525    -34.15655047     16.16865916
 C     54.39652054    -34.63727756     15.28110145
 C     53.00143033    -34.34444831     15.86383152
 C     51.88720839    -34.25130623     14.80485370
 C     50.47608804    -34.07082028     15.39456904
 C     49.47454335    -33.40776774     14.43079024
 C     48.03242424    -33.35041332     14.96800802
 C     46.95827164    -33.24829311     13.86920519
 C     45.60897031    -32.69314681     14.36195108
 C     44.50350382    -32.69077949     13.28978587
 C     43.14887101    -32.15378429     13.78798874
 C     42.22330194    -31.65031404     12.66485046
 C     40.86803344    -31.11479639     13.16291486
 C     39.97465751    -30.53829700     12.04885566
 C     38.64308333    -29.95235589     12.55401229
 C     37.65737447    -29.57836910     11.43146522
 C     36.17857984    -29.61000733     11.86014397
 C     35.20979092    -29.03370139     10.81089686
 C     33.72742788    -29.10223781     11.22260380
 C     32.78277433    -28.31521765     10.29533419
 C     31.30619666    -28.34798715     10.73150449
 C     30.35782445    -27.58261366      9.79001972
 C     28.92950214    -27.41468100     10.34074107
 C     27.97926641    -26.65533340      9.39626064
 C     26.62439891    -26.29081533     10.03113119
 C     25.61345170    -25.68049256      9.04265162
 C     24.18096945    -25.57366526      9.59779353
 C     23.15614255    -25.02817966      8.58597571
 C     21.73053384    -24.88906645      9.15156152
 C     20.65122802    -24.65342419      8.07863483
 C     19.24409288    -24.39994821      8.65075423
 C     18.11954636    -24.46723578      7.60076969
 C     16.87657645    -23.63192894      7.95977984
 C     15.83150318    -23.54744551      6.83182398
 C     14.68571705    -22.55746349      7.11237655
 C     13.49628867    -22.68485652      6.14251515
 C     12.42365743    -21.59420729      6.32012846
 C     11.71321207    -21.19564167      5.01321881
 C     10.79392584    -19.96764391      5.14935960
 C     10.25428799    -19.43739241      3.80800792
 C      9.27577071    -18.25665460      3.94929549
 C      9.38732002    -17.21246139      2.82287759
 C      8.68691246    -15.87697939      3.13515480
 C      8.63895398    -14.90142713      1.94452565
 C      7.98794929    -13.54479211      2.27214481
 C      8.10701771    -12.50401806      1.14333478
 C      7.16546671    -11.29592937      1.30334555
 C      7.35749880    -10.20596708      0.23250201
 C      6.39515246     -9.01207685      0.37433162
 C      6.26111253     -8.16055872     -0.90181499
 C      5.77628801     -6.72134602     -0.64644862
 C      5.38620580     -5.95575040     -1.92445458
 C      5.85731635     -4.48972146     -1.94480122
 C      5.58344102     -3.76218224     -3.27419168
 C      6.16492907     -2.33770387     -3.34001732
 C      6.13094181     -1.71165733     -4.74661271
 C      6.61808756     -0.25151476     -4.79428539
 C      6.83412349      0.29051006     -6.21946523
 C      8.07333546      1.19313010     -6.36517305
 C      8.66781034      1.21635857     -7.78561666
 C     10.07281751      1.84167235     -7.86647173
 C     10.83274763      1.50904135     -9.16395500
 C     12.26514341      2.07246526     -9.21290220
 C     13.07283434      1.62408752    -10.44505185
 C     14.58342892      1.90446824    -10.33973961
 C     15.32249955      1.87029555    -11.69037162
 C     16.71466017      2.52796594    -11.65941276
 C     17.51737644      2.35682826    -12.96247012
 C     18.97067187      2.85841599    -12.87335148
 C     19.81436517      2.55969625    -14.12656660
 C     20.81892330      3.67061435    -14.48478988
 C     21.64299600      3.38451023    -15.75390320
 C     22.54711425      4.55234423    -16.19017597
 C     23.53000629      4.19508986    -17.32061506
 C     24.55419596      5.30185674    -17.63318923
 C     25.39252123      5.04035727    -18.89826977
 C     25.99977056      6.31118218    -19.52104766
 C     27.08962833      6.03386563    -20.57314346
 C     27.68764942      7.30438591    -21.20540052
 C     28.68050834      7.02696230    -22.34945791
 C     29.33493935      8.29353071    -22.93180188
 C     30.28724264      8.02092520    -24.11095611
 C     30.93823050      9.28793878    -24.69618374
 C     32.04840627      9.00369269    -25.72492759
 C     32.89176693     10.23836270    -26.09361819
 C     34.18360088      9.90725211    -26.86376806
 C     35.11826189     11.11413116    -27.06736509
 C     36.30596858     10.83505573    -28.00708300
 C     37.29851912     12.00641051    -28.12696370
 C     38.25778374     11.89431705    -29.32648297
 C     39.16617708     13.12287504    -29.51901038
 C     40.35318544     12.88134425    -30.46994363
 C     41.26955363     14.10565202    -30.65143686
 C     42.67201519     13.76425179    -31.18823055
 C     43.64898617     14.95468242    -31.18984323
 C     44.84267988     14.78404478    -32.14774622
 C     45.99987427     15.76632467    -31.88769367
 C     47.36950488     15.26595519    -32.38301416
 C     48.49746510     16.30763379    -32.26380238
 C     49.89791644     15.75410047    -32.58619486
 C     51.02361139     16.80004346    -32.48414504
 C     52.39157852     16.21171174    -32.09154892
 C     53.45884042     17.27242301    -31.76376294
 C     54.82098519     16.68392184    -31.35166101
 C     55.99671611     17.66876229    -31.49075123
 C     57.33013317     17.13479657    -30.93534186
 C     58.57273428     17.85988267    -31.48469842
 C     59.90913053     17.26040732    -31.00901537
 C     61.06558845     18.27568937    -30.95064214
 C     62.42840287     17.65301356    -30.59481677
 C     63.56199112     18.68157860    -30.42560795
 C     64.84424241     18.10312174    -29.79885496
 C     66.02000291     19.09642365    -29.74847067
 C     67.37749877     18.44436374    -29.42656563
 C     68.59088516     19.34588365    -29.72076850
 C     69.90730296     18.57514161    -29.93195769
 C     71.13335769     19.47939354    -30.15716485
 C     72.46412974     18.85670293    -29.69575164
 C     73.61335919     19.87144787    -29.55027177
 C     74.88429752     19.28996057    -28.90359698
 C     76.08892761     20.24927856    -28.91683811
 C     77.45175543     19.54537171    -28.77966859
 C     78.63426234     20.50720209    -28.56021531
 C     79.98534455     19.80004275    -28.34550030
 C     81.12795231     20.74519972    -27.92989737
 C     82.34979695     20.02490631    -27.33000314
 C     83.63455688     20.87395169    -27.31933229
 C     84.77026055     20.28080688    -26.46495743
 C     86.17993330     20.71223072    -26.91026206
 C     87.31684973     20.09763796    -26.07282743
 C     88.72105794     20.31835673    -26.66534962
 C     89.82640980     19.49250559    -25.98141456
 C     91.21136966     19.63268769    -26.64007622
 C     92.27662148     18.67920121    -26.06762351
 C     93.41514253     18.34926395    -27.05073653
 C     94.24571220     17.11412297    -26.65553938
 C     93.40024480     15.91090607    -26.19831518
 C     94.09896991     15.01243444    -25.16094738
 C     93.17705476     13.95469846    -24.52622929
 C     93.90660856     12.96021658    -23.60408123
 C     92.96948932     11.98216425    -22.87140041
 C     93.69843193     10.81359889    -22.18241733
 C     92.77340616      9.89342312    -21.36436851
 C     93.51964600      8.94866919    -20.40407370
 C     92.59251890      8.08406104    -19.52972361
 C     93.33756007      7.09122952    -18.61824174
 C     92.43557176      6.39207304    -17.58422176
 C     93.20894302      5.65703468    -16.47371940
 C     92.31506332      5.10633484    -15.34708336
 C     93.07262678      4.27154647    -14.29788081
 C     92.18465135      3.74840665    -13.15358000
 C     92.67782276      2.42896892    -12.53111230
 C     91.64960071      1.74903775    -11.60804511
 C     92.18505514      0.49698566    -10.88884130
 C     91.25452989     -0.03668667     -9.78389035
 C     91.64763544     -1.42721593     -9.25144656
 C     90.53313731     -2.13109262     -8.45517305
 C     91.02409510     -3.31838651     -7.60611846
 C     89.92384611     -4.33927267     -7.26138145
 C     90.40620031     -5.50638940     -6.38003421
 C     89.35669109     -6.61546992     -6.17985730
 C     89.82413893     -7.76235567     -5.26457287
 C     88.79903810     -8.90181865     -5.11493202
 C     89.16094913     -9.93125004     -4.02824373
 C     88.18139523    -11.11602570     -3.93669703
 C     88.35281753    -11.97400727     -2.66938412
 C     87.26472629    -13.04871082     -2.48863642
 C     87.31552377    -13.76893324     -1.12837936
 C     86.15059033    -14.74863309     -0.89445996
 C     86.28643196    -15.58822632      0.38937424
 C     85.12573822    -16.57398243      0.61888441
 C     85.45323055    -17.70780312      1.60822733
 C     84.27768097    -18.66659612      1.87355571
 C     84.58901850    -19.76980149      2.90195586
 C     83.37125872    -20.63151205      3.28420710
 C     83.72941460    -21.91355674      4.05860092
 C     82.51822596    -22.61895700      4.69659194
 C     82.85900655    -23.95988072      5.37289969
 C     81.73407084    -24.51441705      6.26654901
 C     82.16542566    -25.69498211      7.15637998
 C     80.99838726    -26.39560338      7.87662382
 C     80.03112737    -27.13259464      6.93171527
 C     78.87110104    -27.84373004      7.65298177
 C     78.01459772    -28.73480081      6.73428979
 C     76.86496255    -29.45932823      7.45885793
 C     76.01731023    -30.36165830      6.54295072
 C     74.98827649    -31.22664154      7.29427858
 C     74.12471417    -32.11173862      6.37642059
 C     73.27080310    -33.14899350      7.12910791
 C     72.03251707    -33.62644353      6.34789784
 C     70.97822052    -34.33584840      7.21784239
 C     69.77320128    -34.87619494      6.42565918
 C     68.65318264    -35.45765438      7.30830473
 C     67.33263293    -35.71199590      6.55793224
 C     66.21134851    -36.28960296      7.44149962
 C     64.83187339    -36.32731992      6.75796044
 C     63.66274687    -36.60374419      7.72146073
 C     62.28303848    -36.63924659      7.03827383
 C     61.10126975    -36.75465924      8.01893819
 C     59.71858723    -36.66064285      7.34741011
 C     58.53675901    -36.80691025      8.32387717
 C     57.16204741    -36.89254866      7.63508543
 C     55.99048950    -36.41582041      8.51359680
 C     54.76875853    -35.92396983      7.71543864
 C     53.49665299    -35.74454806      8.56464729
 C     52.43442276    -34.83654957      7.91749533
 C     51.18022214    -34.62297609      8.78523215
 C     50.22272521    -33.54345473      8.24724213
 C     48.86984035    -33.48438007      8.98059931
 C     47.97044151    -32.31361284      8.54243746
 C     46.48919460    -32.48328027      8.92808049
 C     45.63818504    -31.21712767      8.71774664
 C     44.13773107    -31.41665691      9.00134137
 C     43.29356454    -30.13942728      8.83500636
 C     41.80078997    -30.40582111      8.56619712
 C     40.98755023    -29.13963629      8.23906240
 C     39.50401554    -29.41112062      7.92758032
 C     38.62600000    -28.14606032      7.90994153
 C     37.18348069    -28.39142949      7.42980404
 C     36.35553379    -27.10530213      7.25097352
 C     34.92432163    -27.34811147      6.73689632
 C     33.95311737    -26.18587732      7.01541755
 C     32.52673695    -26.42059716      6.48443215
 C     31.59779584    -25.20024297      6.62373062
 C     30.13346982    -25.48041814      6.23791823
 C     29.22466415    -24.23805205      6.28480901
 C     27.80132994    -24.48262169      5.75010775
 C     26.88761169    -23.24452442      5.81202798
 C     25.52039184    -23.44035753      5.13088242
 C     24.47684866    -22.37025552      5.50169146
 C     23.02669791    -22.76769625      5.16896988
 C     22.02729280    -21.59751622      5.22786068
 C     20.58202133    -21.98944622      4.86844272
 C     19.54730889    -20.88075861      5.13636427
 C     18.14467293    -21.18482430      4.57801277
 C     17.13886996    -20.03123315      4.74885730
 C     15.79377309    -20.26216404      4.03542522
 C     14.90222390    -19.00883497      3.95857280
 C     13.93939506    -18.99779045      2.75672478
 C     13.95259697    -17.68262436      1.95562313
 C     12.96950689    -17.66122984      0.77043279
 C     13.00000109    -16.35530214     -0.04517922
 C     11.64121647    -15.96723491     -0.65731333
 C     11.68908926    -14.70617775     -1.53994749
 C     10.35123525    -14.36947063     -2.22432674
 C     10.17711390    -12.87635610     -2.55882750
 C      8.79083640    -12.51914719     -3.12648627
 C      8.69363486    -11.08852592     -3.68815758
 C      7.31555233    -10.74065049     -4.28100768
 C      7.24673273     -9.34553945     -4.92948978
 C      5.81329360     -8.83696091     -5.17073681
 C      5.74195833     -7.51257602     -5.95337079
 C      4.32221946     -6.92642853     -6.06460323
 C      4.25768913     -5.57749945     -6.80475603
 C      3.12245241     -4.65379155     -6.32558871
 C      3.29335435     -3.18189476     -6.74500781
 C      2.05955571     -2.30366890     -6.46561513
 C      2.26554569     -0.81251461     -6.79061820
 C      1.22181462      0.11891164     -6.14666897
 C      1.56733253      0.54735600     -4.70838777
 C      0.87233429      1.84552535     -4.25746230
 C      1.40497492      2.41201096     -2.92818129
 C      0.47843141      3.45473613     -2.27561609
 C      0.99644534      3.99879873     -0.93127333
 C     -0.04425147      4.81606821     -0.14347847
 C     -1.27682464      4.00380215      0.29536916
 C     -2.26042782      4.78851461      1.18326056
 C     -3.49703784      3.97878756      1.61539222
 C     -4.21337711      4.54363619      2.85611946
 C     -5.54049979      3.83690624      3.18910318
 C     -6.09042923      4.16460863      4.58974188
 C     -7.43229676      3.48091748      4.91154605
 C     -7.30612474      2.26042076      5.84217400
 C     -8.64514848      1.56273236      6.14523556
 C     -8.49498691      0.16726625      6.77905403
 C     -9.80023879     -0.64931765      6.81234454
 C     -9.66225240     -2.02337630      7.49390347
 C    -11.00342247     -2.74152103      7.73292442
 C    -10.94105709     -3.84388918      8.80646762
 C    -11.25131724     -5.25515638      8.27386689
 C    -10.66339594     -6.39142855      9.13109154
 C    -10.93466261     -7.80117837      8.57375874
 C    -10.27993493     -8.93303275      9.38729257
 C    -10.25913168    -10.29273429      8.66453470
 C     -9.26299933    -11.30419887      9.26140969
 C     -9.09803392    -12.58790087      8.42684657
 C     -8.21565086    -13.65948474      9.09371097
 C     -7.90303942    -14.86553979      8.18855610
 C     -6.92670065    -15.88023150      8.81206499
 C     -6.75028969    -17.16832985      7.98666701
 C     -5.87891390    -18.23713902      8.67219687
 C     -5.25212917    -19.25284540      7.69901577
 C     -4.38211495    -20.32265561      8.38471348
 C     -3.33116698    -20.96302252      7.45894969
 C     -2.21457160    -21.71624888      8.20558535
 C     -1.25747190    -22.49308370      7.28249932
 C      0.03454682    -22.96548320      7.97468885
 C      1.15422455    -23.37402557      6.99948892
 C      2.39094669    -23.98343911      7.68558913
 C      3.50369570    -24.40750785      6.70908754
 C      4.85769672    -24.68922641      7.38652085
 C      5.97019412    -25.11422339      6.41013613
 C      7.37347911    -25.16352935      7.04256017
 C      8.42990905    -25.86528409      6.16900648
 C      9.71557832    -26.24677912      6.92605077
 C     10.88799967    -26.64296069      6.00949835
 C     12.22492900    -26.83370192      6.74965899
 C     13.37584499    -27.31918494      5.84893783
 C     14.63771716    -27.74712636      6.62104195
 C     15.84034164    -28.08199618      5.71929001
 C     17.09316603    -28.53832672      6.48986997
 C     18.32660207    -28.77207484      5.59790734
 C     19.66691554    -28.45477192      6.28673144
 C     20.87490296    -28.44392266      5.33161432
 C     22.20911327    -28.08758781      6.01316280
 C     23.45409478    -28.47199414      5.19227742
 C     24.77433943    -28.38924676      5.98076136
 C     25.99441679    -28.93941765      5.21897187
 C     27.32830785    -28.77600820      5.97105697
 C     28.41966161    -29.77083936      5.53418408
 C     29.72740385    -29.65963050      6.33981603
 C     30.81172552    -30.66779450      5.91619844
 C     32.17659588    -30.44073327      6.59234348
 C     33.23819870    -31.49600618      6.23040628
 C     34.65817324    -31.14743667      6.71390561
 C     35.66168732    -32.31000576      6.59992059
 C     36.75316558    -32.30410061      7.68630926
 C     37.88379018    -33.32119974      7.44382752
 C     38.86616707    -33.45841648      8.62183737
 C     39.96059139    -34.51980701      8.40438495
 C     40.95338360    -34.64476999      9.57500354
 C     42.19802839    -35.49255678      9.25295245
 C     43.40575145    -35.20322424     10.16360699
 C     44.56990981    -36.19711130      9.99471703
 C     45.71365520    -35.99997543     11.00693437
 C     46.92209013    -36.92592969     10.77478417
 C     48.09670499    -36.67646383     11.73896606
 C     49.27321324    -37.65372278     11.55898477
 C     50.48326214    -37.35032247     12.46194099
 C     51.71731308    -38.22412974     12.17008634
 C     52.68131309    -38.36498246     13.36275750
 C     54.09415934    -38.83835656     12.97367858
 C     54.98993192    -37.72718792     12.39532252
 C     56.49858156    -37.99398378     12.55151550
 C     57.39462675    -36.90923012     11.92540648
 C     58.89033388    -37.06347470     12.25807567
 C     59.72528779    -35.79739049     11.99071313
 C     61.22787652    -35.96453576     12.28378236
 C     62.09518620    -34.78768526     11.79963690
 C     63.59645564    -34.95002674     12.10201966
 C     64.50602404    -34.02383224     11.27349745
 C     64.03420384    -32.55855752     11.22927416
 C     64.58362476    -31.75943078     10.03297440
 C     64.63346595    -32.55716947      8.71664282
 C     65.32621145    -31.81370791      7.55950472
 C     66.83437361    -31.58774779      7.77395501
 C     67.50821102    -30.76158420      6.66265088
 C     69.04489443    -30.72221607      6.75567912
 C     69.70106930    -29.67129633      5.84101949
 C     71.24045106    -29.71492703      5.84062005
 C     71.88723674    -29.01472511      7.05015944
 H     -0.36333333      0.00000000      1.02766186
 H     -0.36333333     -0.88998127     -0.51383093
 H     -0.36333333      0.88998127     -0.51383093
 H      1.88274777      1.00440670      0.24857826
 H      1.88274777      1.00428488      0.24906995
 H      1.62962592      0.07548087      2.14514171
 H      2.84498748      1.33683023      1.06078072
 H      4.01475002      0.58526394      0.21415764
 H      3.95452951      1.70236436      1.44981059
 H      3.57915396      2.64137120      0.43096938
 H      4.89542802      1.29907519     -0.41164622
 H      6.15298022      0.87815724      0.16200454
 H      5.97521804      2.90080276     -0.07112296
 H      5.63103365      3.27320294     -1.41103965
 H      7.14515929      1.86402552     -1.39323410
 H      8.29365384      2.00699132     -0.59464660
 H      7.95400803      3.42528037     -1.97096465
 H      7.87072899      2.77899911     -3.24556801
 H      8.64422842      1.38891332     -2.44705264
 H     10.38989974      2.37282107     -1.40333756
 H     10.24594041      3.48251809     -3.12013444
 H     10.10483047      3.11192631     -4.46703743
 H     10.80219884      1.55686885     -3.95348087
 H     12.63593093      3.05303127     -2.85371926
 H     11.94189573      4.37715383     -3.81978409
 H     11.86629262      3.79612664     -5.84495226
 H     13.00679106      2.46734238     -5.52579339
 H     14.68710462      3.52401347     -4.46974424
 H     14.04072582      5.08775308     -5.02217482
 H     14.08041247      4.11834209     -7.38313847
 H     15.08200625      2.80961570     -6.71059717
 H     16.73649715      3.76186031     -5.69358753
 H     16.38668562      5.29095037     -6.53488542
 H     16.38155236      4.31030493     -8.72690857
 H     17.14584925      2.86388782     -8.02548542
 H     18.94280554      4.29797402     -7.04873268
 H     18.35860997      5.60199013     -8.11011113
 H     18.42340715      4.53131676    -10.13527892
 H     19.43363455      3.25836974     -9.40911560
 H     21.06245067      4.78801086     -8.52486150
 H     20.36485364      6.05159777     -9.56648195
 H     20.37489792      5.13250042    -11.58649078
 H     21.50055111      3.88003768    -11.00985517
 H     23.12145450      5.24221349    -10.08309121
 H     22.41245573      6.63037535    -10.94250616
 H     22.23624280      6.09015046    -13.00820285
 H     23.35467051      4.72763872    -12.76132663
 H     25.05026398      6.13379651    -11.73031657
 H     24.15872138      7.54872568    -12.33973752
 H     24.16372435      6.72023593    -14.63087123
 H     25.39822844      5.53835527    -14.13345347
 H     26.97667095      6.67006560    -13.17546680
 H     26.33463453      8.17574882    -13.87473352
 H     26.09818003      7.82778825    -15.99146240
 H     27.13903836      6.38802014    -15.88215374
 H     28.83135565      6.51778909    -14.99291312
 H     28.80719960      8.29165352    -15.13813065
 H     28.35381433      8.40756984    -17.43342556
 H     28.77566571      6.68375874    -17.57047800
 H     30.94853289      7.05368745    -16.47694349
 H     30.69645691      8.79767386    -16.72841074
 H     30.28904763      8.75448748    -19.01848693
 H     31.75067580      7.32429041    -18.74928944
 H     32.97861523      7.52388292    -18.01428126
 H     32.70767756      9.26503811    -18.26575301
 H     32.24584871      9.82897939    -20.09368560
 H     32.85187536      8.29133373    -20.75447619
 H     34.73632627      7.84745122    -20.05336457
 H     34.96436361      9.53242483    -19.52693360
 H     34.32744199     10.36290880    -21.76982791
 H     34.51872019      8.69336700    -22.35660684
 H     36.83025288      8.63175250    -21.41885522
 H     36.71263548     10.39884873    -21.24051925
 H     36.14889824     11.29093550    -23.02639939
 H     36.57386273      9.81433044    -23.92490335
 H     38.84533691      9.91536371    -22.77613611
 H     38.40578018     11.57037947    -22.29035904
 H     37.96197098     12.14448622    -24.68061093
 H     38.79936803     10.63322177    -25.10852753
 H     40.76596154     11.47671065    -23.72449756
 H     39.95729921     13.06229905    -23.74003179
 H     39.90990167     12.90420493    -26.27167462
 H     41.06099679     11.55667673    -26.10610157
 H     42.49547761     13.23004495    -24.75335408
 H     41.40536972     14.48559479    -25.38859108
 H     41.72220362     13.90833555    -27.68546511
 H     43.13197096     12.93726538    -27.19777111
 H     44.14215117     14.83220838    -26.01417433
 H     42.97163714     15.88537319    -26.84423904
 H     44.60521209     14.16217905    -28.58483346
 H     45.42530156     13.95640182    -27.01850793
 H     45.93317651     16.06131350    -26.44802436
 H     45.61884061     16.58447617    -28.12007712
 H     47.20686131     14.80012334    -28.91839077
 H     47.73949356     14.65130133    -27.22652152
 H     48.25307286     16.93466469    -26.90272074
 H     48.18095923     17.16091987    -28.66677144
 H     49.71920326     15.40510128    -29.17576128
 H     50.19133838     15.38548048    -27.45966975
 H     50.67635664     17.73363782    -27.36099443
 H     50.64574203     17.76293429    -29.14045252
 H     52.47134359     15.76438417    -28.30208522
 H     52.21464129     16.56412875    -26.73276078
 H     52.63078644     18.62271163    -26.92519036
 H     53.48944700     18.32514004    -28.45568697
 H     54.92318901     16.69094300    -27.89490350
 H     54.63016744     17.03415125    -26.17309830
 H     55.20868383     19.46906949    -26.72052986
 H     55.83082534     18.85331482    -28.27038559
 H     57.24892634     17.27757258    -27.74308531
 H     57.29295004     17.87026888    -26.06527732
 H     57.71588302     20.02539062    -26.25417865
 H     58.22351258     19.77992479    -27.94246933
 H     59.79581723     17.98136882    -27.16576983
 H     59.52397190     18.58602442    -25.51387444
 H     60.10373295     20.84900567    -26.00776115
 H     60.81151569     20.28395943    -27.54009043
 H     62.19915245     18.67021343    -26.91885087
 H     62.10803346     19.24080314    -25.23528579
 H     62.67966490     21.52910809    -25.85419386
 H     63.18547878     20.90486297    -27.44250649
 H     64.68837800     19.26019771    -26.37952946
 H     64.48767680     20.16991801    -24.86282426
 H     64.96082372     22.23083011    -25.31233078
 H     65.74138435     21.73093787    -26.83190294
 H     67.02217230     20.31614066    -26.81853081
 H     67.24758138     20.49461048    -25.06194152
 H     67.63174719     22.90429006    -25.25527411
 H     67.82829142     22.66380936    -27.00793097
 H     69.53110880     20.95039768    -26.71290418
 H     69.66355620     21.46319796    -25.01356307
 H     69.99036893     23.60536275    -25.04803310
 H     70.41280053     23.52250101    -26.77515560
 H     71.76128025     22.15554796    -27.26875453
 H     72.08813772     21.67263925    -25.95624427
 H     72.25545868     21.54849857    -24.52757225
 H     73.01534447     23.15662389    -24.59666068
 H     74.50585462     22.65311217    -26.37335401
 H     74.15582236     20.92618307    -26.12144141
 H     74.52013677     20.60491492    -23.96798949
 H     75.39389911     22.15334678    -23.88334426
 H     76.58995044     20.71970630    -25.95301515
 H     75.62866830     19.38660018    -25.26961820
 H     76.38334864     19.46249528    -23.08973700
 H     77.73975411     20.48629031    -23.61914667
 H     78.20585022     18.61800177    -25.34159412
 H     77.07377564     17.62817186    -24.38927560
 H     77.12772815     17.38108652    -22.60851584
 H     78.83608247     17.87921282    -22.56774385
 H     79.83229431     16.71930900    -24.11499026
 H     78.44318544     15.60874969    -24.18779981
 H     79.73981178     16.17445857    -21.54985763
 H     80.87253394     16.90481035    -22.71252416
 H     80.91051259     14.42426477    -23.65136090
 H     80.08476306     14.00418762    -22.13151237
 H     81.42695329     14.82999133    -20.56441553
 H     82.72908408     14.99138283    -21.76719351
 H     82.72236218     12.84291638    -22.61231287
 H     81.74875073     12.32159331    -21.21640110
 H     83.29512208     13.24756642    -19.59801764
 H     84.48622879     13.40166705    -20.91170880
 H     84.35593809     11.12873152    -21.61223905
 H     83.50935792     10.75561501    -20.09159683
 H     84.75928914     11.54495427    -18.49947249
 H     86.12828659     11.67859736    -19.62918580
 H     86.46440123      9.94976326    -20.66482354
 H     85.48834665      9.02857461    -19.49563767
 H     86.47159701      9.71026273    -17.53645957
 H     87.84378203     10.35188393    -18.47117727
 H     87.99874911      8.02134686    -19.53208831
 H     86.89967988      7.48603810    -18.23835031
 H     86.87777663      7.69587939    -16.58114448
 H     88.62849838      8.01650183    -16.60215079
 H     88.01608900      5.58874075    -18.00617053
 H     86.44033591      5.88373905    -17.23270761
 H     87.19451492      5.98553554    -15.01860485
 H     88.73580855      5.26728544    -15.54472025
 H     88.13638120      3.45096777    -16.65163886
 H     86.50626630      3.55697879    -15.94470623
 H     87.40530019      3.68513776    -13.66637245
 H     88.97164673      3.16066066    -14.32950814
 H     87.81054696      1.17327332    -15.35207897
 H     86.42087551      1.57121132    -14.31346196
 H     86.86733695      1.78552363    -12.36948783
 H     88.41610957      0.93961162    -12.60187312
 H     87.71814326     -0.94241170    -13.67728590
 H     86.04398038     -0.58042382    -13.19312674
 H     86.38789924     -0.31611633    -10.91375992
 H     87.98475673     -1.08183665    -11.09260400
 H     87.27006481     -3.02323397    -12.19608804
 H     85.59862583     -2.63801869    -11.72051724
 H     86.08608106     -2.40746331     -9.39075451
 H     87.65399247     -3.19508524     -9.69004061
 H     87.34788083     -5.00451406    -10.71729894
 H     85.62217423     -4.98243671    -10.28173498
 H     85.70096594     -4.67005657     -8.05385801
 H     87.42776643     -5.10173674     -8.06274483
 H     86.49918896     -7.24339959     -9.31826527
 H     84.90110806     -6.67236391     -8.78130868
 H     84.59206421     -6.26073604     -6.95581145
 H     86.02373975     -7.19991525     -6.46948417
 H     85.77280146     -9.14392962     -7.48144848
 H     84.06160382     -8.76398838     -7.79082522
 H     83.46241953     -8.21606511     -5.59487410
 H     84.97476376     -8.96546740     -5.02965043
 H     84.60598541    -11.05161586     -6.14210605
 H     82.91190539    -10.56467148     -6.38958271
 H     82.16283317     -9.99726917     -4.42721298
 H     83.54602635    -10.80964652     -3.65579459
 H     83.54885065    -12.83315859     -4.54530163
 H     81.89081878    -12.57531130     -5.13919704
 H     80.96592673    -11.91877437     -3.06251852
 H     82.42493014    -12.54707657     -2.25951663
 H     82.63200811    -14.60447610     -3.00952876
 H     80.95430263    -14.56043483     -3.60251387
 H     79.90196878    -13.87319939     -1.65949120
 H     81.37765438    -14.27301330     -0.74802672
 H     81.41098693    -16.55366754     -1.68810964
 H     79.74274562    -16.26980765     -2.24007084
 H     78.85125852    -15.62841553     -0.16158337
 H     80.30978159    -16.27842817      0.62483936
 H     80.17484992    -18.43292715     -0.38645977
 H     78.50494016    -18.05105107     -0.87002850
 H     79.14047142    -17.74717848      1.99613418
 H     80.59147960    -18.58515396      1.39560191
 H     79.36493148    -20.45638472      0.50543281
 H     77.95277356    -19.90596031      1.43876536
 H     78.70158077    -19.69142162      3.49915158
 H     80.14229222    -20.64799678      3.07774780
 H     78.39542343    -22.38750250      2.21678343
 H     77.19285002    -21.40646595      3.08836312
 H     77.96394191    -21.25259099      5.13651408
 H     79.08830298    -22.59535154      4.81859436
 H     77.68950554    -24.17293987      3.99796859
 H     76.30053815    -23.24681205      4.61548255
 H     76.74538958    -22.86430463      6.71957771
 H     78.01144016    -24.11499498      6.68557392
 H     76.35711276    -25.74196777      5.75219005
 H     75.08928815    -24.57759951      6.20510723
 H     75.49765683    -24.19877485      8.36530346
 H     76.54181801    -25.63937895      8.41681984
 H     74.80542678    -27.06943318      7.46612345
 H     73.64045181    -25.76609813      7.80141096
 H     73.86326286    -25.24211208      9.87857579
 H     74.75356826    -26.75432811     10.17661211
 H     73.78309238    -28.39843203      9.46082512
 H     72.26135544    -27.48246793      9.34423552
 H     72.35349685    -26.68127741     11.61123186
 H     73.61718707    -27.89306657     11.93204445
 H     72.74232463    -29.79653836     11.24958096
 H     71.12733864    -29.04851785     11.22608193
 H     70.44822674    -28.06925021     12.63951834
 H     71.62816401    -28.80305850     13.75196613
 H     71.48269052    -30.95651244     13.41726150
 H     69.93352037    -30.72658691     12.57140529
 H     68.80722634    -29.48180288     14.13452428
 H     70.02841542    -29.93509577     15.34757393
 H     69.90334662    -32.26280644     15.02836380
 H     68.38614773    -32.02185898     14.12929845
 H     67.12432995    -30.81597916     15.45714703
 H     68.19242054    -31.20015377     16.82822655
 H     67.51907602    -33.66112217     15.75733220
 H     66.32380774    -32.69454990     14.85992569
 H     65.21177976    -31.62534269     16.45939607
 H     65.88423709    -32.74228500     17.67121605
 H     65.11268019    -34.69282766     16.35071535
 H     64.11377486    -33.55977216     15.40909971
 H     62.93611668    -32.40928216     16.72533912
 H     63.24424641    -33.56628265     18.04240882
 H     62.39780229    -35.30391156     16.24444796
 H     61.85520053    -33.87203439     15.33693611
 H     60.57119796    -32.82792124     16.89199100
 H     60.55324507    -34.32113041     17.86063476
 H     59.73971054    -35.51442241     15.75394668
 H     59.44035155    -33.89255765     15.08446511
 H     58.06068500    -33.19655598     16.93950722
 H     57.96593342    -34.90298791     17.43687918
 H     57.15454428    -35.40698424     15.06886456
 H     56.92993369    -33.65029465     14.89037529
 H     55.61552350    -33.20627820     16.69965317
 H     55.28400409    -34.94710500     16.86663699
 H     54.61906149    -35.64931119     14.94292476
 H     54.32593832    -33.97352696     14.41938614
 H     52.99754726    -33.32427820     16.24767766
 H     52.81855463    -35.04115595     16.68191156
 H     52.01314747    -35.07443976     14.10151129
 H     51.99387257    -33.30331069     14.27757085
 H     50.52837537    -33.32303111     16.18588275
 H     50.15619697    -35.02386260     15.81585283
 H     49.59116299    -33.86425946     13.44787866
 H     49.71080844    -32.34551248     14.36839983
 H     48.06710702    -33.03079052     16.00951576
 H     47.60468066    -34.35124814     14.90914301
 H     47.20870806    -33.95530462     13.07830929
 H     46.97308679    -32.23470618     13.46855317
 H     45.80541580    -31.83308630     15.00211128
 H     45.10938399    -33.47016144     14.94053709
 H     44.53174993    -33.64639992     12.76624814
 H     44.71040910    -31.88463011     12.58592979
 H     43.33163364    -31.25209255     14.37249694
 H     42.69223233    -32.91246056     14.42359194
 H     42.24692508    -32.37468461     11.85070722
 H     42.60428088    -30.69260481     12.31024072
 H     41.04774978    -30.48404995     14.03352439
 H     40.24887813    -31.96426754     13.45126445
 H     40.00272966    -31.22074749     11.19940096
 H     40.37922347    -29.57090210     11.75124267
 H     38.84683487    -29.35417030     13.44213351
 H     37.98252011    -30.77878140     12.81626620
 H     37.64504289    -30.38839657     10.70221669
 H     38.01218081    -28.66500365     10.95399687
 H     36.09324755    -29.12554947     12.83283044
 H     35.86838771    -30.65152636     11.94451786
 H     35.49348939    -29.42189925      9.83267521
 H     35.30798504    -27.94813633     10.81342882
 H     33.64517008    -28.78316094     12.26160505
 H     33.39414484    -30.13612064     11.13255543
 H     33.06332898    -28.52411895      9.26298283
 H     32.91043453    -27.25195422     10.49849359
 H     31.26300296    -28.18189073     11.80790882
 H     30.90203479    -29.33332173     10.49940766
 H     30.61952464    -27.83324998      8.76201463
 H     30.50275545    -26.51446434      9.95173564
 H     28.99834555    -27.12094043     11.38815553
 H     28.41806878    -28.37429274     10.26536725
 H     28.12338421    -27.03705341      8.38550849
 H     28.23995658    -25.59737606      9.42570400
 H     26.80863924    -25.90278284     11.03292273
 H     26.02215322    -27.19690122     10.09752762
 H     25.63535445    -26.26698275      8.12414766
 H     25.91976340    -24.65678946      8.82746537
 H     24.23579624    -25.18826214     10.61590868
 H     23.74287389    -26.57167258      9.61019013
 H     23.32524820    -25.51983738      7.62796947
 H     23.31875133    -23.95582645      8.47773076
 H     21.79728652    -24.44047864     10.14272904
 H     21.29504393    -25.88504010      9.23209122
 H     20.83577879    -25.33793662      7.25069537
 H     20.73691273    -23.62552582      7.72623864
 H     19.33338786    -23.70333223      9.48433241
 H     18.84457135    -25.34803845      9.01076455
 H     18.29294547    -25.33775994      6.96813993
 H     18.16259956    -23.56276466      6.99399261
 H     17.21022528    -22.66158742      8.32749683
 H     16.33069911    -24.15093891      8.74765457
 H     15.70464102    -24.54313084      6.40683374
 H     16.20857114    -22.87052376      6.06521018
 H     15.11591406    -21.64057090      7.51528909
 H     14.02135313    -23.00303473      7.85277296
 H     13.27133812    -23.74352505      6.01321627
 H     13.78813623    -22.25571578      5.18399378
 H     12.92662401    -20.63337882      6.42936792
 H     11.85853737    -21.81355459      7.22601260
 H     11.46805600    -22.10538731      4.46516646
 H     12.39874764    -20.58874766      4.42176244
 H     11.32008964    -19.20801573      5.72747436
 H      9.89324788    -20.27122169      5.68295097
 H      9.92853525    -20.28799986      3.20929921
 H     11.06381135    -18.91966957      3.29348387
 H      9.68606897    -17.55668918      4.67717168
 H      8.32339814    -18.64240404      4.31300396
 H      9.45770889    -17.74039325      1.87186057
 H     10.29495004    -16.63064932      2.98350905
 H      8.93332800    -15.59165250      4.15788054
 H      7.61060849    -16.02603643      3.04883123
 H      8.35417359    -15.46145383      1.05381233
 H      9.63478141    -14.48041238      1.80605428
 H      8.37471334    -13.20187111      3.23178994
 H      6.91027770    -13.69067330      2.34591898
 H      7.87661915    -12.99562289      0.19816750
 H      9.13342529    -12.13779721      1.12166092
 H      7.20248572    -10.96774667      2.34210717
 H      6.15253569    -11.61614923      1.05935789
 H      7.44673009    -10.69195349     -0.73907145
 H      8.27785270     -9.66579416      0.45445229
 H      6.35227540     -8.72948427      1.42618855
 H      5.40610570     -9.32775442      0.04231631
 H      6.16011143     -8.83313497     -1.75360133
 H      7.16773546     -7.56593790     -1.01389054
 H      6.32067796     -6.32313740      0.20980454
 H      4.71129861     -6.75413656     -0.41661745
 H      4.79189093     -6.61872704     -2.55322466
 H      6.29985751     -5.67866335     -2.45034744
 H      6.88828158     -4.45609316     -1.59255153
 H      5.22334034     -3.91656156     -1.26829391
 H      4.57055040     -4.00497803     -3.59544362
 H      6.29615015     -4.12323937     -4.01566551
 H      7.17886512     -2.36260997     -2.94075128
 H      5.54697245     -1.68634395     -2.72198832
 H      5.15524856     -1.91405996     -5.18837720
 H      6.90752583     -2.18183283     -5.34989727
 H      7.52410134     -0.17267654     -4.19343301
 H      5.84192407      0.38290291     -4.36628486
 H      5.98628280     -0.01278410     -6.83369548
 H      7.74790716     -0.14961635     -6.61869968
 H      8.90360927      0.72310661     -5.83808357
 H      7.85113588      2.15691467     -5.90708282
 H      7.84862295      1.31017273     -8.49851982
 H      9.18999727      0.27452871     -7.95407236
 H     10.66921980      1.45242885     -7.04130883
 H      9.97338054      2.92235244     -7.76477204
 H     10.14557672      1.62273758    -10.00238764
 H     11.16963366      0.47391523     -9.10808274
 H     12.74005744      1.88558929     -8.24976459
 H     12.20507980      3.14695650     -9.38599448
 H     12.43283956      1.70775477    -11.32340626
 H     13.36264151      0.58275965    -10.30452404
 H     14.91748614      1.61319969     -9.34391411
 H     14.74409414      2.97357876    -10.47862583
 H     14.72523742      2.41474766    -12.42177428
 H     15.41911859      0.83026752    -12.00199070
 H     17.22967254      2.19789390    -10.75724054
 H     16.58220466      3.60940597    -11.62711735
 H     16.85115184      2.54982783    -13.80330063
 H     17.87598080      1.32867985    -13.01160002
 H     19.39583348      2.51154309    -11.93153579
 H     18.95855654      3.94826334    -12.88698880
 H     19.21720205      2.79832612    -15.00665296
 H     20.05843250      1.49737907    -14.13021998
 H     21.31393726      3.99345586    -13.56891078
 H     20.26667920      4.50687717    -14.91349837
 H     20.96951813      3.00211855    -16.52091308
 H     22.38887694      2.62655063    -15.51461493
 H     23.04454876      4.94972562    -15.30544610
 H     21.91877196      5.32575235    -16.63190649
 H     22.99083103      3.62272168    -18.07545591
 H     24.32730511      3.58194495    -16.90053423
 H     24.93901774      5.68910325    -16.68976337
 H     24.04299036      6.09968113    -18.17193321
 H     24.72511033      4.68889473    -19.68512221
 H     26.12480916      4.26587945    -18.67015034
 H     26.41471478      6.92138927    -18.71882039
 H     25.20330256      6.86181821    -20.02158605
 H     26.74208024      5.23092531    -21.22321821
 H     27.99384696      5.71563074    -20.05428392
 H     27.87996184      8.02491169    -20.41044233
 H     26.95728796      7.71735178    -21.90119599
 H     28.25568466      6.25626845    -22.99261872
 H     29.61195368      6.66448130    -21.91458196
 H     29.63579379      8.93549010    -22.10386786
 H     28.59564680      8.81127181    -23.54294073
 H     29.80726858      7.30803757    -24.78141576
 H     31.20588414      7.58680552    -23.71631971
 H     31.27325451      9.91428191    -23.86941099
 H     30.18619599      9.82314984    -25.27591921
 H     31.70005155      8.21970607    -26.39732180
 H     32.93172770      8.65659221    -25.18886369
 H     33.13474196     10.77394794    -25.17589732
 H     32.29483183     10.88010817    -26.74163920
 H     33.94577460      9.17096176    -27.63150186
 H     34.90134487      9.48189819    -26.16232839
 H     35.17935022     11.66273196    -26.12746863
 H     34.68678659     11.75607680    -27.83537216
 H     35.93527698     10.29071296    -28.87563276
 H     37.02824300     10.21797756    -27.47263543
 H     37.48548427     12.40082134    -27.12817237
 H     36.84215011     12.78060624    -28.74376862
 H     37.68096804     11.58809530    -30.19918674
 H     39.00389698     11.13304638    -29.09870677
 H     39.55708469     13.41615769    -28.54470216
 H     38.56362819     13.93395887    -29.92788428
 H     39.98805442     12.34158095    -31.34369126
 H     41.09142506     12.27190764    -29.94870541
 H     41.44828270     14.54826873    -29.67151524
 H     40.75624396     14.82666893    -31.28763479
 H     42.56214742     13.05032551    -32.00452605
 H     43.24612990     13.30834281    -30.38160840
 H     43.55109268     15.47970505    -30.23964951
 H     43.37268044     15.62373444    -32.00478160
 H     44.46914704     14.39495072    -33.09494157
 H     45.53521236     14.06636855    -31.70792853
 H     46.17625439     15.81137226    -30.81300265
 H     45.70153869     16.75065949    -32.24849949
 H     47.23966579     14.84090345    -33.37828941
 H     47.71902225     14.49169628    -31.70003484
 H     48.42160060     16.78467001    -31.28667341
 H     48.35774952     17.05501639    -33.04482657
 H     49.82580650     15.14151057    -33.48487932
 H     50.22277856     15.13527870    -31.74975944
 H     50.87194013     17.37904596    -31.57318295
 H     50.95783238     17.45988891    -33.34923295
 H     52.55361374     15.30370766    -32.67238726
 H     52.36652388     15.96449892    -31.03024873
 H     53.00172944     18.03518182    -31.13340705
 H     53.79103623     17.72458108    -32.69826763
 H     55.06440101     15.87120252    -32.03601183
 H     54.73249648     16.29162939    -30.33855865
 H     55.68522691     18.63323039    -31.08965802
 H     56.23179318     17.77450126    -32.54983481
 H     57.45144532     16.10374564    -31.26748241
 H     57.28371673     17.16274553    -29.84668931
 H     58.37717576     18.93212839    -31.47261579
 H     58.73511508     17.53171761    -32.51136300
 H     59.84400184     16.17496470    -31.08433189
 H     60.06054025     17.54391123    -29.96747774
 H     60.69450568     19.19184458    -30.49123250
 H     61.38911620     18.48567591    -31.97012016
 H     62.54762126     16.73626797    -31.17228063
 H     62.42927049     17.41508485    -29.53110197
 H     63.18257612     19.51583892    -29.83556220
 H     63.85190807     19.03784870    -31.41410164
 H     65.05543609     17.14477153    -30.27326207
 H     64.66660546     17.95026215    -28.73434613
 H     65.64119386     20.05874197    -29.40416389
 H     66.42164611     19.20350491    -30.75609974
 H     67.46921957     17.53364921    -30.01841557
 H     67.39361498     18.19183606    -28.36634394
 H     68.37358170     20.34612708    -29.34607891
 H     68.73455489     19.38563491    -30.80052720
 H     69.70440566     17.72065704    -30.57754951
 H     70.25743915     18.22251073    -28.96182568
 H     71.09768442     20.29215454    -29.43173603
 H     71.07616874     19.88954356    -31.16543385
 H     72.49249342     17.82032609    -30.03223127
 H     72.49691344     18.88613246    -28.60664231
 H     73.22844342     20.75438505    -29.04001519
 H     73.95460002     20.14815738    -30.54781202
 H     75.08174590     18.31594217    -29.35126014
 H     74.70091797     19.16871032    -27.83599672
 H     75.74169978     21.23958055    -28.62216067
 H     76.48362724     20.28985102    -29.93205537
 H     77.45374557     18.67222078    -29.43212816
 H     77.56966947     19.22555835    -27.74433497
 H     78.33791733     21.25173038    -27.82132611
 H     78.85397352     21.00174241    -29.50639545
 H     80.07375500     18.99953436    -29.07998645
 H     79.99398807     19.37487607    -27.34187757
 H     80.75014180     21.42432016    -27.16559726
 H     81.43465475     21.31777866    -28.80521843
 H     82.57119606     19.15393500    -27.94684298
 H     82.09510985     19.70034037    -26.32109708
 H     83.38005701     21.87640795    -26.97522293
 H     84.01933633     20.92618736    -28.33781951
 H     84.83434273     19.21290730    -26.67372514
 H     84.52310667     20.43138867    -25.41408156
 H     86.16296599     21.78334461    -27.11157562
 H     86.43001025     20.17455778    -27.82484904
 H     87.10077925     19.03943268    -25.92580658
 H     87.34144041     20.60113682    -25.10639885
 H     88.79577723     21.35531345    -26.99282141
 H     88.83874047     19.65689808    -27.52367547
 H     89.45726899     18.47677292    -25.83956182
 H     90.03839287     19.94091681    -25.01080107
 H     91.38398597     20.68745739    -26.85400256
 H     91.20589902     19.06891307    -27.57293648
 H     91.83021801     17.69045766    -25.96174565
 H     92.57655210     19.04931194    -25.08723600
 H     93.72760384     19.27387508    -27.53608403
 H     93.03103029     17.65731357    -27.80024468
 H     93.89338971     16.75981414    -25.68681129
 H     94.88984139     17.38734301    -25.81974730
 H     92.56441972     15.79720380    -26.88865439
 H     93.01981270     16.11951527    -25.19838837
 H     94.56933406     15.65254274    -24.41454338
 H     94.86392857     14.42867684    -25.67296819
 H     92.58287083     13.49845145    -25.31798943
 H     92.51626614     14.45599860    -23.81901180
 H     94.59524783     13.52081099    -22.97193421
 H     94.46931454     12.26478738    -24.22684940
 H     92.23440308     11.61160268    -23.58584589
 H     92.46061376     12.52617232    -22.07566121
 H     94.57051303     11.21173575    -21.66370586
 H     94.02187198     10.11090195    -22.95033890
 H     91.87864626      9.69479663    -21.95432803
 H     92.49604315     10.41367058    -20.44757391
 H     94.29509550      9.52052794    -19.89441142
 H     93.98071214      8.15567636    -20.99286941
 H     91.79660249      7.68877126    -20.16088370
 H     92.16108930      8.71886601    -18.75577843
 H     94.17726577      7.61210802    -18.15815487
 H     93.71094724      6.27365870    -19.23489397
 H     91.51991201      6.07770315    -18.08505984
 H     92.19298360      7.10949263    -16.80028291
 H     94.01562603      6.30514855    -16.13121254
 H     93.63024863      4.74461983    -16.89573922
 H     91.44569874      4.63056359    -15.80089712
 H     91.98986136      5.94239439    -14.72793222
 H     93.99465389      4.79468072    -14.04431309
 H     93.31321410      3.30397265    -14.73835627
 H     91.26283738      3.35897665    -13.58567175
 H     91.95165772      4.58256015    -12.49176288
 H     93.75548255      2.50099985    -12.38427594
 H     92.45928464      1.61895764    -13.22697350
 H     90.67606147      1.78084230    -12.09723815
 H     91.60514535      2.30850618    -10.67363685
 H     93.18225748      0.71986417    -10.50935130
 H     92.24515505     -0.31509628    -11.61341768
 H     90.23299870     -0.03175860    -10.16408734
 H     91.32555173      0.62992378     -8.92442167
 H     92.72673113     -1.44317282     -9.09848292
 H     91.37586983     -2.17059398    -10.00086802
 H     89.59534638     -2.00931870     -8.99722404
 H     90.45377217     -1.65160064     -7.47952525
 H     91.94082188     -3.02011735     -7.09744616
 H     91.23449257     -4.15363434     -8.27409597
 H     89.33792215     -4.52855381     -8.16080669
 H     89.28218821     -3.90573330     -6.49429686
 H     91.02960734     -5.09968783     -5.58375693
 H     90.99980222     -6.18001854     -6.99806378
 H     88.89301542     -6.82653955     -7.14347263
 H     88.60045163     -6.25034610     -5.48495696
 H     90.31818355     -7.32772791     -4.39559725
 H     90.53563487     -8.37470754     -5.81855729
 H     88.39639653     -9.13234641     -6.10125687
 H     87.99455543     -8.55605985     -4.46581070
 H     89.49641066     -9.39133490     -3.14277368
 H     89.97291114    -10.55433406     -4.40318906
 H     87.96159817    -11.45796056     -4.94806729
 H     87.26365986    -10.76623787     -3.46392831
 H     88.46811084    -11.30571424     -1.81604252
 H     89.25370969    -12.57699242     -2.78297215
 H     87.10232430    -13.53702995     -3.44950583
 H     86.34561943    -12.55596676     -2.17154675
 H     87.46571031    -13.02092740     -0.34989926
 H     88.15942743    -14.45875249     -1.13709823
 H     86.00384049    -15.33021313     -1.80458585
 H     85.25178588    -14.16864916     -0.68501019
 H     86.60438540    -14.92960001      1.19759265
 H     87.04709653    -16.35064499      0.22142428
 H     84.90562202    -17.07031685     -0.32626161
 H     84.25331754    -16.00669242      0.94317472
 H     85.96820572    -17.27584635      2.46631470
 H     86.11192971    -18.41854530      1.10916725
 H     83.80837847    -18.90579207      0.91928088
 H     83.55816465    -18.15748047      2.51480256
 H     85.11200442    -19.31595267      3.74374382
 H     85.23578208    -20.50790616      2.42761593
 H     82.83086896    -20.88496183      2.37215330
 H     82.72641488    -20.04318561      3.93700755
 H     84.46727575    -21.65947607      4.81958971
 H     84.16145922    -22.62789242      3.35777143
 H     81.71039357    -22.64169571      3.96516199
 H     82.20458453    -22.04191538      5.56650690
 H     83.77127112    -23.82821530      5.95473951
 H     82.05975030    -24.66760792      5.15287321
 H     80.78894462    -24.40658134      5.73437622
 H     81.70369125    -23.92640139      7.18383559
 H     83.13297190    -25.45589800      7.59773366
 H     82.26150941    -26.58051231      6.52812511
 H     80.06563291    -26.06493829      7.41975412
 H     80.66299147    -25.75325368      8.69086981
 H     80.62093875    -27.68625308      6.20117789
 H     79.42101646    -26.38956944      6.41812183
 H     78.47191192    -27.16780315      8.40920322
 H     79.26475416    -28.73789711      8.13630616
 H     78.68350422    -29.31149978      6.09547653
 H     77.38924840    -28.08973823      6.11709249
 H     76.37608647    -28.74723869      8.12371028
 H     77.28930691    -30.27314421      8.04685062
 H     76.69175095    -30.93077608      5.90315805
 H     75.38274803    -29.72486159      5.92657359
 H     74.49435144    -30.60244679      8.03893888
 H     75.52052970    -32.03604554      7.79395016
 H     74.77599474    -32.57480517      5.63513591
 H     73.39628914    -31.47575702      5.87340529
 H     72.81228359    -32.65766208      7.98727647
 H     73.92742600    -33.94712763      7.47541453
 H     72.33155083    -33.82285740      5.31828607
 H     71.28863509    -32.82991195      6.36454262
 H     70.84585909    -33.75996843      8.13378055
 H     71.35019425    -35.33029189      7.46445481
 H     70.14624664    -35.36745087      5.52699085
 H     69.14250417    -34.03310479      6.14366600
 H     68.48530581    -34.77614472      8.14224834
 H     68.98389987    -36.42378150      7.68951923
 H     67.56592303    -36.18659560      5.60481585
 H     66.85065459    -34.75122375      6.37706281
 H     66.19694738    -35.73775156      8.38136803
 H     66.43614947    -37.33772657      7.63898742
 H     64.96245861    -36.70246887      5.74291819
 H     64.43925659    -35.31112032      6.72203796
 H     63.80292121    -35.99429910      8.61422488
 H     63.68569581    -37.65875450      7.99445631
 H     62.37024724    -37.21953086      6.11970712
 H     61.99415968    -35.61654683      6.79592235
 H     61.27330015    -36.06536685      8.84560714
 H     61.06910214    -37.77604041      8.39820821
 H     59.73180298    -37.27625486      6.44799519
 H     59.54064341    -35.62076919      7.07336857
 H     58.74611957    -36.20477522      9.20801605
 H     58.45584913    -37.85573421      8.60939753
 H     57.24520930    -37.57264376      6.78735035
 H     56.89499616    -35.89789313      7.27809241
 H     56.28676087    -35.49029298      9.00727914
 H     55.79176190    -37.18059612      9.26441333
 H     54.58057760    -36.63032762      6.90689265
 H     55.00451502    -34.94593578      7.29595291
 H     53.77125722    -35.23988010      9.49093167
 H     53.09551822    -36.73178522      8.79389322
 H     52.34387520    -35.11034979      6.86633664
 H     52.77283767    -33.80339242      7.99599159
 H     51.50061841    -34.42894527      9.80885233
 H     50.58489239    -35.53562223      8.75767268
 H     50.11359725    -33.68702380      7.17226353
 H     50.66497343    -32.56607300      8.44022263
 H     49.05779471    -33.54927728     10.05230893
 H     48.27097718    -34.33846680      8.66437350
 H     47.99438250    -32.25155287      7.45446899
 H     48.37304837    -31.39430933      8.96774766
 H     46.44160247    -32.84092967      9.95663380
 H     46.04507452    -33.22524491      8.26449490
 H     45.89491353    -30.78863482      7.74894100
 H     45.88237700    -30.50515420      9.50613998
 H     44.03625600    -31.98401158      9.92649621
 H     43.70578533    -31.98479115      8.17748072
 H     43.60462431    -29.64007388      7.91740731
 H     43.48682651    -29.48748756      9.68690096
 H     41.46386917    -31.18692623      9.24770953
 H     41.69388068    -30.75017292      7.53756102
 H     41.56055215    -28.53675706      7.53457291
 H     40.84078889    -28.57858214      9.16198133
 H     39.12296494    -30.11834467      8.66428555
 H     39.43770944    -29.85167507      6.93278623
 H     39.15629285    -27.36843688      7.36022225
 H     38.47093948    -27.82209271      8.93906797
 H     36.81152049    -29.29628943      7.91040168
 H     37.20158391    -28.53500373      6.34945284
 H     36.97373264    -26.36818301      6.73854247
 H     36.08677868    -26.73058124      8.23862475
 H     34.49996619    -28.18736676      7.28796166
 H     34.97860923    -27.59921823      5.67760493
 H     34.45892743    -25.25110830      6.77362617
 H     33.69914762    -26.19795595      8.07534843
 H     32.23086447    -27.43920126      6.73544045
 H     32.54066803    -26.30285176      5.40089999
 H     32.14802915    -24.31309017      6.31019719
 H     31.31639739    -25.10159477      7.67215012
 H     29.83883082    -26.43243642      6.67944858
 H     29.83417654    -24.75645628      5.48002460
 H     29.75388709    -23.40837016      5.81613958
 H     29.02547775    -23.99832159      7.32929648
 H     27.44022852    -25.42744150      6.15633587
 H     27.85026639    -24.54945548      4.66325980
 H     27.45342526    -22.38290587      5.45767155
 H     26.59570726    -23.08554272      6.85011112
 H     25.12684281    -24.41316848      5.42559927
 H     25.66934795    -23.42058230      4.05128944
 H     24.95960648    -21.39366412      5.46544036
 H     24.13008729    -22.56670809      6.51621742
 H     22.87300433    -23.79950918      5.48494514
 H     22.89002647    -22.69390340      4.09009290
 H     22.47605250    -20.73811023      4.72972810
 H     21.84390212    -21.35576150      6.27477162
 H     20.34421757    -22.92445428      5.37569935
 H     20.52489326    -22.13647291      3.78991617
 H     19.95390506    -19.93722979      4.77231355
 H     19.38555901    -20.81564270      6.21232751
 H     17.89731093    -22.21906567      4.81729678
 H     18.17190033    -21.05882954      3.49566163
 H     17.63533743    -19.10027329      4.47511691
 H     16.84007553    -19.98931255      5.79626579
 H     15.47422730    -21.28604813      4.22946604
 H     15.94582430    -20.12573322      2.96473989
 H     15.52500901    -18.16243116      3.66902264
 H     14.47962759    -18.82770289      4.94685592
 H     13.48569408    -19.98524505      2.67193774
 H     14.50737067    -18.73273048      1.86495861
 H     14.98945829    -17.37701534      1.81554555
 H     13.42510080    -16.92387727      2.53368077
 H     12.01891894    -18.07574040      1.10608669
 H     13.37752694    -18.28532134     -0.02463290
 H     14.04123454    -16.07611521     -0.20638581
 H     12.50083939    -15.57806731      0.53347752
 H     10.87084397    -16.10878401      0.10070386
 H     11.44501075    -16.62710889     -1.50239892
 H     12.56815121    -14.76985841     -2.18127023
 H     11.77606065    -13.83575540     -0.88963917
 H      9.55317006    -14.48090278     -1.49031391
 H     10.19607533    -15.07587546     -3.03981286
 H     11.10838320    -12.51126354     -2.99189205
 H      9.97195045    -12.33930699     -1.63276800
 H      8.03427749    -13.02696355     -2.52828801
 H      8.73968714    -12.87515492     -4.15543829
 H      9.58458721    -10.89336089     -4.28499466
 H      8.65834278    -10.39282408     -2.84979404
 H      6.54724727    -11.10234512     -3.59764516
 H      7.21696575    -11.24872281     -5.24030075
 H      8.14243646     -9.20415347     -5.53432434
 H      7.22300721     -8.59925027     -4.13539309
 H      5.22147961     -9.04422277     -4.27916588
 H      5.39522921     -9.37961081     -6.01858895
 H      6.43873884     -7.57064042     -6.78956780
 H      6.04116448     -6.70388438     -5.28659233
 H      3.84389930     -6.99912830     -5.08786142
 H      3.76249827     -7.51897872     -6.78827198
 H      4.88172814     -5.64529927     -7.69586685
 H      4.65062668     -4.80482149     -6.14394679
 H      3.10469933     -4.66947982     -5.23584622
 H      2.17928915     -5.04212008     -6.70996355
 H      3.60053381     -3.15687780     -7.79052917
 H      3.06320318     -2.55176204     -5.88590176
 H      1.69120656     -2.53787900     -5.46683360
 H      1.29284903     -2.54562599     -7.20162983
 H      2.77027283     -0.73820484     -7.75385679
 H      2.89593735     -0.37668890     -6.01552963
 H      0.93787012     -0.30000873     -5.18127721
 H      0.28353081      0.01027807     -6.69065633
 H      2.62228262      0.81961884     -4.67593380
 H      1.39032384     -0.30029163     -4.04637461
 H     -0.17148942      1.80123574     -4.56822024
 H      1.36259844      2.68552180     -4.74954667
 H      2.49378550      2.36482016     -2.94727453
 H      1.02856835      1.79073288     -2.11551183
 H     -0.54547760      3.08486926     -2.32954969
 H      0.55893101      4.38470468     -2.83844671
 H      2.05936819      4.21624259     -1.03621707
 H      0.85630955      3.22851360     -0.17290484
 H     -1.01741340      4.67643156     -0.61417738
 H     -0.15472736      5.78690340     -0.62656655
 H     -0.93414082      3.04760511      0.69078668
 H     -1.90318007      3.83154902     -0.57990665
 H     -2.39698023      5.77958757      0.75056224
 H     -1.82398859      4.88316155      2.17757578
 H     -3.16629831      2.98788966      1.92657178
 H     -4.16331571      3.88671124      0.75766514
 H     -4.29226125      5.62495199      2.74372087
 H     -3.61083381      4.31265393      3.73457764
 H     -5.43372935      3.34509119      4.15596306
 H     -6.29049526      4.15778902      2.46616402
 H     -5.99907382      5.23871261      4.75115691
 H     -5.48828326      3.63386149      5.32718863
 H     -7.37398922      2.44186914      4.58738747
 H     -8.21895426      3.99128610      4.35585383
 H     -6.62635608      2.51761519      6.65449512
 H     -6.88933250      1.43308214      5.26780911
 H     -9.20282753      1.47162162      5.21314495
 H     -9.20489220      2.18411729      6.84428330
 H     -7.73141695      0.22355888      7.55487105
 H     -8.17457913     -0.52865545      6.00372711
 H    -10.29181649     -0.54940694      5.84463114
 H     -9.99093435     -0.94888134      7.84287683
 H     -9.08579852     -1.89518986      8.41007438
 H     -9.12623360     -2.68918364      6.81752751
 H    -11.60775921     -2.64820415      6.83061124
 H    -11.51173207     -2.25094105      8.56301636
 H    -10.37760530     -3.46182452      9.65773061
 H    -10.31016515     -4.65055939      8.43316007
 H    -10.71800327     -5.39136109      7.33305634
 H    -12.32447510     -5.32641496      8.09679511
 H    -10.84922414     -6.16074061     10.18006768
 H     -9.58884182     -6.43410435      8.95329332
 H    -10.74773215     -7.78706142      7.50000005
 H    -11.98063586     -8.04687268      8.75726423
 H    -10.44468059     -8.73360400     10.44615377
 H     -9.20999067     -8.93004216      9.17918119
 H     -9.95232415    -10.12726761      7.63177629
 H    -11.26769423    -10.70575859      8.68221259
 H     -9.35390817    -11.27483424     10.34721506
 H     -8.25560275    -11.00417230      8.97290287
 H     -9.01265703    -12.30586260      7.37743474
 H     -9.98634825    -13.20395668      8.56639189
 H     -8.50139093    -13.73440529     10.14291997
 H     -7.17586987    -13.34035551      9.02221244
 H     -7.63867142    -14.49215753      7.19921529
 H     -8.79932835    -15.48167314      8.11682143
 H     -7.22242878    -16.04867204      9.84757098
 H     -5.92449577    -15.45247588      8.78540964
 H     -6.63938260    -16.89116432      6.93834508
 H     -7.64514438    -17.77866951      8.10840680
 H     -6.18044101    -18.30645049      9.71736543
 H     -4.83791097    -17.91916741      8.61469069
 H     -4.85742829    -18.70754416      6.84171899
 H     -6.03355121    -19.93618170      7.36655357
 H     -4.91195384    -20.68131654      9.26717203
 H     -3.44369489    -19.85847066      8.68802871
 H     -2.85302299    -20.17045068      6.88335591
 H     -3.84249892    -21.64650854      6.78109536
 H     -2.67230723    -22.31502571      8.99301434
 H     -1.54410243    -20.98139399      8.65118537
 H     -1.00147926    -21.85346669      6.43783498
 H     -1.77535505    -23.38167617      6.92152776
 H     -0.22993827    -23.38213862      8.94656636
 H      0.68414949    -22.10142612      8.11440908
 H      1.21140997    -22.62469567      6.20997354
 H      0.89536863    -24.33988472      6.56565748
 H      2.04989028    -24.69342083      8.43905211
 H      2.94587363    -23.17932658      8.16886868
 H      3.63452959    -23.61419453      5.97312799
 H      3.18816169    -25.32148324      6.20591034
 H      4.67568282    -25.28193796      8.28299391
 H      5.30600656    -23.73584006      7.66611474
 H      5.93139740    -24.45882287      5.54005282
 H      6.50284452    -25.96014309      6.84465127
 H      7.29502955    -25.65353228      8.01304602
 H      7.72392045    -24.14050356      7.17934142
 H      8.31531271    -25.51361637      5.14367848
 H      8.24775523    -26.93927518      6.20725717
 H      9.43252990    -26.68585257      7.88271063
 H     10.29327969    -25.33891646      7.09967834
 H     10.94021783    -25.92572949      5.19038135
 H     10.68957677    -27.63736021      5.60962592
 H     12.03554497    -27.40709203      7.65710456
 H     12.61283785    -25.85037094      7.01552911
 H     13.35217751    -26.74459534      4.92298607
 H     13.21518187    -28.37401583      5.62618428
 H     14.32935183    -28.35441564      7.47204756
 H     15.14150875    -26.84924669      6.97896113
 H     15.91655047    -27.31340107      4.95016468
 H     15.65816972    -29.04879504      5.25002104
 H     16.78393634    -29.24766997      7.25753471
 H     17.54220792    -27.66461472      6.96219265
 H     18.40189868    -27.94390380      4.89323497
 H     18.18192269    -29.70324212      5.05009771
 H     19.64383639    -28.87580840      7.29186607
 H     19.77239618    -27.37166697      6.34884029
 H     20.59347439    -27.90119119      4.42920615
 H     21.11791007    -29.47494016      5.07461149
 H     22.27209018    -28.63778779      6.95199925
 H     22.21400196    -27.01708806      6.21836119
 H     23.28547748    -28.17857824      4.15614262
 H     23.58077611    -29.55318761      5.24770777
 H     24.61722131    -28.84018736      6.96059118
 H     25.03568308    -27.33804051      6.10227233
 H     25.95619665    -28.56641877      4.19549199
 H     25.93179426    -30.02759285      5.21168169
 H     27.17218749    -29.06058462      7.01160620
 H     27.62362413    -27.72795194      5.92139440
 H     28.42020531    -29.82269334      4.44541833
 H     28.17455028    -30.75047766      5.94446353
 H     29.47287336    -29.57180038      7.39603575
 H     30.25353186    -28.76127367      6.01694713
 H     30.85242172    -30.68999168      4.82718462
 H     30.52907626    -31.65215124      6.28936223
 H     32.00657292    -30.24885652      7.65176573
 H     32.64447240    -29.56859426      6.13565419
 H     33.19428075    -31.67172188      5.15555968
 H     32.99881843    -32.41845678      6.75944501
 H     34.59137690    -30.78291301      7.73897183
 H     35.05466194    -30.35972531      6.07327504
 H     35.52705518    -32.78495929      5.62812157
 H     35.44384566    -33.02945563      7.38924745
 H     36.28041913    -32.09525686      8.64599414
 H     37.46539620    -31.51285654      7.45229993
 H     38.17142243    -33.27006649      6.39370701
 H     37.50252276    -34.31742930      7.66801900
 H     38.28923377    -33.50721802      9.54534502
 H     39.50584147    -32.57602566      8.63924724
 H     40.34876702    -34.40940846      7.39184762
 H     39.50879231    -35.50559615      8.51482656
 H     40.38728277    -34.64053909     10.50646044
 H     41.62098850    -33.78345782      9.55165757
 H     42.56370804    -35.20395690      8.26751422
 H     41.90353354    -36.54191668      9.23823557
 H     43.05161572    -35.13897104     11.19247016
 H     43.83705034    -34.24700514      9.86742074
 H     44.72848918    -36.36132787      8.92889083
 H     44.77427962    -36.65339586     10.96329196
 H     45.27585822    -35.84876650     11.99363071
 H     46.27666676    -35.11206549     10.71929929
 H     47.14543070    -36.93702909      9.70796845
 H     46.65154362    -37.93054517     11.09982620
 H     47.69509889    -36.56027280     12.74560015
 H     48.59689316    -35.75569113     11.43881704
 H     49.46832978    -37.76245456     10.49211696
 H     48.98415762    -38.61856692     11.97566528
 H     50.11627706    -37.13096000     13.46458851
 H     50.99729535    -36.47552046     12.06370577
 H     51.85319738    -38.27546755     11.08980865
 H     51.52921373    -39.22425499     12.56055800
 H     52.09138839    -38.55185317     14.26006915
 H     53.22674306    -37.42797669     13.47512450
 H     54.27474002    -38.56085879     11.93517697
 H     54.04645627    -39.90129538     12.73706604
 H     54.87333641    -36.83668192     13.01298306
 H     54.65633177    -37.51155469     11.38027905
 H     56.69233935    -39.03292411     12.28475547
 H     56.76945248    -37.83008226     13.59452328
 H     58.01719680    -36.48288689     12.71200547
 H     57.36786974    -37.02587066     10.84199564
 H     59.16007511    -38.11351060     12.14509656
 H     59.04454871    -36.75804842     13.29298270
 H     59.17609496    -34.93738038     12.37394916
 H     59.85618373    -35.69428552     10.91352438
 H     61.55347727    -36.91932326     11.87090832
 H     61.36777145    -35.96948231     13.36475643
 H     61.59520150    -33.85838991     12.07263039
 H     62.90659090    -35.18738502     11.19139145
 H     63.88807201    -35.97012765     11.85211163
 H     63.75210078    -34.77822587     13.16708259
 H     63.89119926    -33.51311744     10.53237608
 H     64.55067152    -34.40904420     10.25481283
 H     63.74119778    -32.26228037     12.23648183
 H     63.17098990    -32.49628529     10.56664012
 H     65.40532192    -32.32383580      9.59211074
 H     65.63381103    -31.53735088     10.22241918
 H     63.69662211    -33.10437429      8.61180714
 H     65.46198835    -33.26304969      8.77481277
 H     65.87934859    -30.97164665      7.97552412
 H     64.65198047    -31.03691801      7.19879703
 H     67.26877430    -32.51223376      8.15437810
 H     67.03059043    -30.51659590      7.72670469
 H     66.86600027    -29.91223009      6.42970677
 H     68.33042251    -31.34695456      6.25105664
 H     69.40147462    -31.73051719      6.96610587
 H     69.34841599    -29.70040411      6.98343993
 H     70.42832043    -29.11138740      6.42898870
 H     70.40742501    -30.18062667      5.18547070
 H     71.61175168    -28.71441063      6.06243703
 H     71.57319182    -30.08174129      6.81161484
 H     71.53452838    -29.47989795      7.97065444
 H     71.61362470    -27.95962658      7.04827415
 H     72.97134699    -29.10905333      6.98765230
