1502
Starting Conformation (Frame 1)
 C      0.00000000      0.00000000      0.00000000
 C      1.54000000      0.00000000      0.00000000
 C      2.16637443      0.01555920      1.40677396
 C      3.66855418      0.35450554      1.41986484
 C      4.28407957      0.41801396      2.83007588
 C      3.64365560     -0.55495127      3.83744661
 C      4.35717823     -0.60394768      5.20129587
 C      3.61662107     -1.43412285      6.26618285
 C      4.11728011     -1.19907828      7.70343529
 C      3.45519923     -2.10971545      8.75414403
 C      3.82503032     -1.76067347     10.20775838
 C      3.43616931     -2.84435871     11.23050637
 C      4.30174046     -4.11587717     11.15549053
 C      3.98511493     -5.15447973     12.24757706
 C      4.88434307     -6.40389241     12.20334248
 C      4.44156033     -7.52842011     13.15779567
 C      5.43774973     -8.69908647     13.25132079
 C      4.86988158     -9.95082809     13.94577647
 C      5.90366011    -11.07220622     14.15887984
 C      5.30738777    -12.37465847     14.72428007
 C      6.30735832    -13.54390909     14.79145072
 C      5.65129751    -14.91610979     15.03279997
 C      6.65479628    -16.07853697     15.14835636
 C      6.07700986    -17.34090305     15.81483571
 C      7.00412476    -18.56834387     15.74103201
 C      6.38855194    -19.85419840     16.32348221
 C      7.35915926    -21.04900697     16.36768530
 C      6.84529645    -22.24324772     17.19311491
 C      7.44778676    -23.59797073     16.77678451
 C      7.11802159    -24.75288102     17.74065024
 C      7.38216841    -26.15241334     17.15487235
 C      6.84312200    -27.30595915     18.02110617
 C      6.93096805    -28.68843915     17.34832676
 C      6.43788737    -29.84823175     18.23339882
 C      6.34419730    -31.19941032     17.50050138
 C      5.17000123    -32.08237410     17.96227899
 C      5.42639259    -33.59358176     17.81356827
 C      4.49012264    -34.47420805     18.66179933
 C      5.00626799    -35.90872305     18.87942444
 C      4.07839740    -36.78412555     19.74216811
 C      4.66506637    -38.16479119     20.09028002
 C      3.68025743    -39.09830632     20.81849760
 C      4.34337496    -40.01873710     21.85997843
 C      3.35640558    -40.94101267     22.59950476
 C      4.02984920    -41.93106006     23.56794674
 C      3.03867093    -42.78694722     24.37826939
 C      3.66901057    -43.49483975     25.59200746
 C      4.92737464    -44.31589085     25.25437606
 C      5.39212743    -45.24570058     26.39062371
 C      6.45057304    -46.27866606     25.96135086
 C      6.98933501    -47.14107444     27.11789196
 C      7.78614126    -48.37660412     26.65945307
 C      8.61062968    -49.04060864     27.77789700
 C      9.80342732    -49.87071694     27.26823633
 C     10.69957546    -50.43234821     28.38765083
 C     11.94298199    -51.18381661     27.87693029
 C     12.97771461    -51.50012321     28.97277633
 C     13.92474189    -52.66308829     28.62313146
 C     15.28271917    -52.60434783     29.34704257
 C     16.34240398    -53.56084922     28.76931150
 C     17.73719940    -53.40730433     29.40379531
 C     18.82919642    -54.25849917     28.72954769
 C     20.17947299    -54.24596782     29.46995038
 C     21.19603566    -55.27229640     28.93623696
 C     22.40349523    -55.49906701     29.86479308
 C     23.30130415    -56.67883306     29.44803031
 C     24.74378421    -56.58642843     29.97936134
 C     25.71204378    -57.60059148     29.34253585
 C     27.15450576    -57.50824084     29.87392536
 C     28.22405307    -57.96796372     28.86579669
 C     29.65452231    -57.98827064     29.43583650
 C     30.59371515    -58.98785641     28.73559004
 C     32.07953366    -58.81248496     29.10053966
 C     32.96697207    -60.00723656     28.70478508
 C     34.46568951    -59.66784511     28.60349588
 C     35.35113979    -60.85862292     28.19163909
 C     36.86031050    -60.55251808     28.20906302
 C     37.73744430    -61.69467950     27.66344081
 C     39.25048356    -61.44357389     27.80221469
 C     40.11292451    -62.70906353     27.63994460
 C     41.62834725    -62.44998984     27.72924598
 C     42.48377374    -63.73055428     27.72974346
 C     43.99775918    -63.47251947     27.61631457
 C     44.84066657    -64.75112023     27.45418120
 C     46.35872188    -64.49787151     27.39965450
 C     47.16155367    -65.64094661     26.75124074
 C     48.65228155    -65.31770018     26.53948114
 C     49.42991992    -66.41309536     25.78649510
 C     50.85020338    -65.99447121     25.36323548
 C     51.79441828    -67.17808498     25.08195864
 C     53.26429360    -66.77022927     24.87048695
 C     54.24727589    -67.95560447     24.85527330
 C     55.66607894    -67.58676028     24.38351929
 C     56.64184828    -68.77746885     24.34244269
 C     58.09690214    -68.38429216     24.02648327
 C     59.07025537    -69.57646051     23.97246349
 C     60.50305073    -69.19684069     23.55462831
 C     61.48797301    -70.38068278     23.54784461
 C     62.68144333    -70.19709188     22.59206066
 C     63.54892168    -71.45834341     22.42375771
 C     64.34472483    -71.49995842     21.10596959
 C     64.92952732    -72.88462672     20.77085807
 C     65.29917988    -73.06601311     19.28692547
 C     65.58849042    -74.52483982     18.88727056
 C     66.24619532    -74.67641903     17.50305670
 C     66.55836477    -76.13341380     17.11406253
 C     67.05482511    -76.30252695     15.66612335
 C     66.61649300    -77.62188086     15.00372602
 C     67.14285235    -77.80725634     13.56839269
 C     66.38883347    -78.87801095     12.75812107
 C     66.58923313    -78.76757830     11.23521444
 C     66.18792476    -80.03451790     10.45712985
 C     66.77255452    -80.10723716      9.03427359
 C     66.48796570    -81.43465136      8.30723800
 C     66.64231661    -81.35630613      6.77699690
 C     65.86960240    -82.44742996      6.01282313
 C     65.53957367    -82.07676450      4.55498633
 C     64.87475980    -83.21243205      3.75506025
 C     64.76654914    -82.93430746      2.24425345
 C     64.69743344    -84.20489340      1.37682370
 C     64.49515912    -83.92810352     -0.12453317
 C     64.60246414    -85.18167167     -1.01259428
 C     64.23880662    -84.93649939     -2.48882047
 C     64.61853521    -86.09608145     -3.42838188
 C     64.30506240    -85.82834175     -4.91217777
 C     65.13619726    -86.67821772     -5.89122101
 C     65.56228440    -85.92742438     -7.16650887
 C     66.53185202    -86.71812910     -8.06446470
 C     67.19714064    -85.87173957     -9.16565307
 C     68.37476741    -86.57223715     -9.86857436
 C     69.13016922    -85.67654490    -10.86792590
 C     70.34580989    -86.35706681    -11.52420914
 C     70.98954009    -85.53378697    -12.65532439
 C     72.35218355    -86.07490766    -13.12648383
 C     73.12175125    -85.11401326    -14.05171219
 C     74.38069615    -85.73148182    -14.68841487
 C     75.24184067    -84.72626982    -15.47554824
 C     76.59274522    -85.29443078    -15.94867617
 C     77.57719819    -84.22605490    -16.45958256
 C     77.79423727    -83.05582513    -15.48231274
 C     79.16444412    -82.36731159    -15.62402473
 C     79.44345480    -81.30032734    -14.54917699
 C     80.45280887    -80.22173958    -14.98443873
 C     81.79799504    -80.78562713    -15.47850857
 C     82.90793666    -79.72711331    -15.61699361
 C     84.22261763    -80.27143413    -16.20600022
 C     85.22361311    -79.17709463    -16.62076413
 C     86.45151767    -79.70795354    -17.38367908
 C     87.40842251    -78.60581800    -17.87483117
 C     88.66424956    -79.13918950    -18.58898331
 C     89.30569587    -78.13339864    -19.56290907
 C     90.42701662    -78.73161052    -20.43261150
 C     91.22806457    -77.68482672    -21.22895680
 C     92.40616198    -78.27260525    -22.02783282
 C     93.29223178    -77.21275130    -22.70841338
 C     94.25761000    -77.78640901    -23.76224531
 C     95.03154500    -76.71458384    -24.55206518
 C     95.94462268    -77.28524570    -25.65308026
 C     96.32345921    -76.26580097    -26.74340834
 C     97.02598165    -76.88708393    -27.96491140
 C     97.38037922    -75.87173416    -29.06721227
 C     98.25874562    -76.44977757    -30.19235150
 C     98.76557671    -75.39657980    -31.19509608
 C     99.71417498    -75.96007011    -32.26945169
 C    100.36688402    -74.88310565    -33.15585930
 C    101.82199473    -74.55451830    -32.77338945
 C    102.55545756    -73.67173946    -33.80019703
 C    103.77670845    -72.92823273    -33.22805720
 C    104.67328833    -72.27945228    -34.29895797
 C    105.87437676    -71.50512203    -33.72502484
 C    107.03237972    -71.31626437    -34.72250262
 C    108.23340686    -70.54180450    -34.14861611
 C    109.40977707    -70.39247387    -35.13119105
 C    110.70788493    -69.87918377    -34.48076868
 C    111.84949561    -69.61935155    -35.48117473
 C    113.22515561    -69.41031774    -34.82127744
 C    113.22504060    -68.36499315    -33.69039439
 C    114.60955740    -68.12295197    -33.06100636
 C    114.58109829    -67.22237175    -31.81210870
 C    115.78884080    -67.41183287    -30.87559255
 C    115.55955347    -66.89111282    -29.44455168
 C    116.85111684    -66.48178460    -28.71248989
 C    116.61213824    -65.82757231    -27.33899235
 C    117.61258270    -64.70823908    -26.99576648
 C    117.49995186    -64.18901747    -25.55031734
 C    118.38671394    -62.96546303    -25.25338716
 C    118.33014934    -62.49140811    -23.78925862
 C    119.43326622    -61.48454619    -23.41380925
 C    119.19181687    -60.76079376    -22.07609305
 C    120.08692586    -59.52617113    -21.86141450
 C    119.63513805    -58.61893061    -20.70193082
 C    120.51043695    -57.36667686    -20.50876669
 C    119.92432239    -56.33872011    -19.52318329
 C    120.90630940    -55.22067935    -19.12658980
 C    120.24051190    -54.02151311    -18.42636554
 C    121.23047599    -52.93313484    -17.97138880
 C    120.56052616    -51.60745226    -17.56477728
 C    121.49211984    -50.64022476    -16.81098409
 C    120.84296170    -49.28724496    -16.46509483
 C    121.58298349    -48.49971578    -15.36793233
 C    120.90792263    -47.16843871    -14.98899409
 C    121.65868766    -46.37140419    -13.90608696
 C    121.04650506    -44.99022309    -13.60747143
 C    121.79022173    -44.19814291    -12.51609866
 C    121.25089950    -42.77198112    -12.29977928
 C    121.41762823    -42.25090690    -10.86023658
 C    120.78251327    -40.86926955    -10.61670582
 C    119.28376740    -40.79888558    -10.96370280
 C    118.53069719    -39.65527179    -10.25898103
 C    117.25631761    -39.19856858    -10.99313283
 C    116.58044431    -37.96488367    -10.36638182
 C    115.45873351    -37.35873495    -11.23006500
 C    115.17092192    -35.87548879    -10.93216348
 C    114.28899444    -35.18412175    -11.98848519
 C    113.68511180    -33.84647220    -11.52198822
 C    112.88617475    -33.10631536    -12.61077996
 C    112.29275704    -31.76272976    -12.14792667
 C    111.45744534    -31.04328813    -13.22322110
 C    110.80097021    -29.73785923    -12.73691276
 C    109.56549117    -29.95318527    -11.84314196
 C    108.75937069    -28.66997063    -11.56904350
 C    107.70108438    -28.81988719    -10.46037082
 C    106.74040323    -27.62178267    -10.34531737
 C    105.44376808    -27.93042839     -9.57390627
 C    104.60116297    -26.68500116     -9.24144929
 C    103.47166179    -26.94531094     -8.22751344
 C    102.44686149    -25.80048039     -8.12384410
 C    101.16842449    -26.17237292     -7.34996116
 C    100.25618580    -24.97256448     -7.03392275
 C     99.22484880    -25.24529126     -5.92326344
 C     98.35138632    -24.02804279     -5.56693572
 C     97.27923150    -24.31727086     -4.49996282
 C     96.00453966    -23.46552831     -4.64589205
 C     95.26836872    -23.20725250     -3.31813230
 C     94.11265293    -22.19553038     -3.42921497
 C     93.48300383    -21.81287743     -2.07691369
 C     92.78224282    -20.44155215     -2.07791834
 C     92.25748571    -20.00527765     -0.69737695
 C     91.95639709    -18.49888063     -0.58914722
 C     91.33086353    -18.08008538      0.75432525
 C     90.42277554    -16.83967906      0.66284650
 C     89.99499995    -16.27436311      2.02996974
 C     89.05477519    -15.05813993      1.93843524
 C     88.49321447    -14.59695264      3.29621130
 C     87.30583568    -13.62264247      3.18462580
 C     86.89806161    -12.97641104      4.52167675
 C     85.65290338    -12.07510130      4.42775265
 C     85.23377443    -11.44416199      5.76859064
 C     84.03193585    -10.48717491      5.66200842
 C     83.75645514     -9.68220425      6.94564879
 C     82.70945897     -8.56620822      6.77258265
 C     81.93645737     -8.22730541      8.06068723
 C     81.06498722     -6.96211994      7.95370360
 C     80.53557043     -6.44999522      9.30612592
 C     79.81555970     -5.09121882      9.22299203
 C     79.31224436     -4.56498516     10.57995621
 C     78.34582256     -3.37108466     10.46936455
 C     77.31847895     -3.28873481     11.61364756
 C     76.80753743     -1.86353784     11.89534305
 C     76.11655016     -1.70463743     13.26241556
 C     75.40334299     -0.35275040     13.45039691
 C     74.83542017     -0.13557390     14.86528138
 C     74.12374726      1.21705151     15.05376523
 C     73.65105657      1.48058664     16.49553940
 C     73.19334379      2.92884354     16.74980494
 C     72.99138009      3.26980007     18.23794449
 C     72.80827211      4.77322611     18.51683805
 C     72.36905084      5.09407858     19.95758035
 C     72.13500924      6.59305833     20.22193659
 C     71.99527449      6.95178944     21.71303893
 C     71.86989421      8.46243195     21.98477224
 C     71.73015155      8.82116251     23.47587398
 C     71.74360197     10.33467932     23.75992668
 C     71.46376898     10.69861890     25.22990678
 C     70.02409095     10.39788415     25.68650921
 C     69.87295056     10.22610612     27.20941725
 C     68.41250997     10.11624859     27.68548931
 C     68.25830826     10.00958998     29.21403299
 C     66.83981386      9.62653539     29.67527351
 C     65.85054793     10.80641695     29.70412501
 C     64.37030209     10.38396005     29.65937658
 C     63.38519559     11.56320340     29.55666182
 C     62.07463322     11.35444691     30.33797290
 C     61.27460066     12.64855120     30.57638847
 C     60.02663643     12.45987443     31.45876387
 C     59.28411070     13.76977692     31.78189079
 C     57.96322492     13.56853502     32.54763386
 C     57.24589254     14.88085497     32.91485395
 C     55.89743198     14.67852592     33.63061723
 C     54.83259963     15.73088362     33.26968048
 C     53.48117737     15.52309289     33.97825714
 C     52.42313239     16.58777344     33.63387920
 C     51.00987725     16.25550796     34.14760050
 C     50.04225797     17.45351668     34.13821923
 C     48.55971267     17.06238952     34.28202116
 C     47.62490696     18.24923575     34.58057487
 C     46.14440308     17.85603541     34.73901024
 C     45.22899104     19.01997412     35.16193754
 C     43.75310534     18.62088601     35.34657254
 C     42.82091269     19.80236198     35.67327024
 C     41.35131062     19.39831648     35.89376283
 C     40.53747591     20.41772616     36.71234513
 C     39.15769019     19.90184395     37.16140740
 C     38.38204790     20.88590463     38.05673059
 C     36.93097531     20.45904981     38.34618404
 C     36.30447526     21.15719024     39.56753478
 C     34.79010364     20.92008284     39.71605641
 C     34.28471645     20.98981934     41.16909482
 C     32.90421729     20.34198869     41.38389125
 C     32.41234594     20.38480339     42.84259940
 C     30.95176805     19.93185610     43.02467353
 C     30.46938570     19.94557100     44.48710957
 C     28.99290520     19.54493374     44.66344767
 C     28.41468774     19.87893724     46.05114584
 C     26.93904670     19.47565167     46.22847115
 C     26.41562692     19.63207825     47.66831921
 C     24.96086709     19.16468588     47.86019997
 C     24.43483559     19.32851242     49.29827220
 C     22.98692852     18.84216433     49.49481908
 C     22.28287205     19.45069891     50.72184400
 C     20.83963535     18.95383703     50.92628493
 C     20.10753287     19.62356200     52.10403466
 C     18.58556484     19.38867755     52.11056239
 C     17.81796808     20.28320475     53.10163066
 C     16.30455009     20.00341187     53.15531437
 C     15.56867476     20.75235540     54.28188930
 C     14.07885318     20.38403430     54.40983939
 C     13.44238703     20.80428003     55.74771247
 C     11.96816340     20.38547818     55.89893973
 C     11.16728159     21.25710472     56.88405673
 C      9.74271298     20.74183498     57.16100690
 C      8.87020524     20.60397361     55.89952979
 C      7.37423747     20.38635244     56.19333488
 C      6.65523712     19.50021080     55.15922102
 C      5.59724455     18.56068299     55.76711840
 C      4.53713862     18.07644451     54.76049607
 C      3.72832847     16.85704956     55.24060241
 C      2.76119946     16.29146777     54.18401417
 C      1.74683133     15.27642227     54.74288796
 C      0.80211584     14.68505861     53.68015485
 C      0.47614117     13.19486348     53.89148161
 C     -0.58547871     12.64234115     52.92231583
 C     -0.80221927     11.12157788     53.03141494
 C     -2.01322871     10.60267156     52.23404905
 C     -2.18748681      9.07338365     52.28417504
 C     -3.50131232      8.57175863     51.65661240
 C     -3.70564039      7.04917948     51.76432852
 C     -4.82504783      6.50183938     50.85937228
 C     -4.78594855      4.97414297     50.66907010
 C     -5.73120949      4.45550495     49.56948092
 C     -5.57002163      2.95529904     49.26125908
 C     -6.07992996      2.54385620     47.86759188
 C     -6.01258583      1.02913517     47.59799034
 C     -6.80137182      0.57857412     46.35444243
 C     -6.30478311     -0.74485156     45.74325988
 C     -7.27552221     -1.36633052     44.72197173
 C     -6.78931535     -2.70123780     44.12764401
 C     -7.76876017     -3.33222943     43.12060012
 C     -7.23751076     -4.61145131     42.44757304
 C     -8.18566549     -5.20132661     41.38707800
 C     -7.51621865     -6.21929873     40.44517902
 C     -8.44942305     -6.76641639     39.34909881
 C     -7.91438690     -8.02552322     38.64200171
 C     -8.96614497     -8.76014650     37.79010172
 C     -8.45849637    -10.07122166     37.16163149
 C     -9.46295787    -10.73589743     36.20201531
 C     -8.93602355    -12.01980437     35.53454007
 C     -9.96820259    -12.72866572     34.63803462
 C     -9.59526474    -14.17920047     34.27961267
 C    -10.63062505    -14.89021064     33.38849340
 C    -10.51648696    -16.42594094     33.39873803
 C    -10.99149404    -17.09804318     32.09710565
 C    -10.68688839    -18.60581769     32.02340754
 C    -10.99429370    -19.24077164     30.65448992
 C    -10.43878790    -20.66726231     30.48674705
 C    -10.53110663    -21.21032035     29.04863537
 C     -9.81201907    -22.55603109     28.83988744
 C     -9.83895051    -23.06162397     27.38549735
 C     -8.90284733    -24.25525238     27.11986215
 C     -8.63090244    -24.51788740     25.62698948
 C     -7.31070374    -25.26162966     25.35217531
 C     -7.04472924    -25.53519022     23.86018932
 C     -5.64963310    -26.11892097     23.56938838
 C     -5.39378115    -26.41825942     22.08058475
 C     -4.07221062    -27.16077766     21.80907415
 C     -3.93722336    -27.69360716     20.37050849
 C     -2.61876165    -28.44236107     20.10101581
 C     -2.34919960    -28.71946115     18.61032743
 C     -1.01654643    -29.44177540     18.33848619
 C     -0.90336376    -30.03530753     16.92197312
 C      0.28776644    -30.99389965     16.73782649
 C      0.30912036    -31.71197573     15.37565516
 C      1.60251490    -32.50271946     15.10462946
 C      1.51774820    -33.44469282     13.88926911
 C      2.82968261    -34.19036248     13.58201537
 C      2.70921744    -35.23070367     12.45295454
 C      4.04683751    -35.88307289     12.05699121
 C      3.93684306    -36.87575114     10.88477490
 C      5.27213689    -37.53793215     10.49733885
 C      5.12732764    -38.70476563      9.50278875
 C      6.46762851    -39.23876111      8.96423289
 C      6.32263306    -40.22656500      7.79170579
 C      7.60496817    -41.01983059      7.47874198
 C      7.51601136    -41.87578222      6.20162277
 C      8.83461245    -42.57579158      5.82363063
 C      8.90807068    -43.02022295      4.35098517
 C     10.34294585    -43.15561947      3.80839784
 C     10.49975696    -44.22602286      2.71238376
 C     11.96028730    -44.49789159      2.30675026
 C     12.17649308    -45.85890816      1.61937193
 C     13.52084638    -45.97963171      0.87792737
 C     13.73960237    -47.34273719      0.19551310
 C     14.95762923    -47.38360158     -0.74594358
 C     14.86487428    -48.45952271     -1.84384623
 C     16.12168103    -48.56235751     -2.72784951
 C     16.03404374    -49.64711254     -3.81744863
 C     17.00685559    -49.43488951     -4.99226713
 C     16.86501531    -50.47533588     -6.11874513
 C     17.98982845    -50.41862393     -7.16906849
 C     17.86016523    -51.47374463     -8.28329817
 C     19.17603709    -51.76123775     -9.02990981
 C     19.05748885    -52.85155895    -10.11099538
 C     20.40689035    -53.28754742    -10.71151984
 C     20.31934549    -54.53715707    -11.60729416
 C     21.57184021    -54.77821043    -12.47028329
 C     22.81539733    -55.19955247    -11.66552458
 C     23.99335543    -55.67507502    -12.53609509
 C     25.21128411    -56.16290156    -11.72969878
 C     26.11447124    -57.14868456    -12.49395325
 C     27.34258337    -57.62192393    -11.69433767
 C     28.18463833    -58.69157223    -12.41433488
 C     29.34417376    -59.24988097    -11.56854003
 C     30.71602737    -59.18375332    -12.26513518
 C     31.85275709    -59.85877781    -11.47533301
 C     33.26424683    -59.45968538    -11.94439800
 C     34.40078300    -60.10450000    -11.12947492
 C     35.81150456    -59.67552973    -11.57382748
 C     36.94446137    -60.52345459    -10.96634720
 C     38.34378039    -60.18155432    -11.51096679
 C     39.48005781    -61.00938315    -10.88233887
 C     40.76218476    -61.06137410    -11.73383603
 C     41.80693006    -62.07524689    -11.23167148
 C     43.24911405    -61.75653067    -11.66770507
 C     44.26439956    -62.86469654    -11.33190194
 C     45.60263951    -62.73672307    -12.08312536
 C     46.71497490    -63.65400437    -11.54191837
 C     48.10788748    -63.36428808    -12.13137492
 C     49.20680208    -64.32689192    -11.64415776
 C     50.59166250    -64.06135935    -12.26323294
 C     51.69430329    -65.01293786    -11.76295140
 C     52.98683977    -64.96845482    -12.59899608
 C     53.92383939    -66.16857259    -12.36802197
 C     55.36725596    -65.93874771    -12.85312931
 C     56.32405437    -67.10617415    -12.54775687
 C     56.04336204    -67.81209464    -11.20817182
 C     57.12711673    -68.82512387    -10.79483476
 C     56.64826093    -69.87243331     -9.77236712
 C     57.65127575    -71.01563263     -9.53017592
 C     56.99171092    -72.37539665     -9.23417585
 C     57.99254988    -73.49864783     -8.90519535
 C     57.34554578    -74.75416007     -8.29145704
 C     58.34765877    -75.87348132     -7.95309409
 C     57.68708701    -77.21005965     -7.56734375
 C     58.58151929    -78.44153659     -7.80198273
 C     57.94857207    -79.77068302     -7.34993452
 C     58.93336391    -80.95419561     -7.31702577
 C     58.35621059    -82.23176159     -6.67959405
 C     59.20986471    -83.49121290     -6.91762145
 C     58.82130374    -84.68822568     -6.03005129
 C     59.60889646    -85.97594742     -6.33512573
 C     59.17200713    -87.19105657     -5.49593715
 C     59.71381898    -88.53672382     -6.01287000
 C     59.45650115    -89.72179462     -5.06366257
 C     60.55842822    -89.92956751     -4.00811193
 C     60.80198208    -88.70444173     -3.10736316
 C     60.76743591    -89.01839643     -1.60010107
 C     61.16576139    -87.83120861     -0.70370724
 C     61.20091285    -88.16526953      0.79921248
 C     61.67597481    -87.00130341      1.68864994
 C     61.96900706    -87.40541564      3.14550457
 C     62.79745326    -86.36977130      3.92826744
 C     62.77562771    -86.57442022      5.45445303
 C     63.27147832    -85.35707371      6.25682431
 C     63.10631132    -85.50205286      7.78106212
 C     63.29861761    -84.18744365      8.55979244
 C     63.29669415    -84.35990086     10.09010444
 C     63.49772582    -83.04652194     10.86870708
 C     63.73968504    -83.24314678     12.37681663
 C     63.97534842    -81.93206868     13.14956302
 C     64.15864501    -82.12340892     14.66659673
 C     64.17601728    -80.80746031     15.46633260
 C     64.35836284    -80.99885358     16.98347422
 C     64.19507597    -79.70475920     17.80216656
 C     64.41075456    -79.88968514     19.31573358
 C     64.23980865    -78.59715094     20.13532668
 C     64.77965822    -78.69201772     21.57448016
 C     64.37156110    -77.51177013     22.47563073
 C     65.10162746    -77.47699738     23.83113579
 C     64.98702800    -76.13066126     24.56994972
 C     65.83680013    -76.04507103     25.85141827
 H     -0.36333333      0.00000000      1.02766186
 H     -0.36333333     -0.88998127     -0.51383093
 H     -0.36333333      0.88998127     -0.51383093
 H      1.88274777     -0.52778528     -0.88998127
 H      1.88274777     -0.83266839      0.61423719
 H      1.82362666     -0.86853059      1.94436973
 H      1.82362666      0.91132310      1.92468420
 H      3.80132883      1.34052780      0.97463345
 H      4.19289844     -0.38887854      0.81941234
 H      3.47307772      0.41818059      3.55834504
 H      3.75544458      1.18156550      3.40071946
 H      3.73958799     -1.56720758      3.44472006
 H      2.58800438     -0.30160343      3.93499347
 H      4.34029213      0.39673394      5.63309578
 H      5.38993385     -0.91137319      5.03696268
 H      3.51478749     -2.45419346      5.89579676
 H      2.62745497     -1.00017259      6.41225680
 H      3.98997650     -0.14323348      7.94236109
 H      5.17587132     -1.45568608      7.74389622
 H      3.65807872     -3.14649780      8.48577437
 H      2.37991311     -1.93254095      8.73248900
 H      3.51774761     -0.73314158     10.40232340
 H      4.90655913     -1.84306497     10.31549444
 H      3.29145935     -3.78349630     10.69648426
 H      2.34869399     -2.91147873     11.26200762
 H      5.33993193     -3.83467824     11.33208510
 H      4.20475256     -4.53800784     10.15524104
 H      2.93919539     -5.44564574     12.15075411
 H      4.14402934     -4.68855634     13.22007981
 H      5.92214279     -6.07711228     12.13787116
 H      4.62785981     -6.97946385     11.31394164
 H      3.42781229     -7.82608430     12.88982003
 H      4.44839426     -7.13705441     14.17508923
 H      6.39336300     -8.30880827     13.60144393
 H      5.56180084     -9.12398262     12.25524119
 H      3.99725895    -10.28724152     13.38590528
 H      4.56898795     -9.67524563     14.95652734
 H      6.71483799    -10.67868538     14.77144151
 H      6.29420172    -11.36791501     13.18515834
 H      4.38715149    -12.59371730     14.18272821
 H      5.07993981    -12.21805414     15.77871950
 H      7.14181750    -13.24523752     15.42593725
 H      6.67056414    -13.74263914     13.78314129
 H      4.95197635    -15.10948755     14.21937822
 H      5.10809423    -14.87500598     15.97690838
 H      7.32749086    -15.86920980     15.98007996
 H      7.22727338    -16.13047054     14.22225006
 H      5.22546597    -17.68055602     15.22525207
 H      5.74211154    -17.07623450     16.81777821
 H      7.94300591    -18.31893627     16.23539830
 H      7.19437481    -18.79154697     14.69122950
 H      5.47715125    -20.07927047     15.76959473
 H      6.14247020    -19.67295427     17.36975863
 H      8.21673705    -20.77144714     16.98056445
 H      7.69169636    -21.25825480     15.35095799
 H      5.90495667    -22.58146907     16.75783637
 H      6.67183462    -21.90460033     18.21454965
 H      8.53017317    -23.54177041     16.89246157
 H      7.20300286    -23.77458130     15.72941182
 H      6.03438719    -24.86007258     17.78909065
 H      7.50218238    -24.49576949     18.72777442
 H      8.46031462    -26.30258542     17.09875552
 H      6.95741121    -26.18986576     16.15173794
 H      5.76623244    -27.17796028     18.13076557
 H      7.31737367    -27.24939373     19.00089477
 H      7.96209616    -28.85237487     17.03527739
 H      6.28158033    -28.68547559     16.47289156
 H      5.39679862    -29.66035858     18.49595905
 H      7.04310535    -29.86902202     19.13969842
 H      7.33444370    -31.45371856     17.12256040
 H      5.65361467    -31.08869944     16.66447583
 H      4.24222924    -31.53726687     17.78850545
 H      5.28431570    -32.27422763     19.02915500
 H      6.30367665    -33.85236218     18.40644716
 H      5.62248184    -33.80617428     16.76263848
 H      3.46712187    -34.12810276     18.51421701
 H      4.76568826    -34.35705782     19.70986393
 H      5.97225604    -35.85297247     19.38127997
 H      5.13003075    -36.38005770     17.90442371
 H      3.10654156    -36.84024254     19.25181406
 H      3.96680451    -36.30850506     20.71655621
 H      5.59737238    -38.01374400     20.63442178
 H      4.86912316    -38.69493858     19.16000878
 H      2.81119732    -39.24687688     20.17759097
 H      3.37023375    -38.61423761     21.74459846
 H      4.90722820    -39.39804171     22.55633089
 H      5.02483663    -40.69105025     21.33872510
 H      2.85232999    -41.56539304     21.86183481
 H      2.62241684    -40.31801646     23.11061752
 H      4.58661788    -41.35927150     24.31035261
 H      4.71889253    -42.55369798     22.99729683
 H      2.42512060    -43.35508934     23.67907662
 H      2.40325131    -42.11814436     24.95882483
 H      4.08622958    -42.73532085     26.25318771
 H      4.72273707    -43.22012285     25.63987283
 H      5.69376501    -43.63323548     24.88732368
 H      4.67113960    -45.02943854     24.47124561
 H      4.58222201    -45.93829775     26.61967041
 H      5.60658431    -44.63470528     27.26743213
 H      7.31939157    -45.74138496     25.58110964
 H      6.02720373    -46.89334518     25.16697815
 H      6.19523906    -47.81326570     27.44296202
 H      7.26440817    -46.47958787     27.93939685
 H      8.60697199    -48.03956466     26.02641176
 H      7.12114983    -49.01813142     26.08124107
 H      7.96322868    -49.18154200     28.64340826
 H      9.43030498    -48.37250649     28.04222998
 H     10.46199419    -49.21240517     26.70165421
 H      9.42120377    -50.65365679     26.61324751
 H     10.08899358    -51.06773265     29.02919301
 H     11.08758050    -49.59552479     28.96840779
 H     12.53663315    -50.49526852     27.27561521
 H     11.60987964    -52.01479997     27.25515100
 H     12.49479647    -52.11367362     29.73333268
 H     13.30406420    -50.56006982     29.41763087
 H     14.46077993    -52.40579177     27.70958797
 H     13.32289832    -53.55563479     28.45211954
 H     15.09949547    -52.62268161     30.42137629
 H     15.77427966    -51.66936534     29.07820056
 H     16.50099197    -53.30432626     27.72186421
 H     15.96000642    -54.57911066     28.84013344
 H     17.65005983    -53.59807152     30.47342823
 H     18.07577329    -52.38366666     29.24369023
 H     18.76893129    -54.10270895     27.65242304
 H     18.63545686    -55.30687340     28.95643194
 H     20.00325563    -54.52447688     30.50893072
 H     20.58374349    -53.23456093     29.42845982
 H     21.38024535    -55.05681299     27.88374768
 H     20.76143959    -56.26723899     29.03275377
 H     22.03391870    -55.85158362     30.82772882
 H     22.91630218    -54.54664009     29.99900182
 H     23.67396178    -56.48718277     28.44180148
 H     22.69631486    -57.58551820     29.44486302
 H     24.70644182    -56.55207735     31.06817976
 H     25.18979470    -55.66626670     29.60190006
 H     26.57611974    -57.05656137     28.96108601
 H     25.33696061    -58.60440000     29.54198777
 H     27.14887212    -57.77939127     30.92964583
 H     27.49457895    -56.47838110     29.76511761
 H     28.14625974    -57.34425853     27.97526874
 H     28.02204760    -59.00589105     28.60122033
 H     29.67386400    -58.66625399     30.28910345
 H     29.90598124    -56.98059241     29.76667328
 H     30.64931737    -58.72384131     27.67951030
 H     30.16950703    -59.98662687     28.83857085
 H     32.18519417    -58.93988802     30.17789954
 H     32.38400774    -57.80350859     28.82239903
 H     32.89308923    -60.14665386     27.62626566
 H     32.59188885    -60.89582598     29.21254626
 H     34.79989651    -59.29902887     29.57322794
 H     34.59012667    -58.88559003     27.85470194
 H     35.01410738    -61.21595245     27.21858988
 H     35.22803633    -61.64938317     28.93166865
 H     37.13756471    -60.25262354     29.21965362
 H     37.05103528    -59.72929786     27.52056282
 H     37.43990229    -61.89346894     26.63385278
 H     37.56076744    -62.58252784     28.27057393
 H     39.50098616    -61.43720516     28.86301999
 H     39.47732464    -60.46921721     27.36946513
 H     40.13409675    -62.97625510     26.58341235
 H     39.64966769    -63.51487892     28.20929043
 H     41.84416110    -62.01069912     28.70318029
 H     41.90246726    -61.74539690     26.94406637
 H     42.28320349    -64.27708132     26.80823396
 H     42.18914715    -64.33922154     28.58462318
 H     44.30443269    -62.85514465     28.46064844
 H     44.18520410    -62.93547945     26.68650146
 H     44.51214986    -65.26603251     26.55138437
 H     44.66567174    -65.38914944     28.32043494
 H     46.65750982    -64.00542065     28.32502897
 H     46.56649910    -63.84097189     26.55501758
 H     46.84412752    -65.73664207     25.71288482
 H     46.93725298    -66.56373847     27.28625885
 H     49.09587728    -65.09483562     27.50986983
 H     48.72481597    -64.44038003     25.89671514
 H     48.96713493    -66.55184524     24.80941858
 H     49.35767208    -67.33875581     26.35748808
 H     51.41123040    -65.73058978     26.25973716
 H     50.77135458    -65.12238017     24.71412833
 H     51.36166064    -67.77923029     24.28230550
 H     51.86998049    -67.77910278     25.98814183
 H     53.61143914    -66.26099878     25.76952770
 H     53.31155237    -66.08537625     24.02382117
 H     53.95909692    -68.62951113     24.04848790
 H     54.17013782    -68.47710292     25.80931161
 H     56.06159315    -66.82207040     25.05203848
 H     55.59756214    -67.18531547     23.37245672
 H     56.23867599    -69.52768843     23.66220545
 H     56.71261127    -69.19738560     25.34581825
 H     58.43788240    -67.68800250     24.79265112
 H     58.11553025    -67.89218877     23.05407017
 H     58.72608880    -70.26524799     23.20095771
 H     59.05300075    -70.07716134     24.94050324
 H     60.88845666    -68.47191176     24.27159436
 H     60.46236538    -68.74245305     22.56469064
 H     61.15988080    -71.09518311     22.79289774
 H     61.46320921    -70.85277663     24.52999234
 H     63.17793598    -69.25893801     22.83997672
 H     62.29948927    -70.14763174     21.57237209
 H     62.91874406    -72.25845337     22.03542766
 H     63.93450671    -71.74230232     23.40293671
 H     64.99770063    -70.62784427     21.07221271
 H     63.63797096    -71.45697625     20.27726488
 H     64.10654877    -73.59549273     20.69685932
 H     65.59419155    -73.18145694     21.58216151
 H     66.03754898    -72.30900776     19.02262640
 H     64.39938327    -72.92019303     18.68926122
 H     64.69887156    -75.11974216     19.09407837
 H     66.41782847    -74.88840412     19.49399900
 H     67.18901369    -74.12947498     17.50981819
 H     65.57978415    -74.24253204     16.75757818
 H     65.62449980    -76.69554858     17.11321869
 H     67.23297364    -76.55073557     17.86162217
 H     67.96353710    -75.71303293     15.54430657
 H     66.28438704    -75.92572018     14.99341105
 H     65.52708891    -77.65759536     14.99890913
 H     67.00451999    -78.44919486     15.59793692
 H     68.23221620    -77.78350840     13.59707105
 H     66.77729891    -76.98017745     12.95977854
 H     65.32209157    -78.66065802     12.81215274
 H     66.58478992    -79.85058135     13.20957193
 H     67.63077137    -78.99599864     11.00911213
 H     66.36810227    -77.74369814     10.93376700
 H     65.13432508    -80.23613845     10.65046084
 H     66.79006140    -80.86634318     10.82264069
 H     67.85968974    -80.08064126      9.10863528
 H     66.42517113    -79.23780657      8.47613810
 H     65.40774681    -81.56441437      8.24099077
 H     66.91600775    -82.24628909      8.89556121
 H     67.66478580    -81.05392125      6.55067825
 H     65.94918498    -80.60394621      6.40066846
 H     64.81134748    -82.35198357      6.25590034
 H     66.23227805    -83.42033188      6.34452815
 H     66.47542195    -81.88751405      4.02918003
 H     64.93587341    -81.16923082      4.56033552
 H     63.94727173    -83.48785618      4.25706366
 H     65.55105774    -84.06721332      3.74668889
 H     65.77155520    -82.78095384      1.85113071
 H     64.17916386    -82.02688932      2.10400063
 H     63.78170878    -84.16767486      0.78677019
 H     65.59973938    -84.79023001      1.55381254
 H     65.32743613    -83.31815416     -0.47578345
 H     63.56297288    -83.37705296     -0.24891999
 H     63.84452114    -85.89575453     -0.69055689
 H     65.59268528    -85.61582024     -0.87447433
 H     64.91173167    -84.17651341     -2.88592650
 H     63.21251721    -84.57197669     -2.53301616
 H     64.09961707    -86.99370050     -3.09207249
 H     65.69521779    -86.25245308     -3.36203036
 H     64.85512305    -84.94044469     -5.22390214
 H     63.23489100    -85.64531575     -5.00879389
 H     64.93991002    -87.73015045     -5.68383527
 H     66.19128649    -86.46483480     -5.71988960
 H     66.15749615    -85.06289078     -6.87256224
 H     64.66316433    -85.59097183     -7.68272858
 H     66.04457934    -87.64717687     -8.36032883
 H     67.42689946    -86.94567116     -7.48548742
 H     67.75286338    -85.06440134     -8.68870736
 H     66.41311660    -85.45076192     -9.79508467
 H     68.00571275    -87.49314926    -10.32003814
 H     69.12823065    -86.81195827     -9.11828980
 H     69.51796233    -84.81241974    -10.32847782
 H     68.42557968    -85.34304486    -11.62978632
 H     69.99763767    -87.24377527    -12.05394890
 H     71.03930046    -86.65299577    -10.73706437
 H     71.31313091    -84.57834115    -12.24239308
 H     70.23684344    -85.36092659    -13.42452335
 H     72.18064234    -86.99292338    -13.68855211
 H     72.95634858    -86.29524147    -12.24640563
 H     73.29089358    -84.18158130    -13.51313860
 H     72.50762270    -84.91947957    -14.93097482
 H     74.07829141    -86.60081154    -15.27229603
 H     75.05028183    -86.04640176    -13.88805217
 H     75.55516469    -83.93568147    -14.79371386
 H     74.63004604    -84.29935691    -16.27025114
 H     76.39740648    -86.15411851    -16.58967522
 H     77.15555212    -85.61524868    -15.07207805
 H     77.11947362    -83.24598509    -16.32522709
 H     77.11284299    -83.70429068    -17.29638382
 H     78.18082913    -83.45836616    -14.54603956
 H     76.83185285    -82.57686286    -15.30200359
 H     79.25253566    -81.98533388    -16.64109548
 H     79.94157724    -83.11072219    -15.44652881
 H     79.40019953    -81.77956733    -13.57113915
 H     78.66798285    -80.53711984    -14.61442704
 H     80.05980027    -79.72184429    -15.86973469
 H     80.91331061    -80.54065002    -15.91949717
 H     81.60425787    -81.43746633    -16.33037215
 H     82.24370786    -81.36614124    -14.67076885
 H     83.06659179    -79.26721106    -14.64158679
 H     82.57277696    -78.96972378    -16.32560428
 H     84.01235148    -80.67897491    -17.19483724
 H     84.58650023    -81.06650416    -15.55519065
 H     85.46345096    -78.58055114    -15.74058593
 H     84.74841626    -78.54414721    -17.37020760
 H     86.10324164    -80.21315292    -18.28455498
 H     86.97004414    -80.42214456    -16.74402177
 H     87.75925876    -78.04534626    -17.00829476
 H     86.85425449    -77.94104995    -18.53746324
 H     88.34545817    -79.72540491    -19.45085542
 H     89.20732301    -79.78009907    -17.89442868
 H     89.64813495    -77.27188998    -18.98963923
 H     88.54607985    -77.81583801    -20.27721904
 H     90.00839080    -79.55279927    -21.01442028
 H     91.20569342    -79.11390902    -19.77260369
 H     91.67757267    -76.98707452    -20.52242702
 H     90.53825499    -77.14833456    -21.88044656
 H     92.01182190    -79.00832205    -22.72877268
 H     93.08340321    -78.76330464    -21.32879174
 H     93.69480592    -76.55605524    -21.93719074
 H     92.67054861    -76.63322461    -23.39087864
 H     93.66818239    -78.28553917    -24.53136441
 H     94.90654289    -78.51290671    -23.27317765
 H     95.60982928    -76.11910057    -23.84560430
 H     94.30962041    -76.07545723    -25.06043715
 H     95.32691578    -77.84763625    -26.35326241
 H     96.66672867    -77.95521724    -25.18638864
 H     96.83969814    -75.43165504    -26.26822635
 H     95.40637782    -75.90688599    -27.21057186
 H     96.28664888    -77.44732626    -28.53728853
 H     97.79924657    -77.56665352    -27.60665655
 H     98.04056964    -75.11747072    -28.63903558
 H     96.45898985    -75.39802800    -29.40595125
 H     97.72429421    -77.28147093    -30.65142432
 H     99.18633213    -76.81361109    -29.75041435
 H     99.26956451    -74.60711734    -30.63756104
 H     97.90512007    -74.97944265    -31.71827001
 H     99.18299745    -76.73363069    -32.82402762
 H    100.57681153    -76.39951462    -31.76860570
 H    100.86062162    -74.15891180    -32.50788826
 H     99.57541355    -74.32503316    -33.65608883
 H    102.41186436    -75.46765337    -32.85300205
 H    101.83416907    -74.20289244    -31.74173493
 H    102.00744072    -72.73484474    -33.90022620
 H    102.56202019    -74.19282292    -34.75755222
 H    104.48078179    -73.66797575    -32.84705719
 H    103.43862372    -72.29298593    -32.40936299
 H    104.07193686    -71.56703767    -34.86370732
 H    105.03103832    -73.06294026    -34.96698606
 H    106.48220159    -72.19776406    -33.14287710
 H    105.49502546    -70.71827966    -33.07304963
 H    106.65441393    -70.77075544    -35.58717705
 H    107.37801838    -72.30105485    -35.03686170
 H    108.61139915    -71.08721752    -33.28389276
 H    107.88769572    -69.55701269    -33.83434093
 H    109.05273450    -69.86491198    -36.01566776
 H    109.74831948    -71.38907177    -35.41453122
 H    111.00062842    -70.58089211    -33.69973945
 H    110.50648149    -68.90439573    -34.03655596
 H    111.51042848    -68.87596725    -36.20264079
 H    112.07114251    -70.55290592    -35.99832934
 H    113.46929466    -70.30415724    -34.24721553
 H    113.11546727    -69.55590700    -33.74662762
 H    112.52266347    -68.69034355    -32.92298740
 H    112.89517032    -67.41217169    -34.10441958
 H    115.28682316    -67.78110588    -33.84366358
 H    114.97118433    -69.06750361    -32.65462209
 H    113.94235510    -67.69296561    -31.06468075
 H    114.15968215    -66.25767441    -32.09471706
 H    116.69625621    -67.19021631    -31.43736062
 H    115.80895054    -68.45131017    -30.54820508
 H    114.70875446    -67.42285768    -29.01853706
 H    115.33214540    -65.82651726    -29.49952320
 H    117.44057428    -65.85516533    -29.38180911
 H    117.41119873    -67.38596973    -28.47404172
 H    115.95429207    -66.47599861    -26.76030266
 H    116.12579698    -64.86509283    -27.49775455
 H    117.53825767    -63.93559866    -27.76101322
 H    118.61684993    -65.13189810    -27.00353515
 H    117.67379211    -65.02405542    -24.87164865
 H    116.49096844    -63.80424477    -25.40198517
 H    118.09846885    -62.16096853    -25.92999884
 H    119.42480603    -63.24149485    -25.43851210
 H    118.65432536    -63.31281261    -23.15027149
 H    117.29819298    -62.23235496    -23.55249392
 H    119.33587259    -60.61248644    -24.06043609
 H    120.40077174    -61.95683952    -23.58402110
 H    119.12905666    -61.51041114    -21.28727435
 H    118.24574571    -60.22359413    -22.14292055
 H    119.89869790    -58.82135650    -22.67129508
 H    121.12791636    -59.84767859    -21.89415185
 H    119.43903758    -59.24617098    -19.83232509
 H    118.71649895    -58.11361825    -21.00002750
 H    120.48384358    -56.78449783    -21.42988577
 H    121.53274679    -57.68999162    -20.31267957
 H    119.80148990    -56.82374409    -18.55480118
 H    118.95065273    -56.02198671    -19.89701125
 H    121.20940416    -54.69383353    -20.03139201
 H    121.77976513    -55.67993493    -18.66370819
 H    119.74857525    -54.38200250    -17.52295770
 H    119.49611174    -53.60015506    -19.10195847
 H    121.76269653    -52.56551125    -18.84871097
 H    121.94057749    -53.38388293    -17.27807644
 H    119.87183301    -51.80898935    -16.74429904
 H    120.00378178    -51.22786516    -18.42154407
 H    122.34187545    -50.41165214    -17.45423362
 H    121.84400630    -51.13774710    -15.90724329
 H    119.96842769    -49.47590179    -15.84244014
 H    120.53145369    -48.80915723    -17.39380085
 H    122.60201815    -48.31412911    -15.70738179
 H    121.60625397    -49.10956145    -14.46480070
 H    119.95473789    -47.39170973    -14.50973540
 H    120.73105337    -46.60147991    -15.90298260
 H    122.71621496    -46.34792469    -14.16911684
 H    121.53263568    -46.88522858    -12.95309410
 H    120.01856217    -45.13549378    -13.27531205
 H    121.05182495    -44.40666577    -14.52808674
 H    122.82093122    -44.05346657    -12.83983730
 H    121.77684683    -44.78482315    -11.59755230
 H    120.20058143    -42.84197679    -12.01687899
 H    121.33855028    -42.22623245    -13.23923429
 H    122.46818058    -42.33904803    -10.58334145
 H    120.81414582    -42.87242323    -10.19870319
 H    120.21962690    -40.58904892    -11.50706267
 H    121.24658457    -40.15418319    -11.29596227
 H    118.73378179    -41.38634513    -10.22851092
 H    119.14066853    -41.23050605    -11.95432204
 H    118.99382353    -38.71144078    -10.54672572
 H    118.62705316    -39.79385582     -9.18212914
 H    116.58365359    -40.05228551    -11.07553749
 H    117.53784192    -38.86024237    -11.99031859
 H    117.27663355    -37.12795290    -10.42085574
 H    116.36112372    -38.18767729     -9.32217807
 H    114.69772858    -38.12273682    -11.38903866
 H    115.88522547    -37.06557503    -12.18936780
 H    116.08416749    -35.30706775    -11.10817498
 H    114.88335298    -35.78582144     -9.88461211
 H    113.33790322    -35.71400540    -12.04091446
 H    114.79431902    -35.24838698    -12.95213297
 H    114.50233297    -33.17298263    -11.26379960
 H    113.07650837    -34.03505438    -10.63760220
 H    112.12760294    -33.78517214    -13.00042373
 H    113.57238365    -32.83019405    -13.41138871
 H    113.11150836    -31.11904177    -11.82634922
 H    111.62820740    -31.95366365    -11.30530100
 H    110.63643605    -31.69837323    -13.51460956
 H    112.09696098    -30.85649979    -14.08590868
 H    111.58840098    -29.06118749    -12.40499692
 H    110.67088503    -29.80139838    -11.65656994
 H    109.87057117    -30.52948440    -10.96969734
 H    108.82598310    -30.51791236    -12.41086649
 H    108.42507718    -28.26464512    -12.52406134
 H    109.41581301    -27.95093735    -11.07896736
 H    108.20776608    -29.10956117     -9.53979348
 H    107.00520203    -29.60549510    -10.75476505
 H    106.22429323    -27.50356845    -11.29807960
 H    107.32974664    -26.72857333    -10.13807013
 H    105.71153641    -28.24250617     -8.56444721
 H    104.92869318    -28.74587081    -10.08169708
 H    104.24576770    -26.25202600    -10.17650368
 H    105.23969827    -25.96629163     -8.72780614
 H    103.91830812    -27.31349341     -7.30390706
 H    102.80975664    -27.70688670     -8.63980451
 H    101.99822765    -25.65207410     -9.10608809
 H    102.97405264    -24.89460639     -7.82457534
 H    101.45011732    -26.44186212     -6.33205905
 H    100.70917052    -27.03127051     -7.83932885
 H    100.11056581    -24.40177792     -7.95103644
 H    100.75537031    -24.34830268     -6.29283433
 H     99.76297145    -25.51540850     -5.01465974
 H     98.59736639    -26.08002087     -6.23566112
 H     97.81534019    -23.71662312     -6.46346923
 H     99.00588609    -23.22153033     -5.23637907
 H     97.78053597    -24.65653033     -3.59348787
 H     96.62884767    -25.10832447     -4.87323893
 H     95.57258418    -23.66044797     -5.62748300
 H     96.28453110    -22.41453556     -4.57434458
 H     95.95043276    -22.69052391     -2.64294328
 H     94.99035825    -24.16926066     -2.88760880
 H     93.30692913    -22.65690646     -4.00021521
 H     94.47687733    -21.31605308     -3.96021427
 H     94.25982897    -21.37814414     -1.44790680
 H     93.10088785    -22.71960287     -1.60793998
 H     92.00383689    -20.45497814     -2.84081017
 H     93.52092492    -19.67935368     -2.32591479
 H     93.10137069    -19.95844585     -0.00907112
 H     91.54565689    -20.75368037     -0.34910536
 H     91.20542689    -18.24483985     -1.33721609
 H     92.87518633    -17.95000583     -0.79569695
 H     92.02186626    -18.34974863      1.55300977
 H     90.39642894    -18.62645243      0.88244644
 H     89.61649255    -17.05610468     -0.03798707
 H     91.01705724    -16.00679661      0.28703260
 H     90.89302885    -16.00157904      2.58425570
 H     89.45735063    -17.05366917      2.57007646
 H     88.15825812    -15.35805372      1.39584067
 H     89.56680037    -14.26984882      1.38659528
 H     89.33095674    -14.33468256      3.94235548
 H     87.93958476    -15.42572802      3.73748845
 H     86.50650099    -14.11814131      2.63358592
 H     87.63561752    -12.74214627      2.63320004
 H     87.75527669    -12.42865050      4.91313645
 H     86.62578589    -13.77032988      5.21713258
 H     84.81879495    -12.67902408      4.07048469
 H     85.85872040    -11.27979263      3.71135648
 H     86.06443517    -10.84360095      6.13930505
 H     85.02288551    -12.24758263      6.47438178
 H     83.18357935    -11.04516786      5.26573187
 H     84.29302339     -9.68454751      4.97228198
 H     84.64383586     -9.09345036      7.17808011
 H     83.56412303    -10.38501643      7.75630494
 H     81.77433919     -9.02118573      6.44601495
 H     83.06570879     -7.87786762      6.00617983
 H     82.65904968     -8.04494015      8.85611370
 H     81.31556445     -9.08385081      8.32321715
 H     80.32692055     -7.11981061      7.16726146
 H     81.70854899     -6.12432697      7.68531730
 H     81.38926965     -6.22509726      9.94543691
 H     79.93851469     -7.23991654      9.76181084
 H     78.97170370     -5.19167637      8.54041212
 H     80.51641259     -4.35551642      8.82847055
 H     80.16890924     -4.45878265     11.24549832
 H     78.61816657     -5.29584654     10.99492327
 H     77.48268490     -3.68217042      9.88087578
 H     78.86149029     -2.55904683      9.95674252
 H     77.86055631     -3.20479822     12.55556411
 H     76.73069181     -4.20667061     11.61326661
 H     76.40603143     -1.45392179     10.96846246
 H     77.65027793     -1.25638516     12.22587910
 H     76.83096082     -1.97272027     14.04077859
 H     75.26705073     -2.38666005     13.29841361
 H     74.64810348     -0.25235557     12.67088799
 H     76.14191084      0.44195559     13.34523082
 H     75.66618693     -0.12968048     15.57089591
 H     74.16736634     -0.96496047     15.09749244
 H     73.30047993      1.27335952     14.34161335
 H     74.83915853      2.01267365     14.84574570
 H     74.52140178      1.45690448     17.15131251
 H     72.96002031      0.68712165     16.78011313
 H     72.36875530      3.15158332     16.07264853
 H     74.02917026      3.59500346     16.53597068
 H     73.93702916      3.11309929     18.75687869
 H     72.23762019      2.59569063     18.64478902
 H     71.93536594      5.12053220     17.96410547
 H     73.69532577      5.29812377     18.16227035
 H     73.21779950      4.92518223     20.62030181
 H     71.55751392      4.41814633     20.22706769
 H     71.35968643      6.94421789     19.54100965
 H     73.06427888      7.12585061     20.02021815
 H     72.79070170      6.44848171     22.26265414
 H     71.02778825      6.59176863     22.06297519
 H     70.99003064      8.83337320     21.45908918
 H     72.76052798      8.95577269     21.59555969
 H     72.61001184      8.45022014     24.00156175
 H     70.83951514      8.32782248     23.86508136
 H     70.91587901     10.79244302     23.21823756
 H     72.68626607     10.74335463     23.39596393
 H     72.22519727     10.22657989     25.85079818
 H     70.99088797      9.84241255     25.71094134
 H     69.83883047      9.33168424     25.55613927
 H     69.33911681     10.96537725     25.05653937
 H     70.20043261     11.14676999     27.69235984
 H     70.51226152      9.40219879     27.52652641
 H     67.95645600      9.25541268     27.19653501
 H     67.88619275     11.02354361     27.38899997
 H     68.70022464     10.89763778     29.66589692
 H     68.79646616      9.12394234     29.55184112
 H     66.58582257      8.66139571     29.23698842
 H     66.12457361     10.04346386     28.96625868
 H     65.78348346     11.22213124     28.69874747
 H     66.23966357     11.56337755     30.38507998
 H     64.16942887      9.74711303     30.52087285
 H     64.20279187      9.81856854     28.74265810
 H     63.61044909     12.11973497     28.64691819
 H     63.53144637     12.20843151     30.42291317
 H     62.32220450     11.20520074     31.38894104
 H     61.58287159     10.46227335     29.95029153
 H     61.03034289     13.08393497     29.60743072
 H     61.90191023     13.34076761     31.13801036
 H     60.34613644     12.07136773     32.42576040
 H     59.37105218     11.73584680     30.97493200
 H     58.97389268     14.22848069     30.84303211
 H     59.97356048     14.43546089     32.30114395
 H     58.18499642     13.05986368     33.48580808
 H     57.30750843     12.94339097     31.94155564
 H     57.02916692     15.42228252     31.99399228
 H     57.91546578     15.47505665     33.53670285
 H     56.07703404     14.11780363     34.54791414
 H     55.24429288     14.10280329     32.97483314
 H     54.65958604     15.68856730     32.19433141
 H     55.21842016     16.71459452     33.53717884
 H     53.64916340     15.56065587     35.05457945
 H     53.09816221     14.54003743     33.70439341
 H     52.30091667     16.61182657     32.55101967
 H     52.78550783     17.55567825     33.98020898
 H     51.02180184     16.29996826     35.23662809
 H     50.75794302     15.24433341     33.82798326
 H     49.95790775     17.81796154     33.11441994
 H     50.46096987     18.23724036     34.76953336
 H     48.43579779     16.52909461     35.22453993
 H     48.29727729     16.40335184     33.45443612
 H     47.71231621     18.96781374     33.76564832
 H     47.94846807     18.71461510     35.51161207
 H     46.06514820     17.14254925     35.55922739
 H     45.81421927     17.38400871     33.81366196
 H     45.29692368     19.80176787     34.40544320
 H     45.58504822     19.40650565     36.11688081
 H     43.70045474     17.84753769     36.11290164
 H     43.38523116     18.22149143     34.40145215
 H     42.88171355     20.52267615     34.85745731
 H     43.16804608     20.26794897     36.59567317
 H     41.31093500     18.69071661     36.72187649
 H     40.98846662     18.91629565     34.98596321
 H     40.48123901     21.34649836     36.14461315
 H     41.05939995     20.59745153     37.65223559
 H     39.30688829     19.01203905     37.77303405
 H     38.58385765     19.63971553     36.27252895
 H     38.32957186     21.84674452     37.54474136
 H     38.92902572     21.00215864     38.99235886
 H     36.95158228     19.48829159     38.84146561
 H     36.40359130     20.37119463     37.39631690
 H     36.31664880     22.23275415     39.39114289
 H     36.91098056     20.92571308     40.44313152
 H     34.61856918     19.84767606     39.80889839
 H     34.29546586     21.29077083     38.81826809
 H     34.51745915     21.97799543     41.56588047
 H     34.80901726     20.23186901     41.75109133
 H     32.96874764     19.29339378     41.09340106
 H     32.18308825     20.85219118     40.74532541
 H     32.47072060     21.41498980     43.19389467
 H     33.07003627     19.75781650     43.44462171
 H     30.91300447     18.84795258     42.91627356
 H     30.34894989     20.39680689     42.24458954
 H     30.56322790     20.96198810     44.86945745
 H     31.10948605     19.27929169     45.06542041
 H     28.86164010     18.53745087     44.26867211
 H     28.37829599     20.24152716     44.09326075
 H     28.56270944     20.94270012     46.23715154
 H     28.95898325     19.30038999     46.79755422
 H     26.85659486     18.40000270     46.07264754
 H     26.34815940     19.99811080     45.47614898
 H     26.52293194     20.67671195     47.96042548
 H     27.02277587     19.00739799     48.32348691
 H     24.90024763     18.11148244     47.58599606
 H     24.32269981     19.74983641     47.19805091
 H     24.49423294     20.38322488     49.56688636
 H     25.07226539     18.74740506     49.96467859
 H     22.94161374     17.78539701     49.23159027
 H     22.34055779     19.41110401     48.82652834
 H     22.26765939     20.53440085     50.60583240
 H     22.85619766     19.18849017     51.61102582
 H     20.86387275     17.87082793     51.04713124
 H     20.26078919     19.20746442     50.03819132
 H     20.07769230     20.69795852     51.92270160
 H     20.67093921     19.42445851     53.01564373
 H     18.40467780     18.31495326     52.16052254
 H     18.17381380     19.78367115     51.18183146
 H     18.00294872     21.32445657     52.83766704
 H     18.19899408     20.08935328     54.10429750
 H     16.15838737     18.96366232     53.44798710
 H     15.89112129     20.16206615     52.15931967
 H     15.82753914     21.80917620     54.21693523
 H     15.90827743     20.35317161     55.23762060
 H     14.00582287     19.31411689     54.60488631
 H     13.58619575     20.61566528     53.46552179
 H     13.53801777     21.88542305     55.84813422
 H     13.98703099     20.31480067     56.55509894
 H     11.91014532     19.30005518     55.81775586
 H     11.39760994     20.84136168     55.08978030
 H     11.19626517     22.28802753     56.53127051
 H     11.64350805     21.19439354     57.86251248
 H      9.81640953     19.73617695     57.57491600
 H      9.54009463     19.91303868     56.48266886
 H      9.36000283     19.90810094     55.21838403
 H      8.79462030     21.58301672     55.42638975
 H      7.01093826     21.23692760     56.77008057
 H      7.26975306     19.47593330     56.78352130
 H      7.14610919     18.52716186     55.14132205
 H      6.74732563     19.97166717     54.18077910
 H      4.84968585     19.16962629     56.27549232
 H      6.09045656     17.91168392     56.49074961
 H      4.99750579     17.33424109     54.10834873
 H      4.21298509     18.93093047     54.16646052
 H      3.22288165     17.12476998     56.16847594
 H      4.42232315     16.03773942     55.42822510
 H      3.34259714     15.99496722     53.31099404
 H      2.06101474     17.07852597     53.90404854
 H      1.15871113     15.77009466     55.51651721
 H      2.29950790     14.44551614     55.18134390
 H      1.40712552     14.18429923     52.92430875
 H      0.24936671     15.50370753     53.21930526
 H     -0.21963486     13.11125282     54.72634984
 H      1.40132291     12.67294012     54.13588855
 H     -0.22022575     12.77217727     51.90357502
 H     -1.50268811     13.21604326     53.05533017
 H     -1.11546041     10.89220579     54.04992780
 H      0.14493694     10.62447640     52.82192692
 H     -1.86486100     10.85325554     51.18367070
 H     -2.90759883     11.10378333     52.60430446
 H     -2.31013886      8.77635018     53.32572561
 H     -1.28695766      8.61232531     51.87849974
 H     -3.52425823      8.88531296     50.61293756
 H     -4.33338667      9.02926232     52.19181577
 H     -3.70411270      6.77697470     52.81979156
 H     -2.87470940      6.55535984     51.26054697
 H     -4.69612039      6.92258179     49.86214937
 H     -5.78346833      6.82231851     51.26781234
 H     -4.87644912      4.50431971     51.64844528
 H     -3.82621750      4.70840245     50.22590163
 H     -5.45099260      4.92560844     48.62683507
 H     -6.74999431      4.74250049     49.82988648
 H     -6.01467995      2.38773330     50.07872352
 H     -4.50522709      2.73047363     49.19989032
 H     -5.70513801      3.26312341     47.13938471
 H     -7.16949180      2.57256669     47.87902385
 H     -6.61762635      0.52021434     48.34834063
 H     -4.97443137      0.71026364     47.69102931
 H     -6.48892954      1.19218534     45.50948024
 H     -7.86268521      0.73702902     46.54576916
 H     -6.38549301     -1.52401137     46.50121497
 H     -5.25965337     -0.62060427     45.45977011
 H     -7.42681175     -0.65094783     43.91361595
 H     -8.22517239     -1.55504084     45.22262426
 H     -6.65104027     -3.40985136     44.94425092
 H     -5.83444023     -2.52791129     43.63138658
 H     -7.92043449     -2.62790409     42.30266325
 H     -8.71676795     -3.50840511     43.62887501
 H     -6.90626925     -5.29692133     43.22764350
 H     -6.38999636     -4.34078970     41.81784164
 H     -8.36200639     -4.44236136     40.62486042
 H     -9.12811559     -5.45437826     41.87272466
 H     -7.12341653     -7.03772279     41.04849366
 H     -6.69499462     -5.72104748     39.92997344
 H     -8.80400701     -5.92728865     38.75057158
 H     -9.29731229     -7.25226085     39.83194349
 H     -7.77156820     -8.80458548     39.39084403
 H     -6.95558107     -7.78066821     38.18501440
 H     -9.33419624     -8.07065840     37.03033569
 H     -9.78866934     -9.05611329     38.44122177
 H     -8.08215617    -10.71080253     37.96000757
 H     -7.64638736     -9.83051480     36.47560003
 H     -9.68500837    -10.03397456     35.39821319
 H    -10.37544735    -10.95282524     36.75735781
 H     -8.68537876    -12.73523128     36.31776516
 H     -8.03765823    -11.76898814     34.97050906
 H    -10.27464549    -12.03587591     33.85430314
 H    -10.83156632    -12.98999739     35.24992417
 H     -9.49794926    -14.74675104     35.20509419
 H     -8.63831753    -14.16812930     33.75785654
 H    -10.73265973    -14.32382295     32.46280776
 H    -11.58523999    -14.90173120     33.91449492
 H    -10.65040348    -16.77275932     34.42337620
 H     -9.52009892    -16.69791211     33.05039544
 H    -10.38855297    -16.71502313     31.27378450
 H    -12.03647220    -16.83308094     31.93612221
 H    -11.18025237    -19.09656933     32.86236810
 H     -9.60857904    -18.74207303     32.10576913
 H    -10.05747496    -19.59060444     30.22079918
 H    -12.05252568    -19.09392527     30.43843154
 H    -10.87346383    -21.29776440     31.26239127
 H     -9.35666762    -20.63065219     30.61234724
 H     -9.96886267    -20.54437459     28.39403780
 H    -11.57941494    -21.21342442     28.75007206
 H    -10.25602729    -23.28986269     29.51252991
 H     -8.75921071    -22.42443181     29.08963966
 H     -9.30943609    -22.34100688     26.76225945
 H    -10.87850218    -23.12538960     27.06399110
 H     -9.19950920    -25.07556863     27.77344688
 H     -7.88361821    -23.95117091     27.35820318
 H     -8.17673704    -23.62424008     25.19893778
 H     -9.58338745    -24.71300806     25.13424184
 H     -7.34389578    -26.22101985     25.86847829
 H     -6.49100426    -24.66321545     25.74978465
 H     -7.01528126    -24.57970564     23.33646990
 H     -7.86516426    -26.13789629     23.47066170
 H     -5.55111920    -27.05853335     24.11300919
 H     -4.90096423    -25.41203006     23.92701970
 H     -5.49993492    -25.48893220     21.52095783
 H     -6.14240512    -27.13420640     21.74134726
 H     -4.09312184    -28.10673550     22.35020861
 H     -3.25168811    -26.54733872     22.18127769
 H     -4.00301937    -26.84903654     19.68459935
 H     -4.76172373    -28.38084781     20.18077331
 H     -2.61530243    -29.35546294     20.69627457
 H     -1.79207100    -27.80326657     20.41124281
 H     -2.31487554    -27.76500739     18.08502762
 H     -3.17051569    -29.32003187     18.21936106
 H     -1.02908904    -30.39474030     18.86744799
 H     -0.20636392    -28.82285580     18.72402844
 H     -0.79154257    -29.21398686     16.21413953
 H     -1.82199711    -30.58009624     16.70421633
 H      0.17927581    -31.81537993     17.44599308
 H      1.20504380    -30.44632479     16.95430751
 H      0.35234218    -30.95686100     14.59077706
 H     -0.61178752    -32.28663068     15.27665838
 H      1.71720452    -33.25132585     15.88855213
 H      2.44224052    -31.80863577     15.13939608
 H      1.29063299    -32.84626791     13.00699574
 H      0.71082561    -34.15658571     14.06300584
 H      3.10027433    -34.78239522     14.45630213
 H      3.60703920    -33.45104257     13.38908325
 H      2.38638395    -34.71757633     11.54709646
 H      1.95731797    -35.96492379     12.74220873
 H      4.46048950    -36.37750111     12.93592965
 H      4.72719050    -35.09754833     11.72809766
 H      3.54643655    -36.34143267     10.01864181
 H      3.24110079    -37.66540434     11.16848344
 H      5.65346892    -38.07442610     11.36616572
 H      5.33945100    -37.56293981      9.40970683
 H      4.65689071    -38.32551747      8.59561736
 H      4.48723954    -39.46265580      9.95444096
 H      7.06474643    -39.58095521      9.80948633
 H      6.98479240    -38.42174707      8.46111305
 H      5.88200171    -39.69504260      6.94824390
 H      5.65639322    -41.03149532      8.10204701
 H      7.92620321    -41.52524946      8.38948883
 H      8.37495779    -40.31592186      7.16294378
 H      7.30768800    -41.21513051      5.36005240
 H      6.69545097    -42.58346743      6.31978495
 H      9.12832912    -43.22286002      6.65014920
 H      9.59698998    -41.81171927      5.67172933
 H      8.79540516    -42.13808286      3.72071908
 H      8.08650241    -43.71060224      4.15993016
 H     10.87083390    -43.89131572      4.41518053
 H     10.83653233    -42.18805360      3.89944007
 H      9.84267215    -43.96573212      1.88257156
 H     10.19790714    -45.18785157      3.12695849
 H     12.50533543    -44.82975239      3.19043060
 H     12.39342294    -43.56688825      1.94106419
 H     11.55966746    -45.89113167      0.72126959
 H     11.85969888    -46.64387496      2.30608042
 H     14.32451027    -45.82807760      1.59852137
 H     13.56363438    -45.20059088      0.11676736
 H     12.93601280    -47.49859300     -0.52424573
 H     13.69865348    -48.11904365      0.95956250
 H     15.84820764    -47.14440122     -0.16477813
 H     14.81680623    -46.63072117     -1.52146918
 H     13.91755637    -48.33350794     -2.36806857
 H     14.88849470    -49.43918468     -1.36655753
 H     16.97229280    -48.79780050     -2.08821976
 H     16.28364876    -47.59680543     -3.20699001
 H     15.18179325    -49.42112885     -4.45830779
 H     15.87755453    -50.60983341     -3.33084854
 H     18.02316635    -49.42603610     -4.59839652
 H     16.78620244    -48.47061706     -5.45007805
 H     15.84653824    -50.42667169     -6.50401939
 H     17.04716613    -51.46388103     -5.69720087
 H     18.94016009    -50.58871082     -6.66306433
 H     17.98987000    -49.42533642     -7.61793364
 H     16.90835590    -51.32007599     -8.79177131
 H     17.87073785    -52.46162407     -7.82277408
 H     19.91034309    -52.11530694     -8.30635628
 H     19.52631965    -50.83121569     -9.47763863
 H     18.50013731    -52.44048469    -10.95270627
 H     18.50964813    -53.69424709     -9.68927600
 H     21.03294031    -53.67057100     -9.90563251
 H     20.88224674    -52.41357638    -11.15684098
 H     19.63244429    -54.32425812    -12.42640390
 H     19.92810225    -55.36051801    -11.00971111
 H     22.38472680    -54.17122403    -12.07168210
 H     21.72027227    -53.90793909    -13.10957642
 H     22.58299207    -56.12207548    -11.13351039
 H     23.04109668    -54.41230051    -10.94622342
 H     24.14212298    -54.95062922    -13.33681132
 H     23.73361549    -56.64277277    -12.96527599
 H     24.89430850    -56.99326480    -11.09872861
 H     25.55824973    -55.34177004    -11.10243658
 H     26.47608608    -56.65395443    -13.39538367
 H     25.51670503    -58.01703265    -12.77098601
 H     26.99211416    -58.11186293    -10.78591536
 H     27.93684463    -56.74742217    -11.42938440
 H     28.53111715    -58.27550232    -13.36034664
 H     27.54849985    -59.55512923    -12.60849236
 H     28.92516885    -59.70920971    -10.67324567
 H     29.99044042    -58.41999410    -11.28266034
 H     30.84584003    -58.18090943    -12.67201699
 H     30.72282659    -59.90949593    -13.07837035
 H     31.59284773    -60.90717136    -11.32898378
 H     31.93625242    -59.36647256    -10.50643464
 H     33.36790928    -58.37976460    -11.83892193
 H     33.36673750    -59.73369356    -12.99440523
 H     34.45669248    -61.16017198    -11.39505129
 H     34.16048812    -60.00845041    -10.07063932
 H     35.88846474    -58.59299995    -11.47230693
 H     35.94026635    -59.95239602    -12.62018567
 H     36.79253046    -61.56131577    -11.26276105
 H     36.88798471    -60.44365100     -9.88074056
 H     38.54808521    -59.13253909    -11.29666189
 H     38.33932780    -60.33784080    -12.58969507
 H     39.24218899    -62.06609794    -11.00429088
 H     39.53231959    -60.76891516     -9.82048019
 H     41.11988220    -60.04179196    -11.87737975
 H     40.51391860    -61.49884314    -12.70083383
 H     41.35252100    -63.06600301    -11.23550965
 H     42.08323105    -61.80619312    -10.21217757
 H     43.45715330    -60.71377645    -11.42794830
 H     43.32165389    -61.90301280    -12.74537893
 H     43.94972429    -63.78078143    -11.83176985
 H     44.25877183    -63.01920482    -10.25292301
 H     45.99950101    -61.73668360    -11.90841986
 H     45.41219900    -62.87114922    -13.14790798
 H     46.37561562    -64.68689931    -11.61978565
 H     46.88483742    -63.40536667    -10.49433734
 H     48.37084519    -62.33247581    -11.89831554
 H     48.05544752    -63.49048707    -13.21277395
 H     48.92140996    -65.34156539    -11.92180697
 H     49.27160678    -64.25183735    -10.55867761
 H     50.89058569    -63.04399977    -12.01079599
 H     50.50728516    -64.15724512    -13.34572376
 H     51.40100676    -66.03454084    -12.00462166
 H     51.77584973    -64.90453637    -10.68142503
 H     53.37573886    -63.95047717    -12.57493343
 H     52.74041989    -65.23908499    -13.62570760
 H     53.47465013    -67.04793193    -12.82960204
 H     54.01649188    -66.32933092    -11.29393060
 H     55.77458356    -65.07863411    -12.32172661
 H     55.33989427    -65.72597178    -13.92180968
 H     55.93769255    -68.00208166    -13.03373452
 H     55.72646709    -67.98143196    -12.29297614
 H     55.02526190    -68.20067236    -11.23224369
 H     56.13296981    -67.07724785    -10.40812767
 H     58.07657644    -68.29631439    -10.71124772
 H     57.20140501    -69.58435782    -11.57338795
 H     55.81438731    -70.42178575    -10.20936448
 H     56.30970400    -69.34880138     -8.87833758
 H     58.58316164    -70.58269028     -9.16651452
 H     57.83124107    -71.52052139    -10.47928066
 H     56.36426871    -72.64421696    -10.08397106
 H     56.37171549    -72.26906537     -8.34400770
 H     58.56827294    -73.19909417     -8.02946106
 H     58.66263190    -73.62074532     -9.75618436
 H     56.61383913    -75.14353611     -8.99933533
 H     56.84087168    -74.46401982     -7.36992425
 H     59.07401368    -75.47981612     -7.24208337
 H     58.85864050    -76.16496209     -8.87071963
 H     57.07173744    -77.54217192     -8.40349347
 H     57.05492008    -77.04095591     -6.69563915
 H     59.48884509    -78.32404647     -7.20948297
 H     58.84091688    -78.48016888     -8.85996214
 H     57.01878813    -79.91240647     -7.90085764
 H     57.73235938    -79.70224123     -6.28378828
 H     59.79464986    -80.66674523     -6.71398449
 H     59.25661407    -81.15958497     -8.33752787
 H     57.53298684    -82.58332639     -7.30153043
 H     57.98057566    -81.98033825     -5.68773483
 H     60.20133033    -83.31732505     -6.49946007
 H     59.29193747    -83.65150927     -7.99264197
 H     57.77905405    -84.93804842     -6.22855617
 H     58.93151635    -84.39155515     -4.98700777
 H     60.66963805    -85.77151767     -6.18974427
 H     59.43062592    -86.24843633     -7.37535138
 H     58.11645971    -87.38056599     -5.69088795
 H     59.30882262    -86.94706573     -4.44244296
 H     60.80288402    -88.49170002     -6.00967862
 H     59.35907586    -88.67970569     -7.03356266
 H     58.38036563    -89.81816712     -4.91963244
 H     59.54959462    -89.36564577     -4.03770371
 H     61.25914281    -89.09738753     -4.07575470
 H     61.50118238    -90.10416408     -4.52660073
 H     59.98687332    -88.64161459     -2.38642595
 H     61.08805366    -87.86476920     -3.74077700
 H     61.53781298    -89.75936392     -1.38659148
 H     59.78839970    -89.43220485     -1.35854220
 H     60.47749812    -87.00870807     -0.89835189
 H     62.17880932    -87.52739818     -0.96739855
 H     61.92060913    -88.96893832      0.95494857
 H     60.67351770    -87.37791882      1.33775980
 H     61.00035727    -86.15887107      1.54049905
 H     62.68165829    -86.71976234      1.37650357
 H     62.74493778    -88.17091827      3.13940229
 H     61.05649900    -87.81644608      3.57734136
 H     62.19343542    -85.47101156      4.05273989
 H     63.68738147    -86.13164647      3.34566608
 H     63.17172356    -87.56611049      5.67299017
 H     61.74157086    -86.51332506      5.79370782
 H     62.63504652    -84.50555483      6.01605437
 H     64.29632381    -85.14166589      5.95451457
 H     63.74031023    -86.32216584      8.11804889
 H     62.06341143    -85.73877429      7.99182926
 H     62.56323574    -83.46663448      8.20237441
 H     64.30221257    -83.81312005      8.35785435
 H     64.10538705    -85.03927884     10.35947658
 H     62.34227018    -84.79627251     10.38464590
 H     62.69308869    -82.36212064     10.59990613
 H     64.45464070    -82.61609669     10.57349862
 H     64.63156626    -83.85677905     12.50371546
 H     62.87851185    -83.76247407     12.79726865
 H     63.09835769    -81.29726311     13.02303572
 H     64.84761536    -81.43564098     12.72434552
 H     65.11459662    -82.61875887     14.83655242
 H     63.35085598    -82.75738948     15.03217235
 H     63.29983962    -80.22351851     15.18450876
 H     65.07938643    -80.25771647     15.20212454
 H     65.30324260    -81.51525802     17.15267438
 H     63.53726295    -81.61341150     17.35254539
 H     63.19455114    -79.31056216     17.62423746
 H     64.93627192    -78.98439117     17.45604741
 H     65.41970911    -80.27048574     19.47416843
 H     63.68613873    -80.61859715     19.67866495
 H     63.22888240    -78.22177740     19.97650972
 H     64.96064957    -77.86398248     19.77345328
 H     65.84236752    -78.92969143     21.52693906
 H     64.25026054    -79.49531442     22.08687895
 H     63.28308706    -77.47450498     22.51962597
 H     64.74878837    -76.59231378     22.02797056
 H     66.17291770    -77.40923733     23.64180591
 H     64.88430412    -78.40421005     24.36136897
 H     63.93104451    -75.92400507     24.74399589
 H     65.40925664    -75.35324820     23.93319866
 H     66.78105872    -75.54820567     25.62870651
 H     66.03418209    -77.05011129     26.22429147
 H     65.29662167    -75.47631602     26.60827028
1502
Final Conformation Chain 1 (Simulation Frame 2)
 C      0.00000000      0.00000000      0.00000000
 C      1.54000000      0.00000000      0.00000000
 C      2.16637443     -1.37132633     -0.31419609
 C      3.70637291     -1.37180991     -0.31208846
 C      4.33197405     -2.75705232     -0.06444619
 C      5.73025917     -2.70690240      0.57889174
 C      6.37481497     -4.09022814      0.78518692
 C      7.87361777     -4.03701789      1.13498520
 C      8.54799784     -5.41928907      1.21333005
 C     10.06221241     -5.36280549      1.48821882
 C     10.91790040     -5.11288652      0.23245668
 C     12.42043219     -4.94010021      0.52253101
 C     13.03575006     -6.08791655      1.34442003
 C     14.51807842     -5.87606738      1.70417349
 C     15.10200190     -6.96645914      2.62160424
 C     16.62075173     -6.84789382      2.84730586
 C     17.26139127     -8.10256172      3.46939061
 C     18.79780840     -8.04375853      3.55636515
 C     19.42622764     -9.21325018      4.33673592
 C     20.94671955     -9.35421593      4.13715385
 C     21.77080853     -8.22639198      4.78560623
 C     23.24318684     -8.18837692      4.33587634
 C     23.84008304     -6.77052775      4.26503386
 C     25.34516880     -6.74003169      3.94040041
 C     25.84851337     -5.37678240      3.43069893
 C     27.36514034     -5.32738530      3.16801554
 C     27.89511755     -3.92405244      2.81961771
 C     29.39250951     -3.89111321      2.46138270
 C     29.79168232     -2.71964119      1.54491427
 C     31.14225737     -2.91481122      0.83115262
 C     31.65756962     -1.65524646      0.11035453
 C     33.17106743     -1.67115161     -0.17367262
 C     33.72846519     -0.32594770     -0.67500502
 C     35.23658101     -0.34961835     -0.98585283
 C     35.87356583      1.04739749     -1.10500442
 C     37.38139370      1.02373918     -1.41724696
 C     37.97022882      2.40292422     -1.76756371
 C     39.41634890      2.35108198     -2.29448789
 C     40.03270459      3.73525233     -2.56976617
 C     41.52533954      3.69259507     -2.94635780
 C     42.15104180      5.07938997     -3.18488785
 C     43.67740177      5.05144423     -3.38748177
 C     44.32486903      6.44666952     -3.46319530
 C     45.85271757      6.41866026     -3.65423019
 C     46.46897140      7.79270159     -3.97647492
 C     48.00721443      7.82077384     -3.90850182
 C     48.61285375      9.23329328     -4.00642958
 C     48.49127878      9.87152651     -5.40266662
 C     49.12396409     11.27155320     -5.50865992
 C     49.27676645     11.78211261     -6.95350611
 C     49.83711180     13.21286344     -7.05629299
 C     49.90537662     13.75694669     -8.49535981
 C     50.18292575     15.26932345     -8.58070048
 C     50.19892842     15.82312061    -10.01759039
 C     50.61206223     17.30355197    -10.11373324
 C     49.50316394     18.29109780     -9.70544680
 C     49.96551891     19.75841924     -9.63619617
 C     48.82641808     20.76266965     -9.38020709
 C     49.30337503     22.21322586     -9.18021018
 C     48.16885071     23.20944665     -8.87689733
 C     48.53222504     24.67847316     -9.16241477
 C     47.39943025     25.67519517     -8.85432193
 C     47.76676611     27.14532941     -9.12885733
 C     46.58611864     28.12347416     -8.98427375
 C     46.95525076     29.59461031     -9.25091935
 C     45.74719119     30.54944504     -9.27288979
 C     45.99613203     31.85682119    -10.04774208
 C     44.70993661     32.61003431    -10.43500342
 C     44.95116328     33.84906130    -11.31717223
 C     43.66017474     34.55179367    -11.77664564
 C     43.86726636     35.55049023    -12.93047328
 C     42.58288565     36.28065182    -13.36501932
 C     42.77375328     37.22030824    -14.57009830
 C     41.51205791     38.01830257    -14.94815894
 C     41.64305172     38.81210002    -16.26129497
 C     40.44164465     39.72723971    -16.56252649
 C     40.78728112     40.94753128    -17.43603889
 C     39.56597961     41.60481050    -18.10537187
 C     39.78946991     43.07311999    -18.51245825
 C     38.50397036     43.80882925    -18.93414866
 C     38.72251349     45.28601169    -19.31067351
 C     37.43993920     46.01701770    -19.74911781
 C     37.63831692     47.51900772    -20.02529212
 C     36.32487226     48.29837028    -20.22292089
 C     36.47789613     49.82564514    -20.09796010
 C     35.74549107     50.62038321    -21.19503540
 C     36.09068529     52.12102610    -21.21765972
 C     35.33469274     52.92149694    -22.29437775
 C     35.30833443     54.44052350    -22.04245800
 C     34.88590302     55.27150854    -23.26827021
 C     34.99671632     56.79354653    -23.06158019
 C     34.43709906     57.62667464    -24.22962388
 C     34.75380512     59.13074529    -24.13439393
 C     34.50515205     59.90716145    -25.44089674
 C     35.13758229     59.25744630    -26.68568677
 C     34.79799590     59.97278407    -28.00650961
 C     35.53534554     59.40538762    -29.23369207
 C     34.93994367     59.84936884    -30.58275742
 C     33.42366777     59.61056432    -30.70717529
 C     32.86849553     59.83541131    -32.12591685
 C     31.33522801     59.72900134    -32.22270334
 C     30.77623951     60.00009267    -33.63183121
 C     29.23804068     60.02820087    -33.70078257
 C     28.64983036     59.24374127    -34.88831436
 C     27.15053859     58.92225017    -34.74559897
 C     26.53309518     58.25054676    -35.98623516
 C     25.24498220     57.45874251    -35.69398360
 C     24.75570912     56.60042594    -36.87529834
 C     23.82321273     55.44512832    -36.46622882
 C     24.03753364     54.15133295    -37.27354542
 C     22.98365590     53.06174318    -37.00200199
 C     23.04955480     51.87013699    -37.97531182
 C     21.99044489     50.78438092    -37.70881615
 C     21.46968183     50.09150087    -38.98173527
 C     20.07272732     49.46242126    -38.82560406
 C     19.41171424     49.06601442    -40.15884197
 C     18.01408602     48.43840722    -40.00281453
 C     17.65573501     47.42523072    -41.10583672
 C     16.24261617     46.82780576    -40.97250045
 C     15.90289068     45.77716807    -42.04597473
 C     14.63380122     44.95930609    -41.74247230
 C     14.21557561     44.00729675    -42.87841489
 C     12.77208885     43.48439759    -42.75790581
 C     12.34035493     42.56474613    -43.91525063
 C     10.94454468     41.94046909    -43.73196965
 C     10.66048401     40.75437215    -44.67222683
 C      9.54437460     39.81589335    -44.17709316
 C      9.21720985     38.66537494    -45.14707801
 C      8.07438648     37.74987765    -44.67019284
 C      7.74588665     36.60053503    -45.64111992
 C      6.78728589     35.54449767    -45.06019851
 C      6.30161322     34.50619759    -46.08862206
 C      5.57118428     33.30195536    -45.46582657
 C      4.65342656     32.54989946    -46.44752545
 C      3.65546554     31.59538216    -45.76593134
 C      2.93572251     30.64275331    -46.73859173
 C      2.07241090     29.57324392    -46.04401076
 C      0.91035151     29.04847204    -46.90762668
 C     -0.08455712     28.15547159    -46.14322691
 C     -0.59971064     28.77330470    -44.83002506
 C     -1.82586688     28.05383953    -44.23798559
 C     -2.37536922     28.70515118    -42.95523842
 C     -3.14373360     27.73430163    -42.03945060
 C     -4.39567428     27.11748598    -42.69043677
 C     -5.30103414     26.35306406    -41.70677898
 C     -6.64584288     25.90722874    -42.31036849
 C     -7.50214035     25.04535749    -41.36404265
 C     -8.60549246     24.24072249    -42.07592511
 C     -9.54041179     23.47755976    -41.11931209
 C    -10.71846626     22.77684397    -41.82129860
 C    -11.24857978     21.54046788    -41.07166281
 C    -12.45677440     20.86752088    -41.74916416
 C    -13.10003202     19.74628170    -40.91212035
 C    -14.37994357     19.15661315    -41.53318188
 C    -15.10918712     18.14819148    -40.62604928
 C    -16.23764653     17.37317300    -41.33140431
 C    -16.99456083     16.39529431    -40.41356228
 C    -18.20807216     15.72177587    -41.08091764
 C    -18.66607155     14.42610175    -40.38588876
 C    -19.78929687     13.67976656    -41.12949394
 C    -20.32288067     12.44433726    -40.38075983
 C    -21.60596193     11.84876410    -40.98952504
 C    -22.13525612     10.60874717    -40.24534383
 C    -23.50646378     10.11657266    -40.74449692
 C    -24.14719632      9.03706982    -39.85245688
 C    -25.15590221      9.58882623    -38.82791929
 C    -25.96922850      8.50140809    -38.10154326
 C    -26.58064733      8.96382772    -36.76590293
 C    -27.59735460      7.97451656    -36.16659521
 C    -28.19563035      8.42872435    -34.82221379
 C    -29.51468314      7.72448796    -34.45377000
 C    -30.08800259      8.14352257    -33.08727272
 C    -31.44734348      7.50078279    -32.75458983
 C    -32.17263337      8.15124670    -31.56192421
 C    -33.47842183      7.44078038    -31.15973758
 C    -34.12364858      7.99554604    -29.87618100
 C    -33.15642626      8.09646832    -28.68207227
 C    -33.81926899      8.57788117    -27.37804727
 C    -32.82577573      8.84610134    -26.23234701
 C    -33.32338602      9.87445807    -25.19964840
 C    -32.20512743     10.48455973    -24.33427351
 C    -32.68503956     11.00586914    -22.96696928
 C    -31.54969225     11.50040702    -22.05153562
 C    -31.76308754     11.18048869    -20.56032313
 C    -30.73857728     11.84744417    -19.62376072
 C    -30.86614063     11.41991254    -18.14980540
 C    -29.91025214     12.16204268    -17.19737689
 C    -30.24186339     11.97407168    -15.70529751
 C    -29.10706629     12.39580642    -14.75347014
 C    -29.30688983     11.93507189    -13.29765619
 C    -28.07296499     12.14280441    -12.39994985
 C    -28.25850611     11.64377964    -10.95490703
 C    -26.96798701     11.66365304    -10.11480853
 C    -27.19567265     11.42152252     -8.61110242
 C    -25.91831821     11.04761001     -7.83640565
 C    -26.17335036     10.60931937     -6.38228739
 C    -24.98132944      9.88672592     -5.72765403
 C    -25.19168078      9.55349731     -4.23892605
 C    -24.02033571      8.78698669     -3.59704428
 C    -23.97616760      8.88261775     -2.06065114
 C    -22.80737422      8.11247162     -1.41846972
 C    -22.81272462      8.13580454      0.12134421
 C    -21.77823999      7.19436641      0.76565455
 C    -21.56250364      7.43706746      2.27102959
 C    -20.56926944      6.45993844      2.92700574
 C    -20.00473109      6.95036287      4.27325250
 C    -18.90793472      6.04273018      4.86048382
 C    -17.80033645      5.66958672      3.85769271
 C    -16.62100109      4.90232701      4.48385614
 C    -15.79484217      4.08821368      3.47080090
 C    -14.76230030      3.14633550      4.11757967
 C    -13.99931402      2.26661641      3.10983653
 C    -13.40896924      0.98218817      3.72084975
 C    -12.88561753     -0.02390316      2.67898449
 C    -11.95130719     -1.10037755      3.26196568
 C    -11.50929980     -2.16555471      2.24136435
 C    -10.58432332     -3.24856270      2.82712215
 C    -10.05406857     -4.25026809      1.78452145
 C     -9.03722960     -5.26069349      2.34726386
 C     -7.67239111     -4.64308588      2.70416264
 C     -6.55836524     -5.67973150      2.94062030
 C     -5.21913681     -5.06805141      3.39218942
 C     -4.05818243     -6.07802443      3.45334041
 C     -2.66351750     -5.42690355      3.50385109
 C     -1.52074913     -6.41608662      3.79914304
 C     -0.21820612     -5.74499067      4.27307544
 C      0.99826984     -6.68890154      4.30168526
 C      2.35505963     -5.96121319      4.33619803
 C      3.55789219     -6.89012949      4.58501187
 C      4.88456350     -6.14615356      4.82593312
 C      6.08338474     -7.07454618      5.09521883
 C      7.41831961     -6.33252882      5.29259949
 C      8.66122564     -7.18310254      4.97118242
 C      9.92394052     -6.76538614      5.74749689
 C     11.18666938     -7.55865882      5.36300466
 C     12.43570206     -7.18339022      6.18196182
 C     13.49132881     -8.30178035      6.26230914
 C     14.67678128     -7.97866242      7.19069334
 C     15.27018058     -9.20978415      7.90049372
 C     16.64553935     -8.95821418      8.54601740
 C     17.60637726    -10.15869919      8.46101007
 C     18.88684111     -9.99686104      9.30114145
 C     19.81505722    -11.22532388      9.27124327
 C     21.16798080    -11.00537423      9.97325462
 C     22.11305172    -12.21944451      9.90636429
 C     23.45222183    -12.01182668     10.63788206
 C     24.43685896    -13.18631475     10.48732479
 C     25.70470772    -13.05551346     11.35164563
 C     26.64584423    -14.27181721     11.27122638
 C     27.77835112    -14.25758390     12.31469442
 C     28.66717542    -15.51498541     12.29161175
 C     29.79079204    -15.50721326     13.34471445
 C     30.62204816    -16.80302246     13.38333808
 C     31.44769577    -16.97939638     14.67128150
 C     32.12226004    -18.35788944     14.79903092
 C     33.16714172    -18.44178744     15.92720795
 C     34.21655745    -19.55109494     15.72780012
 C     35.45430699    -19.41255481     16.63354994
 C     36.09534950    -20.75607693     17.02802784
 C     37.18959373    -20.63575097     18.10494530
 C     37.84929487    -21.97577819     18.48007389
 C     38.72966146    -21.90899386     19.74185616
 C     39.51833256    -23.20117364     20.02446775
 C     40.19312899    -23.23314525     21.40838523
 C     41.12370124    -24.44114067     21.62375084
 C     41.61432841    -24.60307162     23.07449664
 C     42.40529551    -25.90004523     23.32714359
 C     43.20229538    -25.90104570     24.64486519
 C     44.13731838    -27.11344611     24.81044678
 C     44.57269408    -27.37474116     26.26432879
 C     45.45055217    -28.62781886     26.43971822
 C     46.09447997    -28.75147061     27.83315542
 C     46.89466705    -30.05084724     28.04032926
 C     47.47708297    -30.20864495     29.45718901
 C     48.65549295    -29.26419394     29.75878844
 C     49.04404259    -29.20311416     31.24771370
 C     50.36180550    -28.45449829     31.52098130
 C     50.75634430    -28.40352477     33.00871140
 C     51.99961474    -27.54197440     33.29786461
 C     53.30564536    -28.11059720     32.71258508
 C     54.42853216    -27.06817783     32.55738489
 C     55.68331877    -27.60110885     31.84107833
 C     56.97030930    -26.82148725     32.16886722
 C     58.22327329    -27.34813073     31.44476233
 C     59.54890624    -26.96922467     32.13085815
 C     60.76545253    -27.76810466     31.62746379
 C     62.11152167    -27.28649517     32.19995848
 C     63.30029549    -28.20569735     31.86308439
 C     64.67810969    -27.55466336     32.08530678
 C     65.79080213    -28.11986552     31.18305291
 C     67.14210266    -27.39529187     31.32650995
 C     68.27032191    -27.99834085     30.46915750
 C     69.56724720    -27.16793231     30.46661763
 C     70.78002462    -27.90226031     29.86534121
 C     72.02428605    -27.01300018     29.68470370
 C     73.19700603    -27.71356924     28.97369679
 C     74.41334730    -26.80229462     28.72531704
 C     75.63176508    -27.53227691     28.13018346
 C     76.88543815    -26.64862492     27.99211469
 C     78.04360289    -27.31919129     27.23014674
 C     79.25686641    -26.39936500     26.99882182
 C     80.56406382    -27.15259256     26.68981827
 C     81.80500663    -26.24463595     26.60452042
 C     83.06665048    -26.95576338     26.08092461
 C     84.25222594    -26.01052925     25.81158601
 C     85.60553984    -26.73007798     25.66194946
 C     86.72276680    -25.84738667     25.07521275
 C     88.14113372    -26.26103719     25.50964172
 C     89.26316369    -25.43625169     24.85208744
 C     90.67326294    -25.76865125     25.37432365
 C     91.81025044    -25.31639009     24.43927325
 C     93.20023452    -25.84169556     24.84374625
 C     94.29463016    -25.59438789     23.78888270
 C     95.61635879    -26.33197834     24.07277311
 C     96.80895561    -25.82229957     23.24238744
 C     98.14208101    -26.52213381     23.56582008
 C     99.37613374    -25.83149072     22.95612672
 C    100.71233201    -26.51110902     23.30867905
 C    101.95074842    -25.78424923     22.75226227
 C    103.19367761    -26.68254282     22.61156520
 C    104.45909959    -25.93375523     22.15371766
 C    105.66049770    -26.85274081     21.86439417
 C    106.82601702    -26.15139508     21.14239773
 C    107.91312800    -27.11288252     20.62729423
 C    109.14409231    -26.40502198     20.03125705
 C    110.38853414    -27.30465597     19.91453859
 C    111.65392237    -26.56516553     19.44173152
 C    112.96701816    -27.30410038     19.76009409
 C    114.23261613    -26.45381612     19.54357970
 C    115.51475034    -27.28092119     19.33470404
 C    116.76651718    -26.43289713     19.04224039
 C    116.68165166    -25.62035578     17.73680009
 C    117.97896092    -24.87126454     17.37979729
 C    117.75351278    -23.57284265     16.58300765
 C    118.82805878    -22.49610108     16.82296283
 C    118.91669274    -21.43974445     15.70588867
 C    119.82710915    -20.24475877     16.04463809
 C    119.86327453    -19.15640513     14.95570356
 C    120.51161558    -17.83588826     15.41121324
 C    120.27254818    -16.65652701     14.45019616
 C    120.05287209    -15.30650196     15.15785058
 C    119.76028381    -14.13718065     14.19937274
 C    119.37618488    -12.82597164     14.90986478
 C    119.44253268    -11.58100946     14.00583649
 C    118.86320551    -10.30770838     14.64979642
 C    119.17982046     -9.01459522     13.87570770
 C    118.63082275     -7.73748874     14.53842978
 C    118.91160516     -6.44886628     13.74331130
 C    118.06112014     -5.24303729     14.18405122
 C    117.98410922     -4.11516588     13.13830967
 C    117.07867416     -2.93961009     13.55044548
 C    116.79238091     -1.94099422     12.41360665
 C    115.94932934     -0.72636631     12.84435378
 C    115.85575855      0.38094956     11.77819428
 C    114.63339060      1.30372830     11.93911659
 C    114.66327418      2.54703853     11.03088388
 C    113.47449341      3.50360503     11.23916451
 C    113.44572042      4.68996909     10.25767970
 C    112.09638512      5.43063944     10.20970388
 C    112.01882354      6.52146244      9.12541177
 C    110.58695738      6.99658864      8.81619599
 C    110.50601571      8.05967539      7.70493769
 C    109.11621000      8.70624946      7.55667414
 C    109.12802903     10.05179985      6.80770521
 C    107.73627293     10.69091737      6.64601492
 C    107.75522927     12.06628972      5.95348944
 C    106.35845552     12.67707081      5.73538496
 C    106.38214456     14.10322990      5.15477399
 C    105.14105564     14.94390456      5.50771081
 C    105.15203541     16.36079854      4.90447711
 C    104.16473024     17.33446386      5.57440573
 C    103.80675639     18.55730217      4.70946574
 C    102.60689522     19.36685750      5.23534912
 C    102.11387232     20.45730100      4.26609096
 C    100.90319269     21.25541920      4.78461017
 C    100.07038786     21.92225046      3.67403725
 C     98.87477330     22.74177811      4.19411441
 C     97.92934162     23.24248817      3.08639225
 C     96.61456429     23.84838324      3.61160814
 C     95.58853530     24.16971362      2.50906050
 C     94.12283995     23.98691552      2.94486091
 C     93.10196844     24.18925766      1.80974901
 C     91.66022160     23.80160506      2.18749431
 C     90.62071774     24.11513533      1.09537229
 C     89.16197607     23.89587381      1.53763593
 C     88.13326300     24.04987497      0.40201581
 C     86.71483359     23.57920275      0.77366843
 C     85.65853126     23.85549527     -0.31237385
 C     84.21348484     23.55819162      0.12927240
 C     83.15388402     23.86945201     -0.94402302
 C     81.71229209     23.92051488     -0.40475936
 C     80.64770874     24.18114210     -1.48657992
 C     79.20608161     24.23182094     -0.94737414
 C     78.12604142     24.22206200     -2.04510724
 C     76.69046474     24.06586930     -1.51001527
 C     75.60140941     24.19632953     -2.59100492
 C     74.17518656     23.92038216     -2.07978928
 C     73.09979806     23.94102234     -3.18192973
 C     71.70306525     23.50411597     -2.70250267
 C     70.56534713     23.86600299     -3.67524891
 C     69.19151076     23.29988360     -3.27067201
 C     68.20521500     23.15097486     -4.44397796
 C     66.74277072     22.94000030     -4.00998893
 C     65.81834858     22.45065384     -5.14029143
 C     64.34514494     22.29261038     -4.72041848
 C     63.47984003     21.53473995     -5.74437152
 C     62.13392664     21.03996787     -5.18283993
 C     61.19207611     20.44543231     -6.24634595
 C     59.84829150     19.94582584     -5.68399704
 C     58.95943306     19.23675774     -6.72262745
 C     58.00242135     18.19200970     -6.11911266
 C     57.17676594     17.42059628     -7.16544648
 C     56.40094943     16.22087661     -6.59065829
 C     55.98828153     15.17806134     -7.64604520
 C     54.92924210     14.17412356     -7.15396348
 C     54.39237998     13.24019443     -8.25448855
 C     53.70568999     11.97030530     -7.71835568
 C     53.28074812     10.97711510     -8.81589731
 C     52.65150687      9.67912168     -8.27657501
 C     52.43428874      8.59560620     -9.34914691
 C     51.41091820      7.51602023     -8.95064111
 C     51.00423140      6.58178055    -10.10537142
 C     49.79597677      5.68161233     -9.78690964
 C     49.48606412      4.63997927    -10.87803508
 C     48.31877054      3.69742262    -10.53074175
 C     47.01464356      4.42656491    -10.15764077
 C     45.86037474      3.48502035     -9.76679892
 C     44.53225003      4.20884485     -9.47738084
 C     43.29999472      3.28526275     -9.48933850
 C     41.97854752      3.99953079     -9.14992950
 C     40.73698859      3.09213477     -9.23217240
 C     39.41105273      3.81624344     -8.93357448
 C     38.75451321      3.39821175     -7.60473838
 C     37.27080800      3.79376442     -7.48744847
 C     36.65120172      3.49945483     -6.10865555
 C     35.21359820      4.02608973     -5.94266822
 C     34.56576891      3.66400907     -4.59329251
 C     33.04315485      3.44568995     -4.66801336
 C     32.42150055      2.91603755     -3.36240458
 C     30.91787234      2.60037712     -3.46757439
 C     30.29844278      2.06109016     -2.16485547
 C     28.76853059      1.89427554     -2.22090529
 C     28.23198157      0.74091824     -1.35287183
 C     26.69541731      0.64302210     -1.32146136
 C     26.15364668     -0.38150736     -0.30734895
 C     24.62498655     -0.33568548     -0.12652154
 C     24.07687932     -1.39858636      0.84374656
 C     22.57132767     -1.26175243      1.13732913
 C     22.09040406     -2.09045073      2.34297070
 C     20.58545363     -1.95116659      2.63847723
 C     20.18887719     -2.35136895      4.07171315
 C     18.72681479     -2.81463821      4.21083586
 C     18.24407599     -2.93566871      5.66820159
 C     16.87600523     -3.62637116      5.81957041
 C     15.68764675     -2.77550377      5.33436034
 C     14.31741834     -3.45670635      5.50767264
 C     13.11825273     -2.53165502      5.22859940
 C     11.77027565     -3.26860256      5.12151941
 C     10.58535698     -2.35660857      4.75296182
 C      9.20722101     -3.02526683      4.91182463
 C      8.01945884     -2.05901098      4.74698938
 C      6.64161115     -2.72520315      4.91823111
 C      5.45281355     -1.77575010      4.67969562
 C      4.07496849     -2.44161710      4.85221847
 C      2.99176481     -1.89451675      3.90408821
 C      1.56680851     -1.94416441      4.48601145
 C      0.45532219     -1.96386880      3.42026763
 C     -0.97045938     -1.97027468      4.00225207
 C     -2.08172743     -1.90744531      2.93795146
 C     -3.40263525     -1.30077205      3.44662628
 C     -4.41213991     -0.97313801      2.33076058
 C     -5.71500098     -0.32529717      2.83519619
 C     -6.77363118     -0.11064528      1.73755023
 C     -8.13644425      0.37246499      2.26759271
 C     -8.08503835      1.74063490      2.97262358
 C     -9.47000714      2.32802953      3.30190918
 C     -9.43284482      3.79370211      3.77310219
 C    -10.80822596      4.35712800      4.17618779
 C    -10.78626399      5.84846215      4.55964587
 C    -12.18258001      6.49045553      4.65836803
 C    -12.16505992      8.03034821      4.66322307
 C    -13.54879388      8.67183813      4.87622785
 C    -14.23092930      8.26594774      6.19590367
 C    -15.71880107      8.65479234      6.27737434
 C    -16.42261651      8.17373320      7.55988201
 C    -17.88752511      8.63319780      7.68044346
 C    -18.72124639      7.81184222      8.68138493
 C    -20.23338460      7.81700882      8.38981787
 C    -21.02342071      6.74243514      9.15971029
 C    -22.42423721      6.46248939      8.58443338
 C    -23.14816848      5.27610441      9.24776903
 C    -24.56806409      5.02665960      8.70622148
 C    -25.23744493      3.75720108      9.26479500
 C    -26.67623439      3.53506118      8.76266083
 C    -27.62041264      4.72390072      9.02109455
 C    -28.95622244      4.63996997      8.25940706
 C    -28.81366830      4.75482242      6.73032655
 C    -30.06900517      5.29873705      6.02330023
 C    -29.96132844      5.32407031      4.48727811
 C    -31.29753485      5.59184903      3.77002852
 H     -0.36333333      0.00000000      1.02766186
 H     -0.36333333     -0.88998127     -0.51383093
 H     -0.36333333      0.88998127     -0.51383093
 H      1.88274777     -0.43187720     -0.94026914
 H      1.88274777     -0.40224339     -0.95332273
 H      1.82362666     -1.68702029     -1.29956977
 H      1.82362666     -2.08454191      0.43543548
 H      4.04787044     -1.05683947      0.67395061
 H      4.05036978     -0.65823365     -1.06080407
 H      5.37368087     -2.72470464     -0.38366481
 H      3.98778663     -3.12042931      0.90384725
 H      5.65370458     -2.16896524      1.52380602
 H      6.42005475     -3.26224619     -0.05662013
 H      6.46187424     -4.57615473     -0.18661349
 H      5.72223071     -4.67984192      1.42907308
 H      7.99081020     -3.46370449      2.05459255
 H      8.39736899     -3.53249476      0.32304858
 H      9.38634993     -5.43161003      0.51682882
 H      8.03838346     -6.00647826      1.97726855
 H     10.21937517     -4.85047385      2.43738485
 H     10.47113006     -4.49139447      0.97681958
 H     10.61349619     -4.16260034     -0.20617101
 H     10.72821048     -5.91803765     -0.47736683
 H     12.57774467     -5.05388465      1.59510076
 H     12.55519241     -4.02486224      1.09896759
 H     12.89801604     -7.01730111      0.79181378
 H     12.50780528     -6.14938343      2.29604818
 H     14.60219117     -4.95646144      2.28326758
 H     15.08448581     -5.77551291      0.77833794
 H     14.84342757     -7.93980576      2.20466819
 H     14.65047457     -6.86223992      3.60819506
 H     16.82567596     -5.87613040      3.29650728
 H     17.11723004     -6.91257373      1.87909834
 H     17.07859018     -8.94643708      2.80414018
 H     16.78534402     -8.28902666      4.43204831
 H     19.07400790     -7.18128062      4.16295043
 H     19.19371306     -7.92073581      2.54828533
 H     19.14622398    -10.14410966      3.84358425
 H     19.02495821     -9.20398337      5.35014451
 H     21.34918421     -8.37745642      3.86870822
 H     21.12543334     -9.76278095      3.14255041
 H     21.56446676     -8.22298165      5.85589191
 H     21.45463746     -7.27782624      4.35160289
 H     23.26791303     -8.05277860      3.25462627
 H     23.70487374     -9.14166156      4.59315753
 H     23.77247208     -6.32030470      5.25540145
 H     23.25081761     -6.18545785      3.55894644
 H     25.49769036     -7.22470009      2.97606971
 H     25.87406410     -7.29629778      4.71431113
 H     25.64811707     -4.62879326      4.19780621
 H     25.29730076     -5.12480347      2.52473465
 H     27.60851549     -6.08350917      2.42159392
 H     27.88203348     -5.55704800      4.09977544
 H     27.66933194     -3.25625715      3.65098424
 H     27.38061738     -3.57598637      1.92393942
 H     29.55364192     -4.54152791      1.60167515
 H     29.95723079     -4.26890826      3.31370938
 H     29.53967237     -1.78754131      2.05066204
 H     29.21969570     -2.79749709      0.62032260
 H     31.08222763     -3.81891839      0.22527585
 H     31.91612657     -3.03609898      1.58912079
 H     31.98446841     -0.93871101      0.86388896
 H     30.83539886     -1.22862397     -0.46421356
 H     33.39387185     -2.53765358     -0.79627405
 H     33.69720410     -1.76163790      0.77663913
 H     33.44921497      0.44841567      0.03947429
 H     33.27713261     -0.10721908     -1.64276361
 H     35.41660024     -1.10255650     -1.75317103
 H     35.76988791     -0.62375018     -0.07561358
 H     35.72630354      1.57284802     -0.16143907
 H     35.36721635      1.58789156     -1.90473961
 H     37.52734109      0.50265559     -2.36343470
 H     37.88789094      0.47893955     -0.62053252
 H     37.80577044      3.07065801     -0.92187759
 H     37.44516466      2.78774728     -2.64181702
 H     39.47440216      1.57814169     -3.06083841
 H     40.07415554      2.09071405     -1.46527202
 H     40.02688323      4.30408964     -1.63998650
 H     39.41595165      4.24385883     -3.31073529
 H     41.63512713      3.08388149     -3.84386238
 H     42.07302646      3.23075635     -2.12486889
 H     42.04452267      5.66511029     -2.27182412
 H     41.60709918      5.56619115     -3.99436363
 H     43.89713522      4.42321653     -4.25070084
 H     44.13343402      4.61818852     -2.49729973
 H     44.04239841      7.00451507     -2.57038027
 H     43.93973783      6.95576101     -4.34671090
 H     46.07263463      5.88802242     -4.58059942
 H     46.29335277      5.88144170     -2.81438685
 H     46.23851871      8.47256701     -3.15624656
 H     46.01545232      8.16479819     -4.89515035
 H     48.39518175      7.09500503     -4.62323323
 H     48.31101788      7.53665872     -2.90098902
 H     48.22241671      9.83145955     -3.18310945
 H     47.85457340      9.90409691     -4.41032734
 H     47.43285893      9.99388708     -5.63261297
 H     48.94517518      9.19691513     -6.12859881
 H     50.18211715     11.18917332     -5.26041478
 H     48.63173439     11.92550859     -4.78883197
 H     48.28803221     11.81728237     -7.41096397
 H     49.90544332     11.07957334     -7.50059292
 H     50.88437865     13.19329237     -6.75471527
 H     49.27462849     13.85103617     -6.37478870
 H     48.90534534     13.71183845     -8.92664010
 H     50.57819578     13.12099736     -9.07067088
 H     51.03501205     15.49807717     -7.94060621
 H     49.30292454     15.80030998     -8.21772505
 H     49.22754926     15.62676944    -10.47142818
 H     50.97406863     15.30024712    -10.57782336
 H     51.61299314     17.40796153     -9.69500189
 H     50.41123111     17.77850030     -9.15342551
 H     49.21946527     18.08069641     -8.67425995
 H     48.64487814     18.13168595    -10.35815910
 H     50.33697589     20.04749652    -10.61933098
 H     50.77297717     19.82931881     -8.90744079
 H     48.35135873     20.50792521     -8.43282971
 H     48.09990116     20.66997074    -10.18747412
 H     49.83961152     22.52439504    -10.07671683
 H     49.97967072     22.23692102     -8.32571461
 H     47.66318909     22.88636925     -7.96693727
 H     47.46541392     23.19163506     -9.70933918
 H     48.79428886     24.76805887    -10.21664290
 H     49.39403832     24.94363475     -8.54998746
 H     47.01334241     25.45811256     -7.85837448
 H     46.60784475     25.53249250     -9.58993619
 H     48.13439996     27.22141263    -10.15216407
 H     48.55668534     27.43629843     -8.43642347
 H     46.20301399     28.05023278     -7.96644934
 H     46.51021522     28.70709480     -9.90172980
 H     47.34213992     29.67216069    -10.26699155
 H     47.73116509     29.88695262     -8.54339343
 H     45.24681433     30.49140734     -8.30626958
 H     45.06419719     30.22010050    -10.05592962
 H     46.25060866     31.60231297    -11.07660903
 H     46.83484644     32.37584211     -9.58376425
 H     44.83351052     33.65941939    -10.16738348
 H     44.10226162     31.95315001    -11.05736516
 H     45.35685884     33.51594233    -12.27244333
 H     45.67785764     34.48948644    -10.81730131
 H     43.10615953     34.86395671    -10.89136524
 H     43.06456508     33.83724744    -12.34477662
 H     44.28469589     35.01054567    -13.78036295
 H     44.57385009     36.31249747    -12.60155932
 H     42.19116198     36.82563404    -12.50615556
 H     41.85555393     35.53418714    -13.68420429
 H     43.13347955     36.62903297    -15.41217345
 H     43.52090949     37.96876801    -14.30615594
 H     41.21622369     38.61936692    -14.08833118
 H     40.71803049     37.31094880    -15.18747277
 H     41.85835122     38.10961117    -17.06643815
 H     42.47269036     39.51143994    -16.15774117
 H     40.33720389     40.43702152    -15.74191580
 H     39.54638173     39.10850127    -16.62390271
 H     41.19028345     40.58814981    -18.38289373
 H     41.54502940     41.53586897    -16.91856782
 H     38.87846929     41.92685710    -17.32324940
 H     39.07781247     40.86033435    -18.73429801
 H     40.53761086     43.09906946    -19.30474087
 H     40.16105330     43.61684899    -17.64390511
 H     37.92149870     44.02224075    -18.03788849
 H     37.93302777     43.15232365    -19.59074971
 H     39.42884610     45.32749304    -20.13981375
 H     39.14466783     45.80085950    -18.44764544
 H     36.72381034     45.97482352    -18.92846008
 H     37.02977593     45.49935385    -20.61623386
 H     38.38148218     47.62701063    -20.81531792
 H     38.00631363     47.98947603    -19.11351474
 H     35.72419200     48.19238657    -19.31956566
 H     35.79122844     47.86216481    -21.06734321
 H     37.19203652     50.16122354    -20.84995121
 H     36.86405071     50.05122720    -19.10392923
 H     34.67690747     50.42567945    -21.10382382
 H     36.09723671     50.26945617    -22.16520302
 H     37.16383659     52.22347643    -21.37875049
 H     35.82605943     52.54821791    -20.25040572
 H     34.26529477     52.81852984    -22.11029689
 H     35.57786753     52.49912321    -23.26934772
 H     36.33674985     54.79998152    -22.00707936
 H     34.82736539     54.62019962    -21.08095643
 H     33.88643312     54.95640175    -23.56804950
 H     35.58819830     55.07037606    -24.07723688
 H     36.03372345     57.03286324    -22.82611525
 H     34.35980402     57.07272856    -22.22223513
 H     33.38456272     57.37388464    -24.35754761
 H     34.98660967     57.36257384    -25.13316627
 H     35.83681625     59.25238323    -24.11461742
 H     34.32830157     59.51251721    -23.20633308
 H     33.45547214     59.79442546    -25.71212116
 H     34.16690539     59.20163960    -26.19979603
 H     34.72242068     58.25587045    -26.79787704
 H     36.21382290     59.18899229    -26.52719325
 H     35.15163413     61.00166385    -27.93982825
 H     33.71505118     59.96810688    -28.13023858
 H     35.27090532     58.35292012    -29.33608120
 H     36.60781352     59.49541646    -29.06104434
 H     35.05234324     60.93020864    -30.66791409
 H     34.09728934     60.51163260    -30.38416136
 H     32.92979246     60.09819958    -29.86669982
 H     33.24101071     58.53689529    -30.66277693
 H     33.37971936     59.15405332    -32.80599148
 H     33.07839016     60.86464817    -32.41697650
 H     30.89734016     60.47623130    -31.56088644
 H     31.03924854     58.73322846    -31.89265407
 H     31.21411405     59.27641810    -34.31933467
 H     31.06936896     61.00700741    -33.92898075
 H     28.87928056     60.81158609    -33.03317582
 H     28.86209686     59.06250482    -33.36285156
 H     28.97028923     58.20521048    -34.80548991
 H     29.04215021     59.67260043    -35.81041249
 H     26.60592866     59.86179291    -34.65200701
 H     27.01156186     58.33007384    -33.84110316
 H     27.06714107     57.31888498    -36.17305406
 H     26.66070229     58.91944339    -36.83734839
 H     24.50921493     58.14427038    -35.27350996
 H     25.47754442     56.68310268    -34.96432774
 H     25.54266803     55.89166572    -37.13308631
 H     24.56812178     57.25928180    -37.72313084
 H     22.95208729     55.86843537    -35.96617722
 H     24.36178661     54.79899564    -35.77301116
 H     25.09681975     53.89683393    -37.23828632
 H     23.74310202     54.33890970    -38.30612713
 H     22.02264882     53.41323407    -37.37752768
 H     22.91877867     52.90852465    -35.92477637
 H     24.03819328     51.41785869    -37.89696446
 H     22.90108754     52.24587212    -38.98767568
 H     21.00384716     51.24032599    -37.79151450
 H     22.13294570     50.40785546    -36.69588867
 H     22.31522430     49.62808265    -39.49006734
 H     21.02806234     50.84969494    -39.62842993
 H     19.37064552     50.25020861    -38.55252490
 H     20.11740050     48.72250355    -38.02646322
 H     20.05775377     48.34584096    -40.66092075
 H     19.31785339     49.96076285    -40.77424054
 H     17.36861703     49.15947385    -39.50128419
 H     18.10687085     47.54387037    -39.38694538
 H     18.39492708     46.62435161    -41.08887414
 H     17.69631521     47.93681625    -42.06746737
 H     15.52073223     47.64368636    -41.00886566
 H     16.17310519     46.32386457    -40.00849241
 H     15.79127482     44.81002778    -41.55578950
 H     15.98458858     46.24888349    -43.02521423
 H     13.79351747     45.64860658    -41.65947796
 H     14.77678087     44.44465779    -40.79231760
 H     15.03510061     43.31264422    -43.06263388
 H     14.03445588     44.60129818    -43.77421506
 H     12.09633731     44.33964546    -42.76121215
 H     12.67858440     42.95111215    -41.81188068
 H     13.01403413     41.70827809    -43.94206169
 H     12.42579640     43.12352994    -44.84721651
 H     10.21684129     42.74737147    -43.64561953
 H     10.94889920     41.35518688    -42.81244489
 H     11.40797733     39.98310220    -44.48649476
 H     10.74713916     41.10410722    -45.70095238
 H      8.62851210     40.39764778    -44.07289301
 H      9.83594887     39.41992745    -43.20431597
 H     10.12112571     38.07457147    -45.29535939
 H      8.90524112     39.09708457    -46.09807870
 H      7.17823026     38.35749439    -44.54447124
 H      8.35855202     37.31859785    -43.71032427
 H      8.64166603     35.99265553    -45.76824905
 H      7.46109624     37.03295980    -46.60028791
 H      5.85544691     36.04021729    -44.78809897
 H      7.24635858     35.11878521    -44.16794229
 H      7.17293234     33.99198880    -46.49419857
 H      5.78513321     35.03371470    -46.89054107
 H      4.70499425     33.67252647    -44.91765517
 H      6.25373307     32.80687745    -44.77508421
 H      5.28001478     31.99861031    -47.14864418
 H      4.05859422     33.28377368    -46.99131137
 H      3.02989186     32.17882710    -45.09039484
 H      4.22086249     30.86002993    -45.19349498
 H      3.68819514     30.04320962    -47.25087320
 H      2.39199751     31.24371391    -47.46750153
 H      1.31942510     30.07968873    -45.44016803
 H      2.71767684     28.97910334    -45.39691816
 H      1.32741880     28.61500719    -47.81661683
 H      0.26913301     29.89065481    -47.16775553
 H      0.22875889     28.10805435    -45.10030568
 H      0.45972551     27.29949346    -45.74428097
 H     -1.09544709     29.71502807    -45.06561466
 H      0.25598727     28.96516351    -44.18266790
 H     -1.55423853     27.01600062    -44.04509066
 H     -2.63096234     28.08830020    -44.97197045
 H     -2.65902485     29.73185662    -43.18657246
 H     -1.58401848     28.70694301    -42.20566467
 H     -2.46925809     26.92758981    -41.75239863
 H     -3.41419105     26.85425934    -42.62295582
 H     -4.08543342     26.57386814    -43.58281015
 H     -5.06874364     27.92673634    -42.97361780
 H     -5.62466437     27.04566137    -40.92981537
 H     -4.71736345     25.54971740    -41.25726515
 H     -6.44102270     25.25887699    -43.16230082
 H     -7.18038266     26.79461681    -42.64935175
 H     -7.70587956     25.62436340    -40.46329713
 H     -6.93186991     24.15419877    -41.10188283
 H     -8.13335371     23.58288225    -42.80560396
 H     -9.26299693     24.94150724    -42.59040408
 H    -10.01658080     24.20008430    -40.45649887
 H     -8.93786725     22.78615195    -40.53024899
 H    -10.31426007     22.06775050    -42.54372770
 H    -11.30509735     23.53279154    -42.34332086
 H    -11.64330501     21.86628770    -40.10930454
 H    -10.41671080     20.85495718    -40.90989424
 H    -12.15984478     20.55931343    -42.75163161
 H    -13.26246995     21.59847057    -41.81748127
 H    -13.43152720     20.17255215    -39.96528116
 H    -12.34466320     18.98365653    -40.72259253
 H    -14.12998282     18.75183902    -42.51388445
 H    -15.10758734     19.96022605    -41.64649938
 H    -15.37960083     18.65407596    -39.69919583
 H    -14.42560584     17.32811548    -40.40629487
 H    -15.80643037     16.82893932    -42.17161995
 H    -16.96839534     18.09252969    -41.70104216
 H    -17.43071749     16.96396805    -39.59229646
 H    -16.27963297     15.67441404    -40.01693931
 H    -17.85735571     15.17092782    -41.95365151
 H    -18.90137448     16.50098616    -41.39756131
 H    -18.93012368     14.66471576    -39.35562674
 H    -17.83515694     13.72068278    -40.39395050
 H    -19.36455679     13.22490676    -42.02436735
 H    -20.55073322     14.40483131    -41.41688879
 H    -20.70859439     12.76930527    -39.41446758
 H    -19.49475744     11.75240072    -40.22734620
 H    -21.39501737     11.56074354    -42.01940200
 H    -22.37925631     12.61687032    -40.97818320
 H    -22.25434244     10.86561108    -39.19275683
 H    -21.39982825      9.81024502    -40.34352816
 H    -23.41759784      9.86942812    -41.80238274
 H    -24.22701949     10.92482523    -40.61948790
 H    -24.10402712      9.37742334    -38.81785749
 H    -23.47146558      8.18290111    -39.80905446
 H    -25.95044823     10.10083127    -39.37073368
 H    -24.63744751     10.30075908    -38.18569164
 H    -25.27364784      7.84515199    -37.57847972
 H    -26.51821537      7.92778744    -38.84831818
 H    -27.23949524      9.80905067    -36.96494464
 H    -25.77030774      9.28145191    -36.10972869
 H    -27.09276910      7.02259842    -36.00123097
 H    -28.40602903      7.83719747    -36.88443164
 H    -28.69681587      9.38444807    -34.97552798
 H    -27.38049462      8.55607650    -34.10986895
 H    -29.32742850      6.65200455    -34.40071312
 H    -30.24273860      7.92778781    -35.23907531
 H    -30.26696922      9.21857110    -33.10575503
 H    -29.34951037      7.91126706    -32.31994839
 H    -31.32416642      6.41776790    -32.75707138
 H    -32.16027439      7.78714572    -33.52778178
 H    -32.33855349      9.20324852    -31.79400757
 H    -31.53098319      8.06953883    -30.68459367
 H    -33.24065942      6.41031500    -30.89571081
 H    -34.15173378      7.45013642    -32.01686271
 H    -34.34209099      9.05209051    -30.03141210
 H    -33.53332972      8.84634240    -29.53593228
 H    -32.33260479      8.75267943    -28.96279484
 H    -32.77042317      7.09973738    -28.46846264
 H    -34.61286984      7.87737832    -27.11805986
 H    -34.24871001      9.56386704    -27.55556424
 H    -32.12150833      9.61025790    -26.56124242
 H    -32.28729011      7.92198578    -26.02224305
 H    -34.25296945      9.50398188    -24.76753494
 H    -33.51258128     10.81526661    -25.71654727
 H    -31.49218572     10.97891928    -24.99413922
 H    -31.70567871      9.67638237    -23.79995122
 H    -33.30798107     10.23870087    -22.50708157
 H    -33.27857470     11.90506369    -23.13209108
 H    -30.94025319     12.20834760    -22.61323320
 H    -30.94057978     10.64246410    -21.76690263
 H    -31.84583309     10.09923028    -20.45017137
 H    -32.69230690     11.65065860    -20.23846658
 H    -30.80580520     12.92734300    -19.75566564
 H    -29.74254575     11.50799919    -19.90801116
 H    -30.73003962     10.33992644    -18.09317895
 H    -31.86664532     11.67870224    -17.80322460
 H    -30.12039923     13.22951352    -17.26404179
 H    -28.88718846     11.97217197    -17.52201487
 H    -30.19646532     10.90952431    -15.47556306
 H    -31.25327570     12.34076185    -15.53013057
 H    -28.88892457     13.44973118    -14.92597170
 H    -28.22495818     11.79934539    -14.98632100
 H    -29.37522561     10.84725264    -13.28873982
 H    -30.23992325     12.36077225    -12.92843018
 H    -27.70492855     13.15736840    -12.55262303
 H    -27.30612182     11.42900207    -12.70084481
 H    -28.48369135     10.57776746    -10.98668190
 H    -29.09834973     12.17951005    -10.51246423
 H    -26.59824921     12.68839302    -10.07872610
 H    -26.23023316     11.02824367    -10.60478217
 H    -27.66939521     10.44751431     -8.48864856
 H    -27.86106289     12.19894852     -8.23564984
 H    -25.19979084     11.85964029     -7.94787416
 H    -25.50761028     10.13670338     -8.27191467
 H    -26.83209631      9.74101622     -6.39654963
 H    -26.66435787     11.42931944     -5.85825352
 H    -24.12470510     10.56067125     -5.73726872
 H    -24.75222627      8.99946750     -6.31789485
 H    -26.07006841      8.91403432     -4.15162052
 H    -25.36549654     10.48510169     -3.70040831
 H    -23.12110207      9.39622814     -3.68816897
 H    -23.88287911      7.85265267     -4.14131040
 H    -24.90800451      8.47843843     -1.66515266
 H    -23.89005436      9.93366413     -1.78499551
 H    -21.87609295      8.59994035     -1.70689548
 H    -22.81735017      7.09220484     -1.80194878
 H    -23.82164363      7.90624704      0.46410621
 H    -22.53653500      9.13773434      0.44991075
 H    -20.78648617      7.48818455      0.42185916
 H    -21.98980301      6.17667816      0.43755136
 H    -22.51605826      7.29869518      2.78062423
 H    -21.22325788      8.46390230      2.40749394
 H    -19.60795647      6.55837906      2.42273715
 H    -20.94722384      5.44625630      2.79396824
 H    -20.84176238      7.18756976      4.92991947
 H    -19.41889348      7.85138169      4.09143006
 H    -18.74998173      5.20923672      4.17605742
 H    -19.32849010      5.04788619      5.00717600
 H    -17.20965518      6.56218113      3.65160813
 H    -18.27272354      5.32602765      2.93741144
 H    -17.00612169      3.98378298      4.92664163
 H    -16.18205597      5.52516465      5.26327931
 H    -15.39864465      4.77390921      2.72183550
 H    -16.45602885      3.36736376      2.98985645
 H    -15.29732928      2.41728864      4.72613096
 H    -14.10773396      3.74103756      4.75473928
 H    -13.47681049      2.92008030      2.41121288
 H    -14.72406577      1.65979064      2.56706827
 H    -14.22624119      0.39447805      4.13889684
 H    -12.72123066      1.26624402      4.51735958
 H    -12.10852296      0.46452657      2.09105557
 H    -13.71297717     -0.30349603      2.02675458
 H    -12.49877797     -1.65197623      4.02623961
 H    -11.09549312     -0.60158744      3.71681808
 H    -11.06545154     -1.65692318      1.38556491
 H    -12.39181006     -2.71771335      1.91825989
 H    -11.11348028     -3.74939624      3.63783706
 H     -9.69279344     -2.76110768      3.22166248
 H     -9.49729089     -3.69603025      1.02892961
 H    -10.90700694     -4.74350438      1.31835186
 H     -9.51898895     -5.82203153      3.14783087
 H     -8.62730807     -4.85534891      3.27233689
 H     -7.83274219     -3.86590226      3.45140635
 H     -7.25093513     -4.19875229      1.80247394
 H     -6.44048903     -6.26957239      2.03161374
 H     -6.86442678     -6.33108091      3.75925958
 H     -5.38635869     -4.52624479      4.32309351
 H     -4.88294488     -4.37311516      2.62268400
 H     -3.92235150     -6.50467862      2.45955162
 H     -4.32777283     -6.86810059      4.15419751
 H     -2.60952750     -4.80099591      4.39459500
 H     -2.54258278     -4.80640561      2.61590003
 H     -1.44735181     -7.11390120      2.96501616
 H     -1.76716536     -6.96261613      4.70946415
 H     -0.43224649     -5.18661281      5.18439365
 H      0.11571357     -5.05765706      3.49579161
 H      1.15763102     -7.07325538      3.29422502
 H      0.77433233     -7.51629132      4.97501886
 H      2.39754279     -5.35808409      5.24313268
 H      2.41731382     -5.31056291      3.46391445
 H      3.48604518     -7.73488513      3.89993822
 H      3.50610253     -7.25019163      5.61252006
 H      4.76305088     -5.50200895      5.69680189
 H      5.09899265     -5.53512296      3.94914252
 H      6.20959709     -7.73004786      4.23354140
 H      5.86124615     -7.67382678      5.97817817
 H      7.31202885     -5.65540617      6.14012954
 H      7.62673677     -5.75633871      4.39111890
 H      8.59769564     -7.50353651      3.93128531
 H      8.65570618     -8.05759363      5.62182432
 H      9.71528040     -6.85265972      6.81377278
 H     10.14746325     -5.72651132      5.50485169
 H     11.48313965     -7.26417504      4.35628490
 H     10.94075813     -8.62050641      5.37336609
 H     12.22296867     -7.36708100      7.23510103
 H     12.63815918     -6.12294002      6.03177367
 H     13.79606524     -8.55898128      5.24787166
 H     13.03458175     -9.17083227      6.73583938
 H     14.28830995     -7.80132849      8.19356058
 H     15.16266119     -7.07442928      6.82411028
 H     15.61178576     -9.91220385      7.14022241
 H     14.48435643     -9.67351432      8.49676104
 H     16.53908737     -8.15831537      9.27877239
 H     17.33869745     -8.64564573      7.76503545
 H     17.76041505    -10.40062918      7.40941974
 H     17.14132344    -11.00624966      8.96448118
 H     18.59810211     -9.86209067     10.34352657
 H     19.41539626     -9.10947695      8.95289020
 H     20.10487717    -11.41083505      8.23698508
 H     19.26094491    -12.08295901      9.65271612
 H     20.97575713    -10.74628824     11.01441959
 H     21.67886355    -10.17771272      9.48124318
 H     22.30410581    -12.44771213      8.85779754
 H     21.61598476    -13.06712561     10.37802220
 H     23.24095396    -11.79926232     11.68587169
 H     23.95918332    -11.15769491     10.18894000
 H     24.64394042    -13.32611490      9.42634732
 H     23.96377051    -14.08351212     10.88647917
 H     25.40204752    -12.99383496     12.39696499
 H     26.21986234    -12.13783010     11.06779184
 H     26.95080016    -14.40115598     10.23277880
 H     26.09575528    -15.15321471     11.60083311
 H     27.32926285    -14.23676310     13.30766281
 H     28.37102507    -13.35512967     12.16498147
 H     29.11458991    -15.60032058     11.30133998
 H     28.03692528    -16.38376100     12.48164787
 H     29.34821083    -15.28859990     14.31653237
 H     30.49996456    -14.72176515     13.08347585
 H     31.09393785    -16.93665917     12.40991045
 H     29.94780296    -17.63708812     13.57783201
 H     30.76282746    -16.98612477     15.51922615
 H     32.12835600    -16.13275291     14.76070461
 H     32.78563281    -18.49530746     13.94512644
 H     31.34552907    -19.12242440     14.78243895
 H     32.67163093    -18.21390138     16.87094361
 H     33.94050257    -17.69833562     15.73409562
 H     34.73921991    -19.36385607     14.78978863
 H     33.69729691    -20.50770111     15.66972139
 H     35.12357559    -19.43626038     17.67189226
 H     35.92634570    -18.45258606     16.42441014
 H     36.32791023    -21.30577814     16.11597297
 H     35.37315957    -21.32026527     17.61814072
 H     36.74577275    -20.19285315     18.99655310
 H     37.97345309    -19.98031993     17.72537361
 H     38.29761321    -22.40041337     17.58185586
 H     37.07493776    -22.64684963     18.85173797
 H     38.09551249    -21.64687334     20.58876106
 H     39.47996083    -21.13198223     19.59555585
 H     40.16144197    -23.40441354     19.16819453
 H     38.80642378    -24.01756790     20.14606677
 H     39.41953481    -23.13038682     22.16936667
 H     40.88128273    -22.39036635     21.47371634
 H     41.90355538    -24.41300838     20.86274093
 H     40.53575632    -25.35164657     21.50799339
 H     40.74371859    -24.72179721     23.71951043
 H     42.15484633    -23.69948124     23.35639166
 H     43.27407782    -25.90540951     22.66889705
 H     41.76185900    -26.74630629     23.08645361
 H     42.49803713    -25.99645101     25.47131431
 H     43.73138420    -24.95154089     24.72614017
 H     44.84529450    -27.11599231     23.98167461
 H     43.53290134    -28.01981628     24.77476545
 H     43.69146984    -27.31118721     26.90268976
 H     45.28642379    -26.60290800     26.55236260
 H     46.34609471    -28.50697529     25.83020988
 H     44.88700528    -29.49279941     26.08997039
 H     45.29837261    -28.78385489     28.57697282
 H     46.71506884    -27.87167523     28.00324229
 H     47.68652292    -30.08869803     27.29224396
 H     46.22005292    -30.89514576     27.89835819
 H     46.65255480    -30.19653791     30.17000506
 H     47.55132503    -29.21963805     29.90935432
 H     48.30984403    -28.23698469     29.64273683
 H     49.44831771    -29.46438324     29.03805745
 H     49.31780403    -30.20711409     31.57196486
 H     48.17764696    -28.86190987     31.81431607
 H     50.25938844    -27.43421302     31.15134808
 H     51.16141359    -28.95892351     30.97850357
 H     50.86177512    -29.42628215     33.37058386
 H     49.95821614    -27.90421018     33.55805316
 H     51.79755297    -26.52494863     32.96181459
 H     52.54469662    -27.40258315     32.36429307
 H     53.18959510    -28.19309181     31.63192464
 H     53.46878474    -29.10116506     33.13715645
 H     54.64669663    -26.65049552     33.54026116
 H     54.07295442    -26.27709121     31.89719824
 H     55.39209908    -27.94169693     30.84745323
 H     56.07350322    -28.44251007     32.41370393
 H     57.14003123    -26.87672715     33.24415463
 H     56.82475004    -25.78143586     31.87696722
 H     58.04952355    -27.28665472     30.37045710
 H     58.37149283    -28.38970066     31.72982905
 H     59.54044660    -27.37694161     33.14169707
 H     59.61188959    -25.88207167     32.17809632
 H     60.87132858    -27.59296783     30.55684838
 H     60.57772849    -28.82693730     31.80560176
 H     62.07182953    -27.37055834     33.28598698
 H     62.24839512    -26.24167754     31.92117220
 H     63.39080848    -28.26537985     30.77848981
 H     63.09176344    -29.19704733     32.26537731
 H     64.75521032    -27.26476743     33.13321700
 H     64.74284652    -26.66640719     31.45688803
 H     65.50164428    -27.96391017     30.14374273
 H     65.88103849    -29.18836588     31.37866577
 H     67.46685697    -27.47783059     32.36372834
 H     66.99637657    -26.34503114     31.07389104
 H     67.94010475    -28.01476179     29.43051079
 H     68.45137751    -29.01805491     30.80901351
 H     70.00245698    -27.20895661     31.46512124
 H     69.31321294    -26.13629972     30.22310009
 H     70.54258577    -28.17020792     28.83581371
 H     70.95432711    -28.80833842     30.44563519
 H     72.31022654    -26.62124124     30.66085070
 H     71.76196809    -26.18657690     29.02416311
 H     72.85845946    -28.03360593     27.98827164
 H     73.48187488    -28.58638535     29.56118447
 H     74.76734414    -26.43321114     29.68789879
 H     74.09207961    -25.96200778     28.10984560
 H     75.33528605    -27.97495327     27.17926925
 H     75.92980211    -28.32103969     28.82092741
 H     77.15609129    -26.28064852     28.98178143
 H     76.64123715    -25.80588751     27.34538482
 H     77.69315695    -27.57554343     26.23036115
 H     78.32238870    -28.22897306     27.76181921
 H     79.62916316    -26.07242709     27.96970119
 H     78.92591042    -25.53302733     26.42608526
 H     80.43998495    -27.68088237     25.74450652
 H     80.74136064    -27.87318706     27.48819751
 H     81.92179240    -25.73315415     27.55995093
 H     81.63850989    -25.50972714     25.81693685
 H     82.82278521    -27.43112412     25.13083941
 H     83.35594574    -27.71768363     26.80472416
 H     84.50567062    -25.50455299     26.74317273
 H     83.94170694    -25.27373331     25.07076910
 H     85.53075568    -27.43147792     24.83095881
 H     85.80617858    -27.27776877     26.58275286
 H     86.86188091    -24.98880240     25.73216047
 H     86.40651608    -25.50380626     24.09030769
 H     88.31192926    -27.28859022     25.18860644
 H     88.19628424    -26.20613265     26.59686015
 H     89.11653685    -24.38830407     25.11363349
 H     89.18744819    -25.55499770     23.77122364
 H     90.82156851    -26.84588091     25.29894651
 H     90.73167539    -25.46612905     26.41987054
 H     91.90597947    -24.23325070     24.51506919
 H     91.54215627    -25.58686118     23.41796482
 H     93.16851961    -26.93123356     24.84269430
 H     93.42177340    -25.48562824     25.84984594
 H     94.37027346    -24.52040444     23.61877206
 H     93.99720611    -26.08867778     22.86404951
 H     95.39972075    -27.39494665     24.17891610
 H     96.02819496    -25.95006005     25.00691946
 H     96.95267108    -24.76445919     23.46243199
 H     96.56835221    -25.94431074     22.18629876
 H     98.02379871    -27.58906894     23.37672032
 H     98.36580227    -26.36269930     24.62063259
 H     99.42248126    -24.81201458     23.33903703
 H     99.25545174    -25.80768826     21.87308965
 H    100.68046168    -27.53853219     22.94606919
 H    100.82084240    -26.51179638     24.39326423
 H    101.96413743    -24.77185000     23.15595587
 H    101.86399345    -25.74136446     21.66656688
 H    102.94804297    -27.50473614     21.93943294
 H    103.44269819    -27.07970613     23.59561299
 H    104.67976057    -25.15522302     22.88398906
 H    104.25531499    -25.47647835     21.18548747
 H    105.37464909    -27.55396722     21.08038390
 H    105.89830904    -27.40284876     22.77484846
 H    107.16846508    -25.32573308     21.76618583
 H    106.45664902    -25.76131846     20.19397403
 H    107.45015275    -27.81249653     19.93138176
 H    108.31727326    -27.66089639     21.47843899
 H    109.58324897    -25.77306052     20.80318070
 H    108.81286915    -25.78446750     19.19860865
 H    110.10247251    -28.21981790     19.39613007
 H    110.73067762    -27.54858161     20.92029110
 H    111.87196237    -25.76922067     20.15379215
 H    111.45159849    -26.13127124     18.46249671
 H    112.93810835    -28.27924614     19.27393057
 H    113.03172308    -27.43822078     20.83987415
 H    114.16932036    -25.57532109     20.18571686
 H    114.26027416    -26.13991611     18.50012304
 H    115.37443537    -27.91563785     18.45974892
 H    115.66747252    -27.90475392     20.21539052
 H    116.92725385    -25.75784106     19.88281342
 H    116.44644992    -25.41537799     18.81793759
 H    115.82307781    -24.95221319     17.80415302
 H    116.53734694    -26.31512113     16.90940825
 H    118.78002587    -25.60319388     17.27648036
 H    118.21494514    -24.18694198     18.19472924
 H    117.12748002    -22.90908259     17.17933438
 H    117.23701688    -23.82443855     15.65670777
 H    119.79616021    -22.90874710     16.53905636
 H    118.83534619    -22.24978235     17.88474152
 H    118.05748681    -20.77483366     15.79397283
 H    118.88175941    -21.95321615     14.74504192
 H    120.83074056    -20.62284978     16.23924329
 H    119.44006317    -19.76265404     16.94234096
 H    118.84932011    -18.78413516     14.80937683
 H    120.22127622    -19.60868138     14.03083547
 H    121.53560423    -18.04557005     15.72037467
 H    119.94694387    -17.45201382     16.26085214
 H    119.19766457    -16.49827127     14.36255856
 H    120.68160701    -16.92069218     13.47501021
 H    121.01382795    -14.95707333     15.53542637
 H    119.37007455    -15.46424753     15.99271815
 H    118.86148379    -14.37651609     13.63106202
 H    120.60437762    -14.03342768     13.51758029
 H    120.19938167    -12.53611990     15.56288315
 H    118.48432741    -13.00936468     15.50907865
 H    118.76124250    -11.72913576     13.16798072
 H    120.46179417    -11.48258832     13.63231366
 H    119.42315331    -10.09949067     15.56150023
 H    117.81880616    -10.49466333     14.89955200
 H    118.76898796     -9.10762440     12.87039072
 H    120.26288057     -8.90670100     13.81705926
 H    119.06420961     -7.65511632     15.53516977
 H    117.54796457     -7.83187101     14.61973249
 H    118.65042828     -6.62609601     12.70001064
 H    119.97566310     -6.22473867     13.81846118
 H    118.26387152     -5.04714786     15.23696110
 H    117.00957600     -5.50104687     14.05840899
 H    117.55209352     -4.52369695     12.22476449
 H    118.99646446     -3.76512657     12.93654410
 H    117.59659017     -2.35944823     14.31417006
 H    116.15677754     -3.34637970     13.96607163
 H    116.52903428     -2.50591359     11.51939490
 H    117.69914199     -1.36589663     12.22613103
 H    116.48437800     -0.20097455     13.63542042
 H    114.99654353     -1.08968368     13.22945077
 H    115.53178812     -0.07195192     10.84116525
 H    116.84666207      0.81598258     11.64797716
 H    114.68725596      1.77602890     12.91999918
 H    113.73258593      0.69296903     11.87891652
 H    114.70659673      2.21321605      9.99416517
 H    115.55951906      3.12135660     11.26541295
 H    113.48056396      3.83699085     12.27691064
 H    112.55405597      2.95507467     11.03914109
 H    113.39373340      4.29443033      9.24330973
 H    114.36806417      5.25792554     10.37936571
 H    111.81451186      5.69577379     11.22869909
 H    111.34994171      4.75624446      9.79004490
 H    112.20688046      6.05667565      8.15757509
 H    112.79177704      7.26256866      9.32889260
 H    110.15147825      7.39227896      9.73374004
 H    110.00618452      6.13795846      8.47921365
 H    110.93096274      7.63690863      6.79455958
 H    111.09467067      8.92359040      8.01354129
 H    108.85559198      9.17948676      8.50336559
 H    108.39478410      7.92050166      7.33252005
 H    109.53687338      9.88571224      5.81103013
 H    109.77082722     10.74233113      7.35366954
 H    107.28985650     10.79485953      7.63495799
 H    107.12235830     10.02617233      6.03829552
 H    108.19399749     11.94531692      4.96306123
 H    108.37492209     12.73967636      6.54563068
 H    105.87787127     12.78927985      6.70726351
 H    105.77681397     11.99118704      5.11946568
 H    106.89713340     14.07386236      4.19455316
 H    106.93293248     14.74437757      5.84300530
 H    105.07384000     15.01682881      6.59318956
 H    104.25930523     14.43168990      5.12267528
 H    105.20801403     16.27102250      3.81962382
 H    106.03548703     16.88291336      5.27191328
 H    104.42141277     17.40981511      6.63106853
 H    103.15903204     16.92655705      5.47299979
 H    103.36039063     18.20147818      3.78089323
 H    104.72531100     19.10008127      4.48642250
 H    102.84285560     19.71545494      6.24078561
 H    101.73926469     18.70817281      5.27345088
 H    101.04606177     20.31263591      4.10191837
 H    102.93692971     21.14690746      4.07868906
 H    101.18399663     21.73279988      5.72341624
 H    100.08392911     20.55870613      4.96208715
 H     99.70601239     21.14329942      3.00428671
 H    100.71828374     22.60269658      3.12147594
 H     99.25499422     23.52242121      4.85299863
 H     98.22233533     22.07570350      4.75871100
 H     97.50034115     22.37543710      2.58411638
 H     98.51431062     23.82304994      2.37304851
 H     96.85973157     24.69008192      4.25932439
 H     96.09227605     23.08560514      4.18908937
 H     95.35312055     23.24612639      1.98022544
 H     96.04059864     24.87979126      1.81658055
 H     93.93263244     24.64528885      3.79248446
 H     93.98316470     22.95029335      3.25146373
 H     93.31785709     23.46756280      1.02193646
 H     93.21983224     25.19992420      1.41890215
 H     91.35297203     24.41093614      3.03744333
 H     91.65168736     22.74959945      2.47264581
 H     90.89687857     23.57008578      0.19273383
 H     90.64636082     25.18628412      0.89516566
 H     88.96329298     24.53926953      2.39476309
 H     89.04610400     22.85272308      1.83176214
 H     88.36889420     23.32252709     -0.37486448
 H     88.22028331     25.05728277     -0.00499399
 H     86.32366307     24.24443286      1.54344407
 H     86.78265587     22.56583956      1.16938952
 H     85.96218118     23.34166103     -1.22444353
 H     85.62658618     24.92977900     -0.49401627
 H     83.98513743     24.17931057      0.99539521
 H     84.15015660     22.50670204      0.40937810
 H     83.23923455     23.12529020     -1.73588063
 H     83.35953346     24.85915559     -1.35181602
 H     81.66045068     24.69320383      0.36228970
 H     81.47752463     22.95259908      0.03809868
 H     80.70871833     23.38330593     -2.22673887
 H     80.86956962     25.13621492     -1.96272450
 H     79.14488196     25.02950337     -0.20706519
 H     78.98438438     23.27661372     -0.47142298
 H     78.24100032     23.31009699     -2.63094362
 H     78.28238211     25.08868040     -2.68747017
 H     76.48450824     24.89567277     -0.83391754
 H     76.62966131     23.12619623     -0.96100029
 H     75.77208871     23.42702160     -3.34408784
 H     75.69072595     25.18071386     -3.05047206
 H     73.95355989     24.62992905     -1.28259117
 H     74.14383559     22.90590664     -1.68235181
 H     73.35201127     23.18075483     -3.92117381
 H     73.11081673     24.92382021     -3.65319072
 H     71.38877362     24.17660573     -1.90433082
 H     71.23236343     22.92722526     -3.49857860
 H     70.76582821     23.38349718     -4.63185514
 H     70.55920540     24.94784545     -3.80821192
 H     68.93686083     23.68978456     -2.28516166
 H     69.26900058     22.21369713     -3.22277338
 H     68.60904571     22.41573560     -5.13999807
 H     68.11919956     24.11570414     -4.94397672
 H     66.45893983     23.76071618     -3.35122837
 H     66.67944075     21.99813435     -3.46503219
 H     66.20538268     21.50240073     -5.51328021
 H     65.83499383     23.19004383     -5.94099449
 H     63.98148818     23.26035594     -4.37498789
 H     64.29704958     21.57344228     -3.90274857
 H     63.90508415     20.54081227     -5.88356636
 H     63.51070385     22.07861596     -6.68848290
 H     61.57070014     21.90438319     -4.83118377
 H     62.33655140     20.37295589     -4.34490304
 H     61.69694947     19.60276797     -6.71870143
 H     60.99037211     21.21324386     -6.99326021
 H     59.34190515     20.78606277     -5.20894465
 H     60.05310570     19.17681444     -4.93916645
 H     59.50705148     18.37952639     -7.11425031
 H     58.75314688     19.93682952     -7.53222335
 H     57.35532696     18.69474511     -5.40034569
 H     58.59838017     17.43741278     -5.60577400
 H     57.86633317     16.90711233     -7.83546982
 H     56.58575566     18.13916387     -7.73330867
 H     55.72185191     16.58859971     -5.82143383
 H     57.11744121     15.53179426     -6.14355087
 H     56.87644749     14.88917024     -8.20800886
 H     55.26620385     15.63943904     -8.31971756
 H     54.04072418     14.73125135     -6.85690368
 H     55.33278586     13.64616564     -6.28995372
 H     55.23091121     12.67917456     -8.66706835
 H     53.94563969     13.85374196     -9.03684559
 H     52.86971676     12.27293852     -7.08775129
 H     54.42924700     11.41560046     -7.12097154
 H     54.17020329     10.67774008     -9.37028354
 H     52.58768321     11.48409801     -9.48726111
 H     51.76963167      9.94260943     -7.69264835
 H     53.38009574      9.18693933     -7.63235860
 H     53.40078908      8.35070668     -9.78960273
 H     51.77693038      9.00142904    -10.11809932
 H     50.45546366      8.00394052     -8.75792264
 H     51.76151459      7.03104826     -8.03960633
 H     51.84087844      5.91656657    -10.31894127
 H     50.79300770      7.19314248    -10.98270895
 H     48.94606662      6.32071972     -9.54754697
 H     50.04446858      5.06806882     -8.92093262
 H     50.36280893      4.00481169    -11.00444980
 H     49.28334753      5.16900544    -11.80923715
 H     47.93101523      3.97841825     -9.55156491
 H     48.56818923      3.16718321     -9.61164628
 H     46.71483156      5.04655882    -11.00251964
 H     47.21178911      5.06085086     -9.29339835
 H     46.24127358      2.75314423     -9.05449742
 H     45.51671457      2.97269754    -10.66542177
 H     44.23888019      4.75760742    -10.37230753
 H     44.69517534      4.90961282     -8.65855266
 H     43.44220690      2.51421309     -8.73213435
 H     43.22971361      2.82025915    -10.47266562
 H     41.81982748      4.79226722     -9.88100877
 H     42.07034666      4.43567737     -8.15521895
 H     40.86933948      2.26602091     -8.53351717
 H     40.66457807      2.70151006    -10.24719410
 H     39.28398118      4.61418633     -9.66517544
 H     39.47535864      4.25174575     -7.93642731
 H     39.51404935      3.42623365     -6.82344482
 H     38.38131717      2.37975464     -7.71230148
 H     36.72443876      3.32071967     -8.30341987
 H     37.19655275      4.87724353     -7.58050319
 H     37.21358277      4.05114104     -5.35534958
 H     36.73715624      2.43016326     -5.91545267
 H     34.54786428      3.39742879     -6.53400888
 H     35.17747229      5.04838989     -6.31909524
 H     35.17865379      4.08329317     -3.79537462
 H     34.54545359      2.57791945     -4.50331116
 H     32.84710542      2.63575825     -5.37063364
 H     32.58285109      4.36348631     -5.03389626
 H     32.62615121      3.63492666     -2.56904681
 H     32.89284224      1.96355429     -3.12009762
 H     30.76972075      1.91082764     -4.29864156
 H     30.38561328      3.53029226     -3.66771964
 H     30.43793328      2.80859461     -1.38390765
 H     30.82236872      1.14579817     -1.88946087
 H     28.52864617      1.20104396     -3.02712204
 H     28.32527763      2.86697404     -2.43417611
 H     28.65493344      0.83897331     -0.35307339
 H     28.55795593     -0.20077195     -1.79452815
 H     26.34028572      0.49800875     -2.34173225
 H     26.30023498      1.57995057     -0.92891078
 H     26.58000289     -0.15487487      0.66987062
 H     26.47215547     -1.37561873     -0.62102830
 H     24.15956304     -0.53070373     -1.09267310
 H     24.34994440      0.66242003      0.21441423
 H     24.54195061     -1.24596561      1.81766422
 H     24.34751931     -2.38308456      0.46214822
 H     22.02942021     -1.34563264      0.19530980
 H     22.39486221     -0.27770821      1.57162961
 H     22.64250124     -1.76504011      3.22467168
 H     22.30708785     -3.14030260      2.14558985
 H     20.03171357     -2.27498017      1.75721864
 H     20.37086381     -0.90107336      2.83685925
 H     20.73526769     -1.71586621      4.76863042
 H     20.47410245     -3.39164976      4.22843706
 H     18.63290315     -3.79676817      3.74747710
 H     18.09021901     -2.10268415      3.68551002
 H     18.34104799     -1.95959198      6.14356529
 H     18.88189294     -3.65496286      6.18191891
 H     16.94983988     -4.62907262      5.39857370
 H     16.35707743     -3.57246406      4.86253961
 H     15.83982679     -2.54374966      4.28021080
 H     15.67030529     -1.85061421      5.91088317
 H     14.17399200     -3.67375473      6.56617105
 H     14.32438723     -4.38917387      4.94326520
 H     13.19466126     -2.17151917      4.20265402
 H     13.17019304     -1.68661458      5.91511877
 H     11.58927728     -3.79032138      6.06127952
 H     11.83962041     -3.99388562      4.31080627
 H     10.79821476     -1.88996434      3.79117456
 H     10.49484232     -1.58604786      5.51856178
 H      9.09301766     -3.33228108      5.95143987
 H      9.17645295     -3.90421989      4.26793423
 H      8.07309774     -1.61649649      3.75230160
 H      8.10865787     -1.27484535      5.49880572
 H      6.59316080     -3.16077221      5.91624522
 H      6.54743986     -3.51446388      4.17237640
 H      5.52222610     -1.38827123      3.66325967
 H      5.52524575     -0.95100635      5.38867469
 H      4.00608845     -2.82834862      5.86897522
 H      4.00200576     -3.26686423      4.14387984
 H      3.32286464     -2.05286937      2.87773674
 H      2.88173514     -0.82607170      4.08961087
 H      1.57478524     -1.44535422      5.45514755
 H      1.28653237     -2.98926472      4.61758125
 H      0.54522375     -2.88738602      2.84831164
 H      0.60055431     -1.11058982      2.75775529
 H     -1.09588272     -1.07537789      4.61178363
 H     -1.08085255     -2.85519356      4.62901512
 H     -1.97595714     -2.77048202      2.28062331
 H     -1.95151743     -0.99246123      2.36006783
 H     -3.20291993     -0.28705291      3.79388310
 H     -3.75964382     -1.90644377      4.27957685
 H     -4.64186092     -1.89423089      1.79511501
 H     -3.94877234     -0.26140896      1.64750934
 H     -5.46021004      0.60120965      3.34975104
 H     -6.18989795     -1.01155204      3.53635746
 H     -7.01859172     -1.07996589      1.30337068
 H     -7.18937922      0.89027274      1.85338067
 H     -8.01697794      0.65426721      3.31373578
 H     -8.51512522     -0.37179907      2.96814373
 H     -8.71278117      2.43670635      2.41627522
 H     -7.39651438      1.66678569      3.81439614
 H     -9.99391771      1.62706300      3.95172733
 H    -10.02381206      2.44317844      2.37016842
 H     -8.98388906      4.39628582      2.98352534
 H     -8.81477207      3.85009253      4.66915253
 H    -11.20451290      3.74628154      4.98731247
 H    -10.98255662      5.27271838      3.61103023
 H    -10.42023424      6.41685032      3.70462710
 H    -10.10386374      5.97628587      5.39993808
 H    -12.75529537      5.95099028      5.41273821
 H    -12.67400216      6.39265828      3.69035978
 H    -11.81983399      8.37226833      3.68751323
 H    -11.46783284      8.36276242      5.43229731
 H    -14.24541333      7.89082992      5.18093676
 H    -14.20793440      8.33909384      4.07440804
 H    -13.58445973      8.56345336      7.02153525
 H    -14.35098775      7.18259008      6.20061012
 H    -16.26082957      8.09843536      5.51267046
 H    -15.80520079      9.72314371      6.07923188
 H    -15.90752302      8.60768668      8.41689022
 H    -17.33587804      7.65164833      7.27443366
 H    -18.43893327      8.24913681      6.82222076
 H    -17.90716704      9.72293609      7.66685501
 H    -18.25486214      7.89237319      9.66327112
 H    -18.71404924      6.77030868      8.36005006
 H    -20.39164421      7.40548403      7.39297222
 H    -20.58414290      8.84867527      8.41689115
 H    -20.87959084      6.91021515     10.22707285
 H    -20.62545560      5.76452331      8.88876342
 H    -22.30634657      5.96034638      7.62419684
 H    -22.93066039      7.41621341      8.43595427
 H    -23.12065514      5.41843863     10.32808564
 H    -22.61569214      4.36113110      8.98816780
 H    -24.49726650      4.83021011      7.63641061
 H    -25.16104546      5.92609762      8.87200550
 H    -25.29552348      3.84924626     10.34934771
 H    -24.61625327      2.89983709      9.00566587
 H    -27.36108750      3.72833318      9.58832550
 H    -26.97215226      4.40404898      8.17495952
 H    -27.21322290      5.60072493      8.51763073
 H    -27.65649436      4.90573789     10.09521435
 H    -29.46620467      3.72525972      8.56160451
 H    -28.86230703      3.87796986      7.48569152
 H    -28.17040429      3.94574996      6.38433066
 H    -28.34771217      5.71304243      6.50054554
 H    -30.28514129      6.28959932      6.42277130
 H    -30.90171016      4.62980118      6.24061847
 H    -29.78582684      4.30617478      4.13915764
 H    -29.11415755      5.95287297      4.21340097
 H    -31.37210865      6.65117641      3.52433717
 H    -32.12340630      5.31148966      4.42381363
 H    -31.34284610      5.00241270      2.85427107
1502
Final Conformation Chain 2 (Simulation Frame 3)
 C      0.00000000      0.00000000      0.00000000
 C      1.54000000      0.00000000      0.00000000
 C      2.16637443      1.00337884     -0.98614704
 C      3.68519056      0.83179712     -1.17418238
 C      4.34676770      1.95885053     -1.98883956
 C      4.10744101      3.36856464     -1.41697520
 C      4.21281160      4.49469192     -2.46212323
 C      3.39793919      5.75338259     -2.11100963
 C      3.96452613      7.05380466     -2.71057753
 C      3.84462907      7.14108828     -4.24342008
 C      4.45653218      8.41852697     -4.84784128
 C      3.88168707      8.79718985     -6.22543611
 C      4.60025172      9.98034142     -6.90028215
 C      3.94543474     10.44347175     -8.21493991
 C      4.58435242     11.70633395     -8.82203403
 C      3.96760451     12.13605856    -10.16611690
 C      4.73648575     13.26636090    -10.87522778
 C      4.41474879     13.39739810    -12.37553261
 C      5.00196507     14.65952773    -13.03417201
 C      4.40952712     14.97629627    -14.41991187
 C      4.97975809     16.25144838    -15.06831279
 C      4.68103115     16.37591932    -16.57392536
 C      5.58961432     17.37646177    -17.31216071
 C      5.39929697     17.38584630    -18.84032668
 C      6.24827393     18.44285084    -19.57079196
 C      6.38615579     18.19828580    -21.08498367
 C      7.25808308     19.23966996    -21.81083616
 C      7.37289804     19.01131670    -23.32947776
 C      8.24673113     20.05134501    -24.05498230
 C      7.84167326     20.29697869    -25.52031237
 C      8.73773926     21.31027884    -26.25644315
 C      7.96146259     22.31861458    -27.12376867
 C      8.80498914     23.51647857    -27.59830509
 C      8.14681028     24.34074215    -28.72035238
 C      8.89522941     25.64232831    -29.06290498
 C      8.19642021     26.50420138    -30.13081906
 C      8.71630132     27.95184771    -30.20594396
 C     10.11495267     28.08315190    -30.83692224
 C     10.73560412     29.48568882    -30.69806271
 C     11.95131792     29.72599441    -31.61233465
 C     12.60078733     31.11161796    -31.43960117
 C     13.33663432     31.61919647    -32.69359210
 C     13.82179780     33.07696260    -32.58807282
 C     14.18009896     33.71742466    -33.94196670
 C     15.03865676     34.99052868    -33.82498526
 C     15.26333758     35.71961748    -35.16272516
 C     16.18150881     36.95153920    -35.05817630
 C     15.51630330     38.17446531    -34.39972861
 C     16.40967596     39.42824865    -34.36083613
 C     15.75304940     40.64441670    -33.68158888
 C     16.46628664     41.97993282    -33.96317249
 C     15.53037542     43.09714554    -34.46067219
 C     16.18444910     44.49077578    -34.50045128
 C     17.18023798     44.74829789    -33.35428948
 C     17.52463164     46.23475546    -33.14587427
 C     18.52130351     46.49217748    -32.00045771
 C     18.86373713     47.97885473    -31.79038636
 C     20.37314696     48.28336175    -31.81399598
 C     20.73504301     49.69572322    -31.31814688
 C     22.13120512     50.17503205    -31.75700268
 C     22.41425127     51.65486948    -31.43830839
 C     23.88226917     52.07083711    -31.64686140
 C     24.09462212     53.59322341    -31.74091556
 C     25.57357124     54.01590820    -31.81606252
 C     25.81144284     55.51350523    -31.54732431
 C     27.23652915     55.99140581    -31.88249596
 C     27.41693664     57.51930656    -31.81487607
 C     28.75277436     58.01863423    -32.39608986
 C     28.95113445     59.54218221    -32.29094794
 C     30.40626952     60.00038204    -32.50126877
 C     30.62212069     61.51198793    -32.30112904
 C     31.96053689     62.03262812    -32.85716489
 C     32.16032803     63.55042317    -32.68988759
 C     33.53387895     64.05773520    -33.16695400
 C     33.95607410     65.40151949    -32.54438268
 C     35.42980303     65.77207568    -32.79420491
 C     35.76623572     67.24342282    -32.48834444
 C     37.26589584     67.50856959    -32.25961598
 C     37.56749118     68.86084604    -31.58731496
 C     39.04697892     69.05483924    -31.20641776
 C     39.33578664     70.37512603    -30.46815432
 C     40.80483411     70.54386355    -30.03800645
 C     41.14282272     71.94672437    -29.50009827
 C     42.65196527     72.24732542    -29.43904286
 C     42.98638047     73.69546434    -29.03573140
 C     44.48542662     73.94631509    -28.78766985
 C     44.80684304     75.36156951    -28.27255199
 C     46.27807367     75.77679543    -28.45874506
 C     46.71834717     76.94453327    -27.55644378
 C     48.11847606     77.49582479    -27.88403613
 C     48.63010703     78.54381277    -26.87827525
 C     50.11235285     78.91832699    -27.06344117
 C     50.52074081     80.22571330    -26.35948073
 C     51.70007419     80.95557480    -27.02886475
 C     52.14533429     82.23286965    -26.29275244
 C     53.10716675     83.12048414    -27.10430579
 C     53.48034505     84.44134429    -26.40597463
 C     54.44163193     85.32927295    -27.21783066
 C     54.73382544     86.69416858    -26.56722873
 C     55.63586220     87.61134079    -27.41382474
 C     56.04204468     88.91718678    -26.70574137
 C     56.99667417     89.80403536    -27.52658371
 C     57.21572099     91.20720454    -26.93098757
 C     57.76278939     92.23646175    -27.93743964
 C     57.83723188     93.67267069    -27.38665640
 C     58.37762696     94.70316852    -28.39544151
 C     58.24546029     96.16493926    -27.92922455
 C     58.69949774     97.19961671    -28.97559570
 C     58.81656512     98.63423330    -28.42808272
 C     59.44128749     99.63385136    -29.41908509
 C     59.06279985    101.10216015    -29.14998213
 C     59.94162660    102.12256354    -29.89700319
 C     59.53708383    103.58952076    -29.66039876
 C     60.52432631    104.61431212    -30.24925778
 C     59.92702940    106.02072779    -30.44117280
 C     60.95965832    107.09037156    -30.84259493
 C     60.40514998    108.52707584    -30.84373138
 C     61.30735233    109.54612794    -31.56426155
 C     60.88344982    111.01247064    -31.35994376
 C     61.96066649    112.03753355    -31.76050620
 C     61.42130797    113.46540758    -31.96512326
 C     62.50939351    114.55500538    -31.94399313
 C     61.97911558    115.97510846    -32.21549370
 C     63.08395366    117.03408864    -32.38723131
 C     62.55332665    118.45855505    -32.63407221
 C     63.45965153    119.57043398    -32.07380401
 C     62.69173582    120.73678718    -31.42455392
 C     63.59883200    121.82954299    -30.82901948
 C     62.84076622    122.90669820    -30.03110160
 C     63.75113351    123.98075686    -29.40721907
 C     63.01497126    124.96206049    -28.47624736
 C     63.95125534    125.84875105    -27.63437329
 C     63.21736961    126.89023938    -26.76932197
 C     64.15249927    127.89297212    -26.06813756
 C     63.45337364    128.76764895    -25.01089408
 C     64.36846043    129.82794013    -24.37058260
 C     63.73300254    130.56557290    -23.17739731
 C     64.71541994    131.46008506    -22.39874202
 C     64.16806149    131.96679992    -21.05143405
 C     63.73821088    130.84480391    -20.08813068
 C     63.73208721    131.26050943    -18.60531193
 C     63.44360906    130.10293658    -17.63145083
 C     62.90691634    130.55629658    -16.26104008
 C     63.74455353    131.66405207    -15.59557654
 C     63.33967378    131.96718134    -14.14100271
 C     64.11401014    133.13720085    -13.50613458
 C     63.52843157    133.62259737    -12.16707224
 C     64.03664976    135.00800196    -11.72665381
 C     63.30180897    135.58460702    -10.50226186
 C     63.80159002    136.97547713    -10.06948102
 C     62.78717564    137.77155034     -9.22756005
 C     63.19535197    139.23455129     -8.97335484
 C     62.17412061    140.03463398     -8.14356318
 C     62.61032691    141.47947191     -7.83734854
 C     61.71372890    142.20090460     -6.81399773
 C     62.03277390    143.69826035     -6.64745625
 C     61.10836584    144.42917450     -5.65607629
 C     61.49823182    145.89715578     -5.40184119
 C     60.37677486    146.74270208     -4.77018801
 C     60.74024096    148.22778155     -4.58571215
 C     59.61244904    149.07690083     -3.97034085
 C     60.04353521    150.50304044     -3.58060951
 C     58.99988515    151.26627398     -2.74402770
 C     59.45295582    152.67217657     -2.30840759
 C     58.49331988    153.36151832     -1.32073011
 C     58.93203777    153.26140372      0.15205761
 C     58.12724254    154.16151339      1.10793794
 C     58.46190235    153.95169308      2.59641980
 C     57.87982020    155.03140916      3.52754468
 C     58.11497665    154.76011311      5.02510933
 C     58.03817566    156.01865587      5.90928789
 C     58.07886520    155.72580679      7.42063953
 C     58.05139759    156.98696696      8.30399707
 C     58.42792423    156.72973867      9.77493599
 C     58.27615807    157.96263875     10.68516917
 C     58.94801719    157.81084163     12.06254455
 C     58.56222325    156.52016625     12.80881533
 C     59.24030083    156.36449593     14.18270672
 C     59.00494439    154.99461494     14.84575530
 C     60.05592568    154.62440211     15.90876085
 C     60.08950067    153.12560801     16.26102349
 C     60.62523603    152.82596544     17.67339807
 C     60.51794648    151.34530175     18.08293925
 C     60.20152238    151.12931609     19.57452431
 C     60.28961501    149.65997378     20.02715313
 C     59.81483070    149.42021483     21.47238512
 C     59.88406072    147.94781609     21.91831019
 C     59.72232277    147.74480471     23.43627831
 C     59.47688440    146.28184698     23.84993842
 C     59.10639053    146.10430673     25.33412633
 C     58.52287730    144.71996057     25.67279732
 C     58.20679441    144.52192183     27.16694331
 C     57.41884932    143.23519940     27.47530660
 C     57.36342042    142.87823667     28.97233874
 C     56.33780971    141.78250622     29.31744371
 C     56.28356653    141.42435816     30.81423616
 C     55.06413027    140.57134300     31.21039315
 C     55.20959212    139.86434547     32.57075904
 C     53.98191712    139.02772290     32.97631640
 C     54.27276498    137.97357547     34.06065063
 C     53.06364332    137.08728335     34.41294469
 C     53.36477144    136.00804055     35.46942792
 C     52.12910566    135.20227390     35.91154803
 C     52.44653570    134.05342026     36.88672673
 C     51.19946743    133.34133648     37.44292581
 C     51.42267579    131.85384515     37.77330072
 C     50.14324155    131.10663451     38.19321057
 C     48.97087674    131.26943140     37.20799084
 C     47.91567964    130.15151931     37.29981473
 C     46.51448875    130.57169042     36.81844132
 C     45.42414929    129.51210504     37.06346924
 C     43.99143165    130.01799330     36.81247679
 C     42.89912278    129.16337909     37.48187644
 C     41.50920957    129.82622962     37.50112292
 C     40.35619597    128.85466222     37.81451793
 C     38.96202414    129.50831602     37.78958541
 C     37.80830728    128.53493049     38.09463953
 C     36.41028442    129.17576337     38.01423257
 C     35.25372904    128.18842189     38.25741246
 C     35.01114321    127.20904801     37.09397835
 C     33.69456500    126.41795728     37.20532130
 C     33.66534213    125.12875501     36.36347599
 C     32.27808936    124.46503275     36.28222011
 C     32.11816371    123.49062770     35.10045932
 C     30.85965077    122.60693825     35.18315231
 C     30.89004231    121.38448026     34.24705786
 C     29.55433696    120.62198851     34.16897105
 C     29.51574914    119.53628003     33.07748211
 C     28.32554130    118.56676888     33.20017451
 C     28.49889816    117.25854389     32.40638942
 C     27.32408697    116.27426680     32.55677983
 C     27.40482605    115.05472083     31.61987598
 C     26.03291674    114.51378095     31.17619943
 C     26.03723725    113.01711755     30.81345984
 C     24.64508955    112.44942724     30.47991451
 C     24.61857102    110.92001127     30.30163505
 C     23.25850910    110.27497564     30.62684362
 C     23.27941470    108.73511768     30.62618645
 C     22.05949681    108.09183103     31.31144744
 C     22.05981623    106.55227611     31.27442675
 C     20.65524790    105.92391731     31.33729980
 C     20.65886887    104.40760928     31.60636639
 C     19.25547879    103.77453878     31.64267109
 C     19.26255231    102.24579982     31.82843212
 C     17.91305585    101.57107420     31.51987961
 C     17.84771720    100.08678996     31.92513404
 C     16.53272757     99.38773877     31.53305023
 C     16.50269125     97.88253884     31.85719680
 C     15.15780677     97.20097966     31.54356836
 C     15.06912898     95.74013144     32.02279556
 C     13.65629188     95.13465411     31.92851643
 C     13.64139968     93.61068775     31.70737222
 C     12.25515641     92.96493545     31.88884830
 C     12.28247239     91.42591713     31.93656032
 C     10.92590830     90.78588002     32.28539607
 C     10.94556388     89.24609400     32.30190952
 C      9.54700839     88.60210525     32.33225797
 C      9.47343676     87.23112950     31.63468166
 C      8.35623681     86.31566473     32.16889934
 C      8.67858015     84.81281516     32.07330675
 C      7.48892013     83.89442015     32.40925266
 C      7.83175275     82.39318112     32.39062007
 C      6.65770226     81.47763431     32.78429441
 C      7.02396620     79.98334268     32.85169795
 C      5.94992093     79.10467345     33.51950565
 C      6.44566959     77.70122714     33.91469134
 C      5.48018124     76.93215600     34.83553977
 C      5.94733188     75.50618874     35.18193212
 C      4.94933590     74.71255316     36.04549833
 C      5.57778797     73.52399935     36.79648957
 C      4.60431914     72.79425275     37.74064440
 C      5.19026147     71.52401732     38.38467354
 C      4.27305654     70.87570303     39.43825016
 C      4.88596586     69.64333708     40.12905861
 C      5.06861970     68.42987335     39.19860530
 C      6.10416182     67.40627800     39.70010812
 C      6.06467157     66.05899245     38.95521741
 C      7.03752404     65.00478817     39.51540614
 C      7.17844629     63.75076259     38.63270530
 C      6.02791013     62.73967967     38.79263614
 C      5.84740387     61.80015398     37.58585987
 C      4.60953497     60.88899140     37.68106154
 C      4.81386650     59.48914914     37.07254673
 C      3.72801370     58.47049314     37.46607395
 C      3.97906937     57.04881754     36.92996806
 C      2.93501816     56.01337468     37.38758708
 C      3.05853540     54.64757182     36.68692593
 C      2.09163180     53.57716459     37.22630130
 C      2.14076474     52.24397587     36.45701996
 C      0.77621689     51.54063709     36.33485720
 C      0.82135615     50.21851520     35.54646887
 C     -0.53436101     49.49289391     35.46217933
 C     -0.54039200     48.28589345     34.50577277
 C     -1.76794350     47.36918094     34.66183522
 C     -1.96213674     46.37892225     33.49853100
 C     -2.97494785     45.25694957     33.79347332
 C     -3.14549810     44.24849846     32.64215278
 C     -4.01694705     43.03036531     33.00038224
 C     -4.20437867     42.03214577     31.84278683
 C     -5.14192518     40.85648483     32.17509375
 C     -5.30713663     39.84328018     31.02717323
 C     -5.73232656     38.43710118     31.48920585
 C     -5.70630111     37.37647931     30.37296039
 C     -6.05656523     35.95512686     30.85115726
 C     -6.18407960     34.92511552     29.71343290
 C     -6.08354899     33.46090922     30.17990210
 C     -6.43166259     32.43078599     29.08936872
 C     -5.72866899     31.07179508     29.26413628
 C     -5.70684237     30.20924042     27.98854893
 C     -4.98800656     28.85793414     28.15839121
 C     -5.12766448     27.91753143     26.94688866
 C     -4.40759262     26.56680865     27.11613551
 C     -4.58839063     25.60707746     25.92540963
 C     -4.18855120     24.15103324     26.22816971
 C     -4.37191681     23.19076817     25.03826718
 C     -3.77966802     21.78795913     25.26841531
 C     -3.77421932     20.89659716     24.01261113
 C     -3.18942649     19.49098536     24.24471629
 C     -3.16745288     18.60580713     22.98472555
 C     -3.09978921     17.09608202     23.28095471
 C     -3.00046232     16.21459375     22.02210103
 C     -3.01690109     14.70247826     22.31336810
 C     -3.27509764     13.82826839     21.07212209
 C     -3.57934716     12.35391847     21.39665952
 C     -3.74726340     11.46065375     20.15348526
 C     -3.86611853      9.95880499     20.47274026
 C     -3.94415888      9.05773579     19.22631176
 C     -3.67776865      7.56820294     19.51254267
 C     -3.69780585      6.67586689     18.25757857
 C     -4.00720797      5.19522804     18.54667876
 C     -3.87327610      4.27593644     17.31844213
 C     -4.75530436      4.69099616     16.12623763
 C     -4.85958544      3.62238018     15.02225151
 C     -4.99495385      4.20076540     13.60142572
 C     -4.23176584      3.40537843     12.52601714
 C     -4.74620405      3.63651796     11.09300359
 C     -3.77434774      3.16578126      9.99504991
 C     -4.21983178      3.52915389      8.56637769
 C     -3.43185162      2.80246546      7.46066018
 C     -3.87231393      3.17145999      6.03187189
 C     -2.71125522      3.27452471      5.02543244
 C     -3.16122313      3.51682314      3.57270385
 C     -2.00110837      3.76457175      2.59068839
 C     -2.42718522      3.78809859      1.11099079
 C     -1.28359371      4.12192351      0.13510177
 C     -1.65744291      3.95294428     -1.34924415
 C     -0.49544549      4.22455476     -2.32268636
 C     -0.93172308      4.37792447     -3.79161099
 C      0.13369589      5.02295493     -4.69738035
 C     -0.35248488      5.30933108     -6.13028542
 C      0.65439511      6.09881102     -6.98732341
 C      0.01439357      6.86146276     -8.16221079
 C      1.02085296      7.65357793     -9.01730906
 C      0.46422668      8.10833482    -10.37927946
 C      1.26594780      9.24826415    -11.03456899
 C      0.93067085      9.47623484    -12.52024013
 C      1.76421817     10.58609784    -13.18732557
 C      1.68743201     10.58843051    -14.72540829
 C      2.44099526     11.75640645    -15.38841252
 C      2.29416673     11.80730335    -16.92055184
 C      2.72143457     13.14788733    -17.54655247
 C      2.47454931     13.23754026    -19.06398781
 C      3.20391325     14.40806619    -19.74918653
 C      3.13121937     14.37715696    -21.28715929
 C      3.94243724     15.49083758    -21.97508448
 C      3.66031380     15.63136335    -23.48248584
 C      4.43180078     16.77926303    -24.15978501
 C      4.15720344     16.91357723    -25.66914116
 C      5.19410222     17.76885514    -26.42076649
 C      4.86982478     17.97987435    -27.91137544
 C      6.09960945     18.30248645    -28.78036974
 C      5.78100000     19.14813469    -30.02735293
 C      7.02779885     19.64742466    -30.78087940
 C      6.71545954     20.61969136    -31.93358995
 C      7.95344756     21.34250727    -32.49619355
 C      7.62332107     22.45121759    -33.51274554
 C      8.83818852     23.30099523    -33.92936892
 C      8.49478005     24.45825910    -34.88561729
 C      9.64103173     25.46720044    -35.08497740
 C      9.21732943     26.76317501    -35.80088682
 C     10.12515584     27.97029820    -35.50037926
 C      9.75992446     29.24075209    -36.29041278
 C     10.54771742     30.49279144    -35.86218420
 C     10.43218030     31.67227207    -36.84558473
 C     11.36579029     32.85295553    -36.52007135
 C     11.28286870     34.01363171    -37.52881056
 C     12.24924860     35.17452749    -37.22875909
 C     12.06836223     36.39442519    -38.15110919
 C     13.02632319     37.56017459    -37.84298723
 C     13.13843011     38.59540517    -38.97759275
 C     14.29023779     39.60138572    -38.79609282
 C     14.54437689     40.49135756    -40.02693133
 C     15.59023669     41.59764921    -39.79477605
 C     16.15997026     42.20301475    -41.09113102
 C     17.16429198     43.34725657    -40.85950947
 C     17.82803720     43.86845087    -42.14768600
 C     18.73777644     45.09226245    -41.93260518
 C     19.93542100     45.15990889    -42.89835435
 C     20.85215818     46.37700993    -42.67506528
 C     22.18414902     46.30751358    -43.44485138
 C     23.02131199     47.59767509    -43.36584857
 C     24.30121276     47.56725093    -44.22172729
 C     25.31026224     48.67909260    -43.87934265
 C     26.62501673     48.59918098    -44.67723660
 C     27.59000528     49.76997809    -44.41335929
 C     28.82125641     49.78750074    -45.33819095
 C     29.45505776     51.18034838    -45.51102415
 C     30.98634227     51.15602674    -45.67281470
 C     31.63710229     52.55171609    -45.68556787
 C     33.16689579     52.53117451    -45.50975580
 C     33.84808249     53.88310347    -45.79237352
 C     35.35613969     53.90187220    -45.48090731
 C     36.13200592     55.01610674    -46.20762113
 C     37.64778830     54.76237397    -46.30572040
 C     38.43383232     55.91115712    -46.96453149
 C     39.95459198     55.67597240    -47.02434959
 C     40.69416661     56.60589747    -48.00407850
 C     42.20984059     56.34717596    -48.09007597
 C     42.96854198     57.35652737    -48.97165520
 C     44.49130251     57.13066645    -49.01393061
 C     45.30297464     58.39523822    -49.35104572
 C     46.82796386     58.18082903    -49.34499789
 C     47.64416497     59.48554103    -49.40105474
 C     49.15906029     59.28541069    -49.20963896
 C     50.00579470     60.51571124    -49.58514049
 C     49.93873232     61.65985769    -48.55653388
 C     51.05746994     62.70691467    -48.71047484
 C     50.95802215     63.88033564    -47.71810729
 C     52.23097088     64.74344463    -47.63908579
 C     52.17455096     65.84595786    -46.56536265
 C     53.34348281     66.84628922    -46.63270859
 C     53.31134832     67.92227894    -45.53143047
 C     53.20684240     69.36274798    -46.06596529
 C     53.17443726     70.43872112    -44.96467891
 C     53.00431897     71.87406501    -45.49613700
 C     53.01539225     72.95393352    -44.39824749
 C     52.22052074     74.22253476    -44.75939865
 C     52.51696489     75.42807738    -43.84814245
 C     51.41672119     76.50556668    -43.85712110
 C     51.74686620     77.74503018    -43.00486849
 C     50.76367759     78.91515825    -43.19391995
 C     51.01816115     80.10572212    -42.25084212
 C     49.76457112     80.58629088    -41.49641141
 C     50.01721596     81.78246631    -40.55996339
 C     48.77291762     82.23680562    -39.77453520
 C     49.04558597     83.37351494    -38.77196655
 C     48.64368955     83.04062128    -37.32308385
 C     48.90907284     84.18024245    -36.32186693
 C     48.34021030     83.92243840    -34.91419777
 C     48.70536123     85.00625374    -33.88288351
 C     48.16614307     84.73060094    -32.46695296
 C     48.17941685     85.96112288    -31.54108063
 C     48.11005145     85.61747367    -30.04151614
 C     48.47701930     86.78970488    -29.11264124
 C     49.90610065     87.32634316    -29.31597801
 C     50.29726120     88.45185657    -28.34036898
 C     51.70210050     89.03316965    -28.58552533
 C     51.88573841     90.46965886    -28.06171632
 C     52.97648674     91.27001138    -28.79744992
 C     52.89832925     92.79107880    -28.56975423
 C     53.92210586     93.60026592    -29.38749359
 C     53.65105747     95.11610660    -29.40646156
 C     54.68705340     95.92770360    -30.20622575
 C     54.44927786     97.44894836    -30.17660884
 C     55.07519462     98.20399395    -31.36393119
 C     54.85291251     99.72736488    -31.32479457
 C     55.66660780    100.50628563    -32.37492905
 C     55.64098094    102.03373380    -32.18039016
 C     56.39742724    102.81667188    -33.26960867
 C     56.35023714    104.34533641    -33.08917079
 C     56.98964687    105.13286155    -34.24785942
 C     57.15079583    106.63862373    -33.96801792
 C     57.49300510    107.47443538    -35.21537982
 C     58.73418231    108.37052734    -35.04775419
 C     59.95055052    107.64834336    -34.43906817
 C     60.45929712    106.46184398    -35.27870864
 C     61.11566903    105.34294999    -34.44873747
 C     60.94878586    103.93572699    -35.05162505
 C     60.93581181    102.80425579    -34.00701765
 C     60.67092809    101.40771167    -34.59955552
 C     59.93767718    100.44988154    -33.64221309
 C     59.67209262     99.05359077    -34.23503426
 C     59.37012961     97.97252701    -33.18065317
 C     59.26758254     96.54772944    -33.75601043
 C     58.75644627     95.50080549    -32.74889079
 C     58.23206564     94.20803459    -33.40109349
 C     57.51933821     93.25692222    -32.42180555
 C     57.55170392     91.77791263    -32.84968764
 C     56.53210846     90.89006520    -32.11229219
 C     56.46303140     89.44485718    -32.63974088
 C     55.52529416     88.52772412    -31.83282340
 C     55.58244673     87.04739656    -32.25349418
 C     54.42885560     86.19286119    -31.69618206
 C     54.44220474     84.73075716    -32.17958003
 C     53.04801699     84.07995489    -32.24513101
 C     53.06381602     82.61019829    -32.70465895
 C     51.67504683     81.94495190    -32.72382546
 C     51.57085459     80.73991299    -33.67704380
 C     50.19108182     80.05594316    -33.67352389
 C     49.84153563     79.34396917    -34.99356574
 H     -0.36333333      0.00000000      1.02766186
 H     -0.36333333     -0.88998127     -0.51383093
 H     -0.36333333      0.88998127     -0.51383093
 H      1.88274777      1.03470720     -0.00222947
 H      1.88274777      1.01987204      0.17459952
 H      1.82362666      2.00363542     -0.72136270
 H      1.82362666      0.75595990     -1.99083994
 H      3.87298308     -0.17586530     -1.54492543
 H      4.16699925      0.95788372     -0.20461415
 H      3.62709797      2.77005885     -2.09891471
 H      3.88069959      1.98887208     -2.97371479
 H      4.48278984      3.39169244     -0.39390221
 H      3.03436702      3.55989438     -1.41470879
 H      3.47235941      4.31030747     -3.24047594
 H      5.21189100      4.46630046     -2.89701893
 H      3.75551919      6.13776208     -1.15576676
 H      2.34989858      5.46846574     -2.01863393
 H      4.62066823      6.79121881     -3.54041258
 H      4.98034630      7.18843649     -2.33898145
 H      2.78976578      7.07226510     -4.50917712
 H      4.38442172      6.29969066     -4.67790132
 H      5.51375014      8.44995504     -4.58439778
 H      3.94838571      9.28007519     -4.41468793
 H      3.66612089      9.86566118     -6.22494537
 H      4.16710580      8.02508411     -6.93992116
 H      5.65003736      9.71616430     -7.02779907
 H      4.52091465     10.84812842     -6.24549107
 H      2.91965141     10.74292894     -8.00001213
 H      3.94076642      9.60378082     -8.90992002
 H      5.66490850     11.56542427     -8.84739203
 H      4.34347209     12.55434259     -8.18097396
 H      2.90645121     12.33007256    -10.00987273
 H      4.08662880     11.31693934    -10.87532557
 H      5.75519756     12.92501540    -11.05910140
 H      4.75741495     14.13335162    -10.21493310
 H      3.34717177     13.59009864    -12.48157882
 H      4.66403227     12.45494645    -12.86312119
 H      6.08535153     14.63491207    -12.91683550
 H      4.60056849     15.53280484    -12.52000485
 H      3.32737225     14.85774374    -14.36526645
 H      4.81721261     14.26458800    -15.13780037
 H      6.05742360     16.12859629    -15.17622198
 H      4.77444594     17.09337803    -14.40717637
 H      3.59954304     16.37647969    -16.70987812
 H      5.11053799     15.51200003    -17.08114063
 H      6.62360309     17.05259503    -17.19351182
 H      5.46147332     18.35764714    -16.85504457
 H      4.36180846     17.64208032    -19.05494661
 H      5.61227770     16.38594402    -19.21839367
 H      7.29887456     18.24582330    -19.35744142
 H      5.97745839     19.42591029    -19.18562568
 H      5.38854682     18.19669081    -21.52415769
 H      6.85022832     17.22330990    -21.23384154
 H      8.25412260     19.22086857    -21.36851073
 H      6.81279968     20.22332222    -21.66166872
 H      6.37113517     19.04467153    -23.75779845
 H      7.80659764     18.02527473    -23.49598872
 H      9.24833051     20.01627624    -23.62641625
 H      7.81462494     21.03808363    -23.88845563
 H      6.80907772     20.64566184    -25.53663790
 H      7.91471373     19.35225928    -26.05907978
 H      9.70460893     20.84209289    -26.44101011
 H      8.87201617     22.17983664    -25.61306227
 H      7.27797102     22.87073911    -26.47871226
 H      7.39019128     21.76276523    -27.86726084
 H      9.69185224     23.13280213    -28.10265242
 H      9.10537108     24.09236498    -26.72296199
 H      7.19200442     24.71767801    -28.35379389
 H      7.97488283     23.68349298    -29.57273990
 H      9.90685120     25.38382437    -29.37579008
 H      8.93898161     26.25896855    -28.16516306
 H      7.20551867     26.76968938    -29.76240318
 H      8.09909839     25.91105303    -31.04010642
 H      9.74414073     27.96615624    -29.84339546
 H      8.56504154     28.42122664    -29.23388228
 H     10.13084550     27.50226446    -31.75910292
 H     10.84575830     27.67580715    -30.13828545
 H     10.81475427     29.72194462    -29.63692255
 H     10.07271871     30.20324209    -31.18159165
 H     11.63410588     29.59242178    -32.64656619
 H     12.71500673     28.98754198    -31.36827028
 H     12.92580219     31.21110618    -30.40395285
 H     11.85091788     31.87146467    -31.65966661
 H     12.61926891     31.67656016    -33.51224727
 H     14.11880904     30.90303341    -32.94541181
 H     14.43349896     33.17051169    -31.69076003
 H     12.94848023     33.72342863    -32.50148124
 H     13.29400517     33.69616754    -34.57638449
 H     14.97100762     33.12545650    -34.40255023
 H     15.96514516     34.73315836    -33.31168247
 H     14.48751215     35.72257183    -33.23468665
 H     14.29091048     35.99811813    -35.56883219
 H     15.76016521     35.03294087    -35.84809917
 H     17.14994611     36.62597784    -34.67838820
 H     16.19124565     37.28466966    -34.02037608
 H     15.26246815     37.91467044    -33.37202518
 H     14.60541497     38.40750571    -34.95115823
 H     16.67479657     39.69208914    -35.38465216
 H     17.31396044     39.18756042    -33.80187391
 H     15.50196754     40.37054496    -32.65686835
 H     14.84116298     40.89006559    -34.22584964
 H     16.23714664     42.28206957    -34.98508650
 H     17.53277289     41.84334527    -33.78414480
 H     14.74260996     43.23912776    -33.72082990
 H     15.08879926     42.77911857    -35.40511347
 H     17.14309165     44.40499783    -35.01206305
 H     17.26206881     44.36681837    -34.39335169
 H     17.96879032     43.99786270    -33.41025578
 H     16.76301757     45.51719873    -32.70404443
 H     16.60245268     46.77268739    -32.92606706
 H     17.95806715     46.61889686    -34.06927507
 H     19.44336724     45.95438903    -32.22109781
 H     18.08864573     46.10781751    -31.07678317
 H     17.94100984     48.51512533    -31.56882776
 H     19.29558783     48.36489739    -32.71373680
 H     20.77024436     47.97344182    -32.78062068
 H     20.85163473     47.70629641    -31.02270270
 H     20.38027285     49.80038243    -30.29282518
 H     20.22883072     50.42228995    -31.95371740
 H     22.16697246     50.17461346    -32.84641561
 H     22.87145017     49.47537893    -31.36890117
 H     22.32618730     51.79641731    -30.36113201
 H     21.66714157     52.26402075    -31.94709305
 H     24.20242807     51.71829435    -32.62732653
 H     24.48642130     51.59484370    -30.87450753
 H     23.64071327     54.05734562    -30.86532587
 H     23.59787663     53.95357231    -32.64174439
 H     26.01807270     53.55276886    -32.69698272
 H     26.07940004     53.65393875    -30.92095618
 H     25.43874132     55.74615251    -30.54979294
 H     25.25296081     56.08736728    -32.28683777
 H     27.42296583     55.79893453    -32.93904515
 H     27.94086263     55.41879631    -31.27906186
 H     27.17363256     57.84879212    -30.80475608
 H     26.72635510     57.97763873    -32.52278055
 H     28.53980871     58.81369665    -33.11066761
 H     29.56489303     57.55258586    -31.83809149
 H     29.00939204     59.80820960    -31.23551652
 H     28.08823846     60.03210728    -32.74203987
 H     30.72633266     59.68070036    -33.49296590
 H     31.02916777     59.52073035    -31.74626411
 H     30.32546804     61.76889434    -31.28422379
 H     29.98893557     62.04545469    -33.01006472
 H     31.99360149     61.82020406    -33.92575403
 H     32.76973563     61.50152815    -32.35593617
 H     32.11562391     63.78690493    -31.62678933
 H     31.35071894     64.06210917    -33.21028220
 H     33.64191561     63.81218659    -34.22342641
 H     34.30651719     63.54511591    -32.59393426
 H     33.99225219     65.28131412    -31.46163533
 H     33.20609140     66.14933207    -32.80206911
 H     35.59161947     65.82718563    -33.87071703
 H     36.05695501     64.98675026    -32.37225185
 H     35.53712734     67.43669923    -31.44036850
 H     35.14202789     67.87607261    -33.11939028
 H     37.80721213     67.21287112    -33.15830340
 H     37.59735198     66.89925292    -31.41880088
 H     37.17299789     68.83416083    -30.57155763
 H     37.06315426     69.64463651    -32.15248464
 H     39.61313379     69.24730148    -32.11775027
 H     39.40514863     68.13529667    -30.74353990
 H     38.74135408     70.39416963    -29.55470631
 H     39.03684903     71.20114331    -31.11346956
 H     41.42972010     70.50633617    -30.93031200
 H     41.06548493     69.71738065    -29.37688077
 H     40.50790906     72.14482502    -28.63653543
 H     40.92910010     72.67458952    -30.28280830
 H     43.06008798     72.15879743    -30.44586889
 H     43.12256228     71.50882514    -28.79000064
 H     42.55916148     73.88432877    -28.05088920
 H     42.53219860     74.36760043    -29.76377803
 H     45.02110933     73.77211126    -29.72083492
 H     44.83090510     73.23971659    -28.03304201
 H     44.27392122     75.51395060    -27.33400293
 H     44.45618635     76.08284339    -29.01072803
 H     46.51332119     75.73752939    -29.52233181
 H     46.90553462     75.06573761    -27.92135365
 H     46.57479840     76.64785734    -26.51746489
 H     46.08836625     77.80582075    -27.77872266
 H     48.11709170     77.84276507    -28.91734660
 H     48.84004230     76.68636332    -27.77351791
 H     48.66557610     78.08284146    -25.89118488
 H     47.92799577     79.37745666    -26.86494737
 H     50.24203847     79.31697295    -28.06960371
 H     50.71092197     78.01437199    -26.95083399
 H     50.32562406     80.11599318    -25.29271414
 H     49.91013934     81.03536967    -26.75913359
 H     51.41874777     81.19224111    -28.05499559
 H     52.55984289     80.28559020    -27.03315767
 H     52.44185864     81.95919992    -25.28019222
 H     51.29803294     82.91727997    -26.25076528
 H     52.60675086     83.41357046    -28.02722743
 H     53.99516816     82.53501969    -27.34260154
 H     53.95446718     84.20355884    -25.45373186
 H     52.56455424     85.00419504    -26.22534729
 H     53.93554192     85.63410911    -28.13382620
 H     55.32335048     84.73964577    -27.46885296
 H     55.10049769     86.52018353    -25.55560594
 H     53.80294767     87.25959158    -26.52406159
 H     55.14486499     87.78606454    -28.37116133
 H     56.58442633     87.10068906    -27.57983949
 H     56.57692609     88.65937006    -25.79166675
 H     55.13512256     89.46662640    -26.45333619
 H     56.50415777     90.06147655    -28.46426790
 H     57.90069171     89.23221938    -27.73605627
 H     57.62987012     91.09348475    -25.92916508
 H     56.24966235     91.70832094    -26.87005276
 H     57.05391735     92.32059400    -28.76116423
 H     58.71777682     91.87178241    -28.31573579
 H     58.48656824     93.67078774    -26.51118011
 H     56.83328312     93.97989055    -27.09373518
 H     57.72412999     94.70407839    -29.26781808
 H     59.38072932     94.39785258    -28.69321295
 H     58.79624254     96.27800775    -26.99543954
 H     57.19005330     96.37545592    -27.75631183
 H     58.09294872     97.06953704    -29.87185323
 H     59.74587715     97.00924721    -29.21423679
 H     59.53949579     98.63183573    -27.61232204
 H     57.84080497     98.93670621    -28.04794818
 H     58.90010514     99.56461098    -30.36270971
 H     60.48314115     99.35477612    -29.57643176
 H     59.51054120    101.40349555    -28.20297386
 H     57.97732491    101.16828116    -29.07600803
 H     59.84994499    101.93553543    -30.96691672
 H     60.97667433    101.97352712    -29.58949003
 H     59.60495396    103.79576926    -28.59224372
 H     58.50629835    103.71832272    -29.99053716
 H     60.59200992    104.44653002    -31.32413829
 H     61.50090265    104.45033608    -29.79372455
 H     59.59199820    106.38620477    -29.47046137
 H     59.07317676    105.94158448    -31.11405614
 H     61.42353966    106.78413204    -31.78021504
 H     61.71871439    107.14393028    -30.06216854
 H     60.04614116    108.75669742    -29.84049332
 H     59.57332576    108.57286068    -31.54663409
 H     61.42908007    109.22490100    -32.59871581
 H     62.27859826    109.55398941    -31.06957019
 H     60.90549580    111.23001712    -30.29210131
 H     59.86642406    111.13052739    -31.73387049
 H     61.63338493    112.54089839    -32.67023726
 H     62.85112287    111.85132666    -31.16007765
 H     60.96363530    113.79581320    -31.03267066
 H     60.66606026    113.43723213    -32.75055755
 H     63.22390840    114.34132577    -32.73892049
 H     63.01595394    114.51487550    -30.97968710
 H     61.23813869    116.21584612    -31.45319545
 H     61.50583035    115.98234974    -33.19735349
 H     63.71529123    116.73798447    -33.22498736
 H     63.67944770    117.05924139    -31.47462286
 H     61.93289310    118.74512907    -31.78493292
 H     61.94666669    118.44620625    -33.53956169
 H     64.43930395    119.48338970    -32.54370234
 H     63.55814769    119.42294310    -30.99832972
 H     62.09174668    120.33877392    -30.60620285
 H     62.03553809    121.17567261    -32.17614165
 H     64.22110718    122.23171243    -31.62847764
 H     64.23332240    121.37215325    -30.06986432
 H     62.31074141    122.41807951    -29.21352868
 H     62.12141589    123.38361171    -30.69682572
 H     64.30105711    124.47226099    -30.20978229
 H     64.45303937    123.48692937    -28.73523502
 H     62.55653307    124.39045402    -27.66927743
 H     62.23801425    125.46407263    -29.05280752
 H     64.57894278    126.42589816    -28.31335023
 H     64.57840855    125.20061551    -27.02224651
 H     62.54571234    126.36181134    -26.09275689
 H     62.63589431    127.53481258    -27.42849712
 H     64.54885887    128.57545042    -26.81995032
 H     64.97254939    127.33690639    -25.61381530
 H     63.02382663    128.11211608    -24.25335462
 H     62.65673484    129.32710116    -25.50128152
 H     64.74361940    130.47887970    -25.16028724
 H     65.20444907    129.31626745    -23.89370309
 H     63.47698387    129.82886698    -22.41593895
 H     62.82564366    131.06018742    -23.52403306
 H     65.11987096    132.20371232    -23.08542817
 H     65.52486477    130.83416478    -22.02307878
 H     63.22976510    131.45116544    -20.84693235
 H     63.26117478    132.54010927    -21.24371741
 H     64.60376954    130.21248428    -19.89044385
 H     62.96081862    130.25509772    -20.57393711
 H     63.04313033    132.09678418    -18.48664025
 H     64.73896747    131.57797597    -18.33418994
 H     64.20907516    129.33945340    -17.77021352
 H     62.46629170    129.68598509    -17.87456030
 H     61.98079407    131.10833517    -16.42119917
 H     62.94205011    131.64504107    -16.22229666
 H     63.76046831    132.52779640    -16.26025124
 H     64.75980190    131.29130230    -15.45982549
 H     63.45257363    131.05415082    -13.55642688
 H     62.29451039    132.27649881    -14.13350711
 H     63.93634982    134.03067841    -14.10466165
 H     65.17643924    132.89415320    -13.52263472
 H     63.53525161    132.78711506    -11.46705595
 H     62.50126396    133.94440535    -12.33872986
 H     63.77274888    135.73113159    -12.49836610
 H     65.12122906    134.96015062    -11.62919627
 H     63.42795443    134.89262987     -9.66958249
 H     62.24299328    135.66973987    -10.74672396
 H     63.66772141    137.66295570    -10.90467705
 H     64.86179844    136.89894364     -9.82823276
 H     62.61282916    137.22946654     -8.29812557
 H     61.85511172    137.84013583     -9.78849934
 H     63.30619603    139.73184310     -9.93694939
 H     64.15188127    139.23765702     -8.45072489
 H     62.05301111    139.54016821     -7.17974987
 H     61.22274196    140.03171052     -8.67551254
 H     62.76523627    141.99849618     -8.78324330
 H     63.54893664    141.44420912     -7.28429492
 H     61.73034842    141.63336907     -5.88355309
 H     60.69710300    142.22566738     -7.20637330
 H     61.90873200    144.18480441     -7.61492123
 H     63.06891576    143.79389328     -6.32285746
 H     61.20166136    143.94847490     -4.68225709
 H     60.08210439    144.33481108     -6.01101712
 H     61.46979687    146.42897634     -6.35287134
 H     62.51276985    145.91835851     -5.00389267
 H     60.10239362    146.29091710     -3.81692767
 H     59.51720674    146.72747254     -5.44027062
 H     60.74859837    148.70300776     -5.56662509
 H     61.73590217    148.28487906     -4.14582734
 H     59.36405801    148.66097888     -2.99391327
 H     58.74194547    149.01566027     -4.62346651
 H     60.40378630    151.00903378     -4.47631587
 H     60.85291423    150.42998690     -2.85420136
 H     58.74377334    150.65732119     -1.87703102
 H     58.11172969    151.41620889     -3.35786760
 H     59.66788864    153.25572781     -3.20360133
 H     60.36101629    152.57082151     -1.71405641
 H     58.30397898    152.67788767     -0.49314377
 H     57.51629465    153.44823973     -1.79612584
 H     59.91429631    153.72380577      0.24928164
 H     58.99896760    152.20667059      0.41881299
 H     57.07686751    153.87758890      1.04313687
 H     58.24460658    155.19590864      0.78490212
 H     59.52211938    154.15879064      2.74185174
 H     58.25662127    152.91181229      2.85060011
 H     56.79546965    155.03126970      3.41671211
 H     58.27633698    155.99909099      3.22019092
 H     59.18954054    154.70130284      5.19818095
 H     57.65358891    153.80525560      5.27703889
 H     57.04839173    156.45992168      5.79218857
 H     58.79389715    156.72523192      5.56616211
 H     59.01065041    155.20625935      7.64412734
 H     57.23523344    155.08134106      7.66772125
 H     57.13659366    157.53813783      8.08617965
 H     58.91506305    157.60177310      8.05062897
 H     59.43485612    156.31333873      9.80320707
 H     57.72411023    156.00688797     10.18752867
 H     57.23683129    158.28917484     10.64947562
 H     58.91910545    158.75414967     10.30016380
 H     60.01133170    157.62845165     11.90699345
 H     59.46096661    156.84946198     12.08960120
 H     58.84917135    155.66867263     12.19179070
 H     57.48171541    156.51715667     12.95232061
 H     58.95872008    157.21589067     14.80233506
 H     60.32010702    156.36469831     14.03398368
 H     59.39298474    154.22158886     14.18246398
 H     57.93155224    154.85661572     14.97569950
 H     60.04115652    155.38845264     16.68600513
 H     61.03583723    154.61040510     15.43160529
 H     60.30871426    152.56480069     15.35243087
 H     59.10692462    152.83963800     16.63634394
 H     60.12641293    153.49183389     18.37759601
 H     61.69699958    153.02430132     17.68265894
 H     60.96461741    150.73857997     17.29523769
 H     59.46224535    151.09262850     18.18168818
 H     59.25217855    151.61626692     19.79751574
 H     60.99395204    151.59125634     20.16339309
 H     61.30149711    149.30258400     19.83618933
 H     59.58124282    149.07696694     19.43858548
 H     58.77593738    149.74091934     21.54951674
 H     60.43139604    150.02206977     22.14000612
 H     60.91835246    147.61345930     21.83740200
 H     59.25794429    147.35732019     21.24943591
 H     58.75474632    148.14822182     23.73485902
 H     60.51660338    148.29381208     23.94205417
 H     60.32321634    145.68361627     23.51238507
 H     58.56775183    145.93473681     23.35892671
 H     58.19771576    146.67321471     25.53098630
 H     59.92123586    146.49985067     25.94048603
 H     59.16437213    143.95938855     25.22769667
 H     57.52518212    144.65307171     25.23894226
 H     57.48500867    145.28113346     27.46814598
 H     59.12923380    144.65279960     27.73269642
 H     58.00648969    142.38320309     27.13342784
 H     56.47716957    143.27035363     26.92748963
 H     56.89217003    143.70456352     29.50451072
 H     58.38427953    142.74951085     29.33202797
 H     56.59706132    140.88251415     28.75985705
 H     55.35062827    142.12819902     29.01073653
 H     56.02503567    142.32397265     31.37276598
 H     57.27091687    141.07815356     31.11982032
 H     55.09320239    139.64474691     30.63709176
 H     54.16081090    141.12663909     30.95788503
 H     55.36001312    140.62423013     33.33760246
 H     56.08325756    139.21401819     32.52736394
 H     53.81651493    138.26882234     32.21158635
 H     53.11705133    139.68936548     33.02465126
 H     54.64540549    138.48725892     34.94686074
 H     55.03947594    137.29668257     33.68372848
 H     52.82823772    136.46865122     33.54693170
 H     52.21686140    137.73601699     34.63700953
 H     53.90902221    136.47460616     36.29052939
 H     53.98867662    135.24211225     35.00878035
 H     51.70625817    134.71392282     35.03358835
 H     51.39889287    135.89581484     36.32854954
 H     52.91505240    134.47734831     37.77491427
 H     53.14331064    133.37207319     36.39849436
 H     50.63530838    132.93311082     36.60436968
 H     50.58977951    134.07727164     37.96712050
 H     52.27489146    131.77684318     38.44850375
 H     51.64520091    131.32637760     36.84574450
 H     49.30284071    131.79661670     38.11737523
 H     49.73469652    131.59648687     39.07708592
 H     49.21157814    130.72372989     36.29564622
 H     48.86031774    132.32934284     36.97893962
 H     47.51334728    130.14232794     38.31280248
 H     48.40592321    129.19979155     37.09493548
 H     46.58989447    130.88719900     35.77783174
 H     46.17948305    131.41020950     37.42897956
 H     45.33842692    129.35065789     38.13803264
 H     45.73241348    128.58499232     36.58021445
 H     43.92131518    130.34865907     35.77621243
 H     43.80466091    130.86190630     37.47657584
 H     43.07782167    129.15956779     38.55712162
 H     42.97583346    128.14640200     37.09720375
 H     41.20853832    130.02195153     36.47185632
 H     41.58658753    130.76906527     38.04257797
 H     40.53808342    128.41132492     38.79353223
 H     40.35205489    128.07169168     37.05620402
 H     38.83213650    130.00205567     36.82654317
 H     38.91686707    130.24993108     38.58712409
 H     37.97045450    128.11106462     39.08567233
 H     37.82657403    127.73802470     37.35119654
 H     36.27048037    129.56804622     37.00692478
 H     36.36678506    129.99463261     38.73232796
 H     35.37571940    127.75546407     39.25026989
 H     35.61415156    127.18071813     38.05070313
 H     35.92371877    126.63506868     36.93318790
 H     34.78432128    127.78900547     36.19938282
 H     32.86878688    127.12890024     37.23271836
 H     33.71452396    125.84828362     38.13439265
 H     34.48082953    124.48526115     36.69362132
 H     33.81576064    125.39851455     35.31815113
 H     31.58213020    125.17843727     35.84086441
 H     31.95511530    124.22092745     37.29424796
 H     32.86144100    122.70023290     35.20493395
 H     32.29921160    124.03980981     34.17648926
 H     29.98330775    123.25034700     35.10474242
 H     30.85636683    122.10484325     36.15061798
 H     31.75490574    120.77448864     34.50786713
 H     30.99224713    121.74029300     33.22184985
 H     28.78785611    121.30913751     33.81059506
 H     29.29583192    120.27995332     35.17111229
 H     30.29038420    118.80161717     33.29727972
 H     29.72436677    120.00803589     32.11726074
 H     27.41574055    119.15462971     33.32175674
 H     28.47822317    117.94668753     34.08351327
 H     29.39250464    116.75211980     32.77122104
 H     28.62837768    117.51083014     31.35392246
 H     26.41655711    116.76815862     32.20956169
 H     27.22008298    116.02343391     33.61241520
 H     28.32999784    114.51930785     31.83316009
 H     27.42169676    115.41361097     30.59079229
 H     25.50203349    115.31107070     30.65601482
 H     25.47387428    114.22565104     32.06645371
 H     26.36136290    112.45336632     31.68823244
 H     26.74570026    112.86378706     29.99941443
 H     24.32302922    112.86931833     29.52698817
 H     23.95307466    112.75576151     31.26437274
 H     24.96291153    110.46090006     31.22832083
 H     25.29886548    110.65753733     29.49144564
 H     22.50394681    110.72102307     29.97894129
 H     23.01706589    110.49052298     31.66768199
 H     24.00336885    108.40184959     31.36977422
 H     23.59160391    108.39699837     29.63810082
 H     21.16036976    108.42262545     30.79159591
 H     22.02763090    108.43373630     32.34594507
 H     22.96074408    106.19757814     31.77504472
 H     22.07443547    106.23450177     30.23187903
 H     20.07888476    106.28710520     30.48641785
 H     20.17752026    106.24440215     32.26313227
 H     21.15686379    104.22983050     32.55951683
 H     21.21744188    103.91915754     30.80792348
 H     18.77499527    103.95071971     30.68028039
 H     18.68027842    104.26105317     32.43041996
 H     19.76618028    102.01698254     32.76763471
 H     19.81719868    101.80259483     31.00136698
 H     17.64938654    101.78937901     30.48502624
 H     17.15888734    101.99353772     32.18384831
 H     18.02901989    100.01601575     32.99761730
 H     18.62992130     99.55015033     31.38822190
 H     16.41934987     99.45288961     30.45092229
 H     15.70848904     99.91175023     32.01693330
 H     16.64923461     97.76004351     32.93033237
 H     17.32025156     97.40017878     31.32145068
 H     14.94920979     97.32702456     30.48116543
 H     14.37986990     97.69291445     32.12744710
 H     15.21802241     95.72395459     33.10245711
 H     15.86277055     95.17160578     31.53801559
 H     13.33529999     95.17398647     30.88759512
 H     12.98376376     95.73710866     32.53913451
 H     14.27793925     93.14861444     32.46196194
 H     14.04464620     93.40425673     30.71596994
 H     11.57474290     93.40297484     31.15860248
 H     11.90160718     93.18932956     32.89520322
 H     12.91484350     91.12001277     32.77000457
 H     12.71069830     91.06160177     31.00275259
 H     10.19875493     91.09263220     31.53356426
 H     10.61473302     91.15363567     33.26316174
 H     11.67815600     88.92057074     33.04045091
 H     11.24555279     88.89653343     31.31402590
 H      9.00013738     88.92843271     31.44764365
 H      9.02979211     88.94789669     33.22725271
 H     10.17213263     86.55672563     32.12976094
 H      9.76887956     87.36007321     30.59343862
 H      7.40987147     86.85158312     32.09620736
 H      8.56744918     86.09148094     33.21447620
 H      9.58436885     84.61932428     32.64794412
 H      8.85288435     84.56558976     31.02612117
 H      6.67823408     84.11591067     31.71511285
 H      7.16514631     84.11144734     33.42717688
 H      8.57706851     82.20220610     33.16271654
 H      8.24963719     82.14913673     31.41393438
 H      5.83886351     81.65090286     32.08602433
 H      6.33841985     81.74381209     33.79191941
 H      7.81811458     79.85796281     33.58770626
 H      7.38551957     79.67448886     31.87088783
 H      5.02399863     79.20541250     32.95327288
 H      5.79517563     79.46583741     34.53622315
 H      7.27693776     77.81470561     34.61054755
 H      6.79222171     77.19400713     33.01428616
 H      4.52596689     76.82588578     34.31951496
 H      5.33802584     77.51439948     35.74597064
 H      6.78429531     75.57892450     35.87641158
 H      6.27834911     75.02137530     34.26351853
 H      4.00677006     74.64205228     35.50263623
 H      4.79259860     75.25749407     36.97639726
 H      6.50538885     73.86218482     37.25831984
 H      5.79730584     72.73883747     36.07300307
 H      3.76750905     72.42232855     37.14944117
 H      4.23920401     73.51042113     38.47677876
 H      6.07486690     71.80603941     38.95566984
 H      5.47568610     70.83646511     37.58849219
 H      3.33092041     70.61277813     38.95726159
 H      4.08737754     71.60525692     40.22652323
 H      5.80937122     69.94976478     40.62051014
 H      5.71265384     69.28298548     39.51682196
 H      5.72257830     68.72305732     38.37733719
 H      4.09183933     68.15087177     38.80343669
 H      5.78291152     67.04408313     40.67669048
 H      7.06533633     67.91093158     39.79792598
 H      6.25212856     66.24628597     37.89791848
 H      5.07061513     65.62883336     39.07734417
 H      6.78470404     64.82614583     40.56052286
 H      8.04990731     65.40333012     39.44949377
 H      7.53716594     64.06097985     37.65128517
 H      6.23027427     63.58281302     38.12195804
 H      5.09441851     63.23874144     38.53257703
 H      5.99241730     62.42289838     39.83498439
 H      6.77424878     61.24479692     37.44220387
 H      5.64837480     62.40920061     36.70407212
 H      3.72444101     61.52032669     37.75932032
 H      4.70128712     60.27893703     38.57968003
 H      5.63741271     59.00438637     37.59683357
 H      5.07240684     59.60725433     36.02025967
 H      2.76308155     58.85189077     37.13209520
 H      3.72491735     58.37510052     38.55188731
 H      4.93476053     56.69907996     37.32040120
 H      4.02646396     57.09616850     35.84202889
 H      1.95388275     56.34099934     37.04387880
 H      2.94443167     55.97554142     38.47688962
 H      4.05131342     54.24635944     36.89069157
 H      2.94178690     54.80091427     35.61409982
 H      1.07186350     53.93890743     37.09471587
 H      2.29325464     53.43705784     38.28828922
 H      3.15557397     51.85073246     36.51720169
 H      1.88829025     52.44005368     35.41494985
 H      0.09051606     52.21059612     35.81613832
 H      0.40122952     51.34325605     37.33911075
 H      1.51163444     49.54219830     36.05066261
 H      1.18876959     50.43055759     34.54240444
 H     -1.26537067     50.18064123     35.03705756
 H     -0.83899376     49.21735355     36.47182104
 H      0.09921986     47.51082826     34.92799382
 H     -0.13641646     48.60726418     33.54575995
 H     -2.66372730     47.96074088     34.47281613
 H     -1.78866957     46.99542477     35.68554258
 H     -1.07292612     45.75228178     33.42978364
 H     -2.07601610     46.95038083     32.57735427
 H     -3.93817773     45.71504868     34.01804714
 H     -2.62592899     44.70002513     34.66302550
 H     -2.17671748     43.79142467     32.44054015
 H     -3.48232830     44.79074778     31.75863080
 H     -5.00439036     43.38894245     33.29103349
 H     -3.55538978     42.51446320     33.84235012
 H     -3.22163419     41.67267662     31.53767175
 H     -4.67390325     42.55661665     31.01057474
 H     -6.11864048     41.26132214     32.44011067
 H     -4.72802295     40.31851279     33.02795424
 H     -4.32471223     39.43958039     30.78228797
 H     -5.71007610     40.36887132     30.16144017
 H     -6.72512554     38.50792714     31.93354117
 H     -5.02151002     38.09377331     32.24084793
 H     -4.69095064     37.31609208     29.98114818
 H     -6.38310356     37.69613892     29.58058662
 H     -7.01119407     35.99549648     31.37570857
 H     -5.27822290     35.62311401     31.53821671
 H     -5.23391051     34.88318203     29.18096666
 H     -6.96711899     35.26067321     29.03346941
 H     -6.87966773     33.27547084     30.90094825
 H     -5.11632754     33.32057004     30.66248636
 H     -5.74666429     32.57196320     28.25333863
 H     -7.45327976     32.61530237     28.75717591
 H     -6.01708458     30.65849185     30.23062316
 H     -4.65160506     31.23834806     29.24700783
 H     -5.18836748     30.76540468     27.20754630
 H     -6.73639854     30.02555353     27.68134668
 H     -5.41486115     28.34887017     29.02253763
 H     -3.93046173     29.05234324     28.33700817
 H     -4.49048741     28.29309696     26.14622899
 H     -6.16753428     27.93126274     26.62041929
 H     -4.82264578     26.06423437     27.98977730
 H     -3.34748208     26.76151877     27.27847344
 H     -4.19895538     26.09339490     25.03101848
 H     -5.65375077     25.41412198     25.79940987
 H     -4.75191139     23.81481564     27.09861961
 H     -3.12251925     24.12829302     26.45435271
 H     -3.75958373     23.54939233     24.21089972
 H     -5.42183007     23.20412834     24.74568617
 H     -4.26515543     21.34978946     26.14042983
 H     -2.71223521     21.89408696     25.46186834
 H     -3.18643656     21.39449928     23.24144000
 H     -4.80227965     20.78243505     23.66886853
 H     -3.78216877     18.99587362     25.01388530
 H     -2.16200087     19.60025416     24.59192937
 H     -2.56668354     19.10581995     22.22501286
 H     -4.19050687     18.49627690     22.62491498
 H     -3.97176341     16.82408733     23.87574870
 H     -2.19353365     16.89947763     23.85379638
 H     -2.10062311     16.49735386     21.47580795
 H     -3.87654452     16.40320130     21.40161157
 H     -3.94773076     14.46251422     22.82724881
 H     -2.17293068     14.46928112     22.96254685
 H     -2.49020113     14.02830534     20.34272324
 H     -4.24138562     14.10685363     20.65167256
 H     -4.46490801     12.31832671     22.03117919
 H     -2.72833996     11.93922367     21.93695107
 H     -2.82412569     11.50089165     19.57530045
 H     -4.56810992     11.85640551     19.55541207
 H     -4.64258711      9.82905924     21.22663852
 H     -2.91130547      9.61664689     20.87193928
 H     -3.04171936      9.21202973     18.63479144
 H     -4.81597497      9.35420824     18.64309585
 H     -4.41715348      7.22022200     20.23387432
 H     -2.67995671      7.47465814     19.94116919
 H     -2.93246521      7.03487801     17.56949084
 H     -4.67805369      6.76493402     17.78930386
 H     -4.98502458      5.13640622     19.02471083
 H     -3.24650258      4.81264480     19.22716195
 H     -2.85075275      4.34632765     16.94750942
 H     -3.69541109      4.89886891     16.44184691
 H     -4.47682280      5.70218481     15.82951295
 H     -5.79606334      4.68097462     16.44999730
 H     -5.27937758      2.71685161     15.46030694
 H     -3.85624765      3.41470319     14.65038655
 H     -4.12062700      4.81916559     13.39836474
 H     -5.89260562      4.81811431     13.56676110
 H     -4.61440165      2.38477400     12.51850450
 H     -3.17494091      3.39523816     12.79269717
 H     -4.42023005      4.62420918     10.76695603
 H     -5.83548190      3.60063455     11.10991935
 H     -3.59811115      2.09836455     10.12794923
 H     -2.83541387      3.70657850     10.11354684
 H     -4.31140018      4.61334533      8.50123062
 H     -5.19169736      3.07079674      8.38338582
 H     -3.56063383      1.72874405      7.59717926
 H     -2.37759815      3.05831137      7.56645483
 H     -3.73905965      4.24504714      5.89862802
 H     -4.92727164      2.91996647      5.92271493
 H     -2.37362849      2.26588889      4.78718474
 H     -1.89844485      3.82824260      5.49536413
 H     -3.72693356      4.44794878      3.53988991
 H     -3.80426997      2.69016489      3.27066594
 H     -1.34698074      2.89280222      2.60601592
 H     -1.44718697      4.64043057      2.92853810
 H     -3.16334550      4.58101035      0.97885838
 H     -2.88114844      2.82695267      0.86971104
 H     -0.50125315      3.37241899      0.25462679
 H     -0.88820819      5.10424546      0.39358557
 H     -2.49799861      4.61147673     -1.56810741
 H     -1.95542675      2.91715662     -1.51187736
 H      0.31391076      3.53183542     -2.09207330
 H     -0.15245220      5.24784965     -2.16996710
 H     -1.78565478      5.05443785     -3.82668674
 H     -1.22897518      3.39795513     -4.16497579
 H      1.02920915      4.40219647     -4.66883318
 H      0.36490930      6.01260765     -4.30339071
 H     -1.20768747      5.98279057     -6.07388655
 H     -0.66145143      4.36677237     -6.58219554
 H      1.46586147      5.42747775     -7.26827533
 H      1.05097700      6.91586964     -6.38463111
 H     -0.86827522      7.38301223     -7.79210005
 H     -0.28298038      6.13660743     -8.92000594
 H      1.75292865      6.95408835     -9.42089239
 H      1.52412099      8.37517398     -8.37378718
 H     -0.47715539      8.63034405    -10.20779722
 H      0.28291504      7.22279105    -10.98840861
 H      2.29087858      8.90693583    -11.17986822
 H      1.26018844     10.10367905    -10.35904536
 H     -0.13019086      9.71363975    -12.59968418
 H      1.13844008      8.55458511    -13.06383346
 H      2.81756588     10.31636590    -13.11114628
 H      1.58784222     11.51751577    -12.64931798
 H      0.64533196     10.72062700    -15.01635774
 H      2.04650657      9.62525125    -15.08797026
 H      3.45882735     11.77283489    -14.99873581
 H      1.93543102     12.68497699    -15.12334354
 H      1.23368572     11.88281929    -17.16092109
 H      2.69550484     10.88216552    -17.33425188
 H      3.76706293     13.32569984    -17.29526770
 H      2.10525339     13.93820933    -17.11781958
 H      1.40906509     13.09806784    -19.24671937
 H      3.03421478     12.43843600    -19.55010194
 H      4.27454644     14.28943133    -19.58254217
 H      2.86576226     15.33768275    -19.29140168
 H      2.08212518     14.40768702    -21.58138589
 H      3.57852758     13.44518712    -21.63277118
 H      4.97391941     15.42754940    -21.62847354
 H      3.51970851     16.45246139    -21.68408608
 H      2.60025355     15.84832166    -23.61402048
 H      3.90003735     14.68424455    -23.96580622
 H      5.49875813     16.60097527    -24.02593621
 H      4.15536996     17.71338593    -23.67080607
 H      3.09041958     17.08806029    -25.80924063
 H      4.43910762     15.97859848    -26.15333612
 H      6.17492542     17.31165190    -26.29018682
 H      5.19729783     18.76699923    -25.98281883
 H      3.90063339     18.47320729    -27.98479639
 H      4.81772229     17.00315250    -28.39241573
 H      6.80483057     17.47558253    -28.69674509
 H      6.56040499     19.21311879    -28.39759538
 H      5.33673179     20.08802456    -29.69973608
 H      5.06350425     18.60068015    -30.63857577
 H      7.60906135     18.78021268    -31.09421197
 H      7.62106611     20.25476315    -30.09730503
 H      7.14207167     21.59195935    -31.68701939
 H      6.06601671     20.11007743    -32.64536074
 H      8.65261869     20.59054170    -32.86199064
 H      8.41749088     21.90730930    -31.68763776
 H      6.98943800     23.18923871    -33.02119993
 H      7.08064392     22.00273400    -34.34488974
 H      9.58289910     22.64005491    -34.37283712
 H      9.25269074     23.76765771    -33.03577279
 H      7.81747441     25.13924037    -34.37023241
 H      7.99567486     24.04285985    -35.76108144
 H     10.50142752     24.93317780    -35.48826253
 H      9.89833165     25.88993633    -34.11379713
 H      8.43777993     27.24264532    -35.20884728
 H      8.81893854     26.49906643    -36.78049458
 H     11.13965112     27.72229364    -35.81245789
 H     10.10970987     28.15163736    -34.42568045
 H      8.73375963     29.51404247    -36.04465250
 H      9.83091086     29.01497889    -37.35440873
 H     11.61008285     30.29446782    -36.00412583
 H     10.35046901     30.67729859    -34.80617749
 H      9.38003977     31.94296553    -36.93404572
 H     10.80655003     31.34713763    -37.81627258
 H     12.39404301     32.49171349    -36.53740689
 H     11.12471524     33.21510005    -35.52065443
 H     10.25707687     34.38189800    -37.54401109
 H     11.54595437     33.63035392    -38.51470309
 H     13.26941269     34.81418399    -37.36111390
 H     12.10412437     35.48236873    -36.19325306
 H     11.04776158     36.76040953    -38.03917268
 H     12.22816614     36.07271015    -39.18021663
 H     14.04964860     37.19980056    -37.94803792
 H     12.85747775     37.87992102    -36.81471030
 H     12.20567301     39.15762688    -39.02198791
 H     13.28545343     38.06081339    -39.91604667
 H     15.22632662     39.04522751    -38.74583604
 H     14.13423901     40.13559755    -37.85887241
 H     13.63263460     41.04914283    -40.24071059
 H     14.78259623     39.84653066    -40.87283312
 H     16.53146890     41.12577525    -39.51278866
 H     15.24303447     42.23182846    -38.97907555
 H     15.33450165     42.62636196    -41.66338858
 H     16.62820019     41.40382143    -41.66571851
 H     17.99425390     42.96039105    -40.26824111
 H     16.66040262     44.13844231    -40.30433325
 H     17.04519651     44.22931018    -42.81479995
 H     18.35534251     43.04011747    -42.62088034
 H     19.52369799     44.81581271    -41.22975181
 H     18.13642480     45.89588767    -41.50756082
 H     19.55195361     45.19288812    -43.91814116
 H     20.53490447     44.25945611    -42.76454722
 H     21.23581680     46.33469889    -41.65569497
 H     21.13671035     46.77505204    -43.64907377
 H     21.96144352     46.23690269    -44.50951863
 H     22.71842039     45.41278725    -43.12529089
 H     23.24138682     47.79980405    -42.31760673
 H     22.42996658     48.41570080    -43.77724197
 H     24.01099915     47.49408296    -45.26983153
 H     24.87940977     46.68645027    -43.94248113
 H     25.53956407     48.61811685    -42.81548052
 H     24.84671122     49.64140651    -44.09653472
 H     26.38652554     48.66773148    -45.73861438
 H     27.09287915     47.63645503    -44.47141269
 H     27.83386721     49.78038599    -43.35103964
 H     27.08371309     50.69798006    -44.67902932
 H     28.47445723     49.85491189    -46.36934858
 H     29.36783307     48.85478490    -45.19892462
 H     29.75882574     51.54293507    -44.52900791
 H     28.70302171     51.84967144    -45.92881408
 H     31.22873836     50.55778085    -46.55113469
 H     31.41733005     50.69096700    -44.78620939
 H     31.39965780     53.04920727    -44.74523674
 H     31.21388705     53.11966268    -46.51407589
 H     33.59735548     51.94486158    -46.32156958
 H     33.39597712     52.05488586    -44.55646106
 H     33.43447492     54.62478224    -45.10904242
 H     33.62497826     54.17119276    -46.81966562
 H     35.84149143     53.13950574    -46.09027671
 H     35.49119095     53.66396522    -44.42579527
 H     35.70916102     55.97652406    -45.91283176
 H     36.00548611     54.87762015    -47.28135956
 H     37.80256715     53.77444809    -46.73947836
 H     38.06522834     54.78668907    -45.29911591
 H     38.27502962     56.81584807    -46.37766184
 H     38.04511052     56.05877736    -47.97210463
 H     40.13834628     54.76453215    -47.59321778
 H     40.32209665     55.54901812    -46.00605546
 H     40.51860507     57.63685128    -47.69681251
 H     40.28360309     56.44912843    -49.00155584
 H     42.36402141     55.31739240    -48.41237101
 H     42.63796905     56.48511504    -47.09721201
 H     42.81391130     58.35432332    -48.56105493
 H     42.55521425     57.31016967    -49.97918245
 H     44.67861980     56.12900551    -49.40082542
 H     44.87726070     57.20554452    -47.99730406
 H     45.08944661     59.15115257    -48.59533462
 H     44.98297128     58.75759922    -50.32797579
 H     47.09559151     57.59768556    -50.22614438
 H     47.09214218     57.62335418    -48.44637027
 H     47.37995810     60.09258491    -48.53514917
 H     47.37656635     60.01829754    -50.31355760
 H     49.51915709     58.62180598    -49.99580629
 H     49.32319550     58.81992847    -48.23779230
 H     49.36253075     61.39528662    -49.55947671
 H     49.82100175     60.75209029    -50.63303194
 H     50.29224331     61.28010961    -47.59793001
 H     48.89959732     61.97496413    -48.46163193
 H     51.12198891     62.98752629    -49.76175711
 H     51.99751712     62.25266340    -48.39731820
 H     51.00204790     63.47798244    -46.70604325
 H     49.99998884     64.37750007    -47.87009322
 H     52.43207510     65.14916964    -48.63057170
 H     53.05957919     64.10489175    -47.33288569
 H     52.02073484     65.37248743    -45.59568933
 H     51.33093846     66.49905389    -46.78870887
 H     53.33146462     67.32196846    -47.61336389
 H     54.27488550     66.29394267    -46.50820025
 H     53.36089953     67.42359647    -44.56346329
 H     52.37063749     68.46698590    -45.61178873
 H     52.40765095     69.39642991    -46.80641012
 H     54.15321442     69.62163893    -46.54078681
 H     54.08939264     70.35637249    -44.37801430
 H     52.31357928     70.24758759    -44.32398280
 H     52.06842745     71.92484974    -46.05257925
 H     53.83688397     72.09291703    -46.16474699
 H     54.03633291     73.05908478    -44.03120066
 H     52.36929677     72.62276983    -43.58523380
 H     51.18583932     73.93650093    -44.94839336
 H     52.65049978     74.65017524    -45.66512579
 H     53.58009016     75.65798320    -43.91890955
 H     52.27265647     75.15085853    -42.82268494
 H     50.48497363     76.04677108    -43.52628417
 H     51.30053039     76.86828356    -44.87841252
 H     52.70778250     78.14091649    -43.33352314
 H     51.81904470     77.43487550    -41.96242216
 H     49.76507576     78.57058274    -42.92528995
 H     50.77688196     79.20771123    -44.24384300
 H     52.02823755     80.47451060    -42.42928181
 H     50.93671325     79.75226666    -41.22296300
 H     49.28778982     79.72024621    -41.03734036
 H     49.08244567     81.03698134    -42.21730182
 H     50.39644343     82.61144657    -41.15752365
 H     50.76812028     81.49040753    -39.82583508
 H     48.36371562     81.37278310    -39.25097164
 H     48.03721295     82.61277238    -40.48551173
 H     49.43504498     84.22992587    -39.32240454
 H     49.79431084     83.02908792    -38.05860753
 H     49.20426060     82.16149827    -37.00527442
 H     47.57699088     82.81709753    -37.30602274
 H     48.34422059     85.05589882    -36.64166039
 H     49.97458672     84.40941761    -36.33795823
 H     48.79224871     83.01077505    -34.52351734
 H     47.26223515     83.78561015    -34.99991606
 H     48.31983272     85.96170441    -34.23866685
 H     49.79168236     85.05742343    -33.80948018
 H     48.57403226     83.77977375    -32.12394557
 H     47.07970351     84.66141580    -32.52138179
 H     47.39819540     86.64623872    -31.87033635
 H     49.15077256     86.44738482    -31.63117727
 H     48.96773982     84.99236315    -29.79310620
 H     47.19035870     85.06147967    -29.85948342
 H     47.78750242     87.61090551    -29.30833488
 H     48.87431492     87.59999895    -29.72393470
 H     50.00187985     87.66383615    -30.34797841
 H     50.60722785     86.51196321    -29.13347885
 H     50.21695781     88.06738189    -27.32359438
 H     49.59881001     89.27816573    -28.47257761
 H     51.73607074     89.43140849    -29.59960218
 H     52.42869594     88.22661596    -28.48739179
 H     51.69734658     90.46970630    -26.98812026
 H     51.15785981     91.11125219    -28.55835577
 H     52.71043586     91.32156041    -29.85322435
 H     53.92314481     90.74116742    -28.68671345
 H     52.99437605     92.98305622    -27.50110102
 H     51.92524951     93.13985555    -28.91554404
 H     53.74886904     93.40270591    -30.44534946
 H     54.92212657     93.26370037    -29.11403023
 H     53.66818484     95.48023362    -28.37922344
 H     52.66241969     95.28218352    -29.83437954
 H     54.68572163     95.56638682    -31.23459748
 H     55.66906378     95.76062458    -29.76368736
 H     54.48106497     97.78068535    -29.13880339
 H     53.46177683     97.64966185    -30.59212758
 H     54.64806992     97.80819845    -32.28534880
 H     56.15034981     98.02490830    -31.35558613
 H     55.19302541    100.09864536    -30.35806088
 H     53.78574337     99.92092728    -31.43334699
 H     55.32181012    100.20893644    -33.36528152
 H     56.71739935    100.23994590    -32.26091030
 H     56.04725559    102.26057497    -31.19470056
 H     54.60496080    102.36851459    -32.23219823
 H     55.94483144    102.58635144    -34.23408238
 H     57.43681448    102.48838455    -33.26834132
 H     56.79075260    104.59014285    -32.12267405
 H     55.30675129    104.66005039    -33.10304118
 H     56.46126160    104.87975452    -35.16701438
 H     58.03318970    104.82988986    -34.33345442
 H     57.77859604    106.75786756    -33.08498463
 H     56.16415537    107.05827494    -33.77171849
 H     56.69331138    107.34501201    -35.94465312
 H     58.54168017    107.30848168    -35.46203741
 H     59.09156810    108.27279183    -34.02265753
 H     58.55472984    109.05267355    -34.21674676
 H     59.72218906    106.58428281    -34.37802570
 H     59.66746052    107.26782838    -33.45765674
 H     60.73958625    106.83439497    -36.26397194
 H     59.64807774    105.74091599    -35.38012831
 H     60.38061613    104.96847485    -33.73630109
 H     61.96148557    105.76814962    -33.90846008
 H     61.39681176    103.93321682    -36.04528822
 H     60.14685822    103.42667347    -34.51695077
 H     60.10949274    102.98252770    -33.31889272
 H     61.87760927    102.83288114    -33.45902301
 H     61.45108938    101.19144870    -35.32940392
 H     59.70175834    101.42508976    -35.09806129
 H     58.92882864    100.83052398    -33.48272652
 H     60.47476106    100.43555878    -32.69382722
 H     60.62988939     98.60609813    -34.50050682
 H     59.06518707     99.17210531    -35.13265331
 H     58.48846300     98.27934818    -32.61795897
 H     60.22450139     97.90222144    -32.50744740
 H     60.24252626     96.26840471    -34.15546309
 H     58.53347909     96.55545460    -34.56169799
 H     57.76628275     95.80579408    -32.41027866
 H     59.44004430     95.47933643    -31.90016657
 H     59.04240553     93.76192669    -33.97766699
 H     57.41178847     94.46968291    -34.06951366
 H     56.67382006     93.78698752    -31.98336530
 H     58.22353927     92.98320417    -31.63613432
 H     58.59336314     91.46761833    -32.93192822
 H     57.06908994     91.69212433    -33.82325023
 H     55.53340828     91.28124621    -32.30639367
 H     56.74151954     90.94243464    -31.04388008
 H     57.38852988     88.93661835    -32.36910117
 H     56.37198354     89.48019079    -33.72535675
 H     54.55923113     89.02351195    -31.73786735
 H     55.95741226     88.38133287    -30.84290241
 H     56.60484193     86.69301362    -32.12226617
 H     55.30651984     86.97921328    -33.30578473
 H     53.48808188     86.61388798    -32.05083858
 H     54.46120531     86.24136783    -30.60774254
 H     55.38439246     84.27681425    -31.87246745
 H     54.37557521     84.72883979    -33.26753996
 H     52.43011796     84.66151936    -32.92929734
 H     52.60983760     84.10711216    -31.24745306
 H     53.67604674     82.03936746    -32.00650016
 H     52.34086050     82.49582563    -33.51234343
 H     51.03411787     82.50904013    -33.40140536
 H     51.26212476     81.98448966    -31.71584126
 H     52.30376358     79.99443885    -33.36847824
 H     51.80176688     81.08037948    -34.68643079
 H     49.44298654     80.79184150    -33.96832397
 H     49.98210586     79.71100425    -32.66088072
 H     50.08015102     78.28379023    -34.90881131
 H     50.41946272     79.78256535    -35.80703588
 H     48.77758707     79.46162227    -35.19916537
1502
Final Conformation Chain 3 (Simulation Frame 4)
 C      0.00000000      0.00000000      0.00000000
 C      1.54000000      0.00000000      0.00000000
 C      2.16637443     -1.38623997      0.23998710
 C      3.70107326     -1.41034020      0.11461294
 C      4.32460256     -2.80324831      0.32105472
 C      3.58616155     -3.93564102     -0.41650315
 C      3.93967873     -5.34689940      0.08844773
 C      3.76833998     -6.45212000     -0.97019785
 C      4.83711989     -6.42880734     -2.07869505
 C      4.40913143     -7.13885676     -3.37648382
 C      5.58639394     -7.63008195     -4.23924149
 C      5.17013046     -8.15790972     -5.62478202
 C      6.35367157     -8.44313091     -6.56790413
 C      5.94433404     -8.67479492     -8.03431968
 C      7.10423483     -9.11607005     -8.94618943
 C      6.79979004     -8.99313043    -10.45078214
 C      7.93841141     -9.48677379    -11.36262511
 C      7.85433622     -8.96373704    -12.80864168
 C      9.21527766     -8.87964818    -13.52444016
 C      9.13506315     -8.32706088    -14.95964499
 C     10.49456165     -8.25320947    -15.67930449
 C     10.40232531     -7.79616218    -17.14702388
 C     11.75370087     -7.38683171    -17.76170485
 C     11.64841958     -6.83711229    -19.19639102
 C     12.98719008     -6.34808237    -19.77960906
 C     12.85941196     -5.66437617    -21.15358817
 C     14.20860843     -5.29071169    -21.79518285
 C     14.14012644     -5.07824217    -23.31891738
 C     14.56415106     -3.66964807    -23.77462101
 C     14.62206697     -3.49699415    -25.30381569
 C     15.22750384     -2.15661268    -25.76035016
 C     15.06420244     -1.87592325    -27.26572257
 C     15.70515374     -0.55474359    -27.72968995
 C     15.86328338     -0.43772163    -29.25707362
 C     16.18253912      0.98714089    -29.74640229
 C     16.53073528      1.07175966    -31.24413361
 C     16.50080047      2.50199363    -31.81433947
 C     16.75305226      2.57677940    -33.33169774
 C     16.78748533      4.01121309    -33.89099583
 C     17.41639699      4.12219387    -35.29233569
 C     17.34688074      5.53554669    -35.89995504
 C     17.91565867      5.63217279    -37.32780484
 C     17.82432579      7.04035933    -37.94446437
 C     17.71681867      7.04566013    -39.48069811
 C     17.20816039      8.37511282    -40.06842448
 C     17.07575082      8.37174353    -41.60271792
 C     16.25528242      9.54830302    -42.16319931
 C     14.79211316      9.57626831    -41.68366449
 C     14.01893564     10.83973234    -42.10491878
 C     12.52364578     10.81059834    -41.73768662
 C     11.74066643     12.05331684    -42.20049766
 C     10.21074688     11.88818122    -42.13986450
 C      9.42868747     13.17735136    -42.45295142
 C      7.90171432     13.03280621    -42.31489450
 C      7.13640058     14.36672150    -42.39591852
 C      5.61858255     14.23260376    -42.17266783
 C      4.87917177     15.57955597    -42.06975313
 C      3.37761503     15.44732828    -41.75440697
 C      2.63226765     16.79290288    -41.68033764
 C      1.12521996     16.65917900    -41.39306568
 C      0.34874350     17.98546642    -41.49127968
 C     -1.18186712     17.81923952    -41.45664257
 C     -1.95170934     19.14143657    -41.28132025
 C     -3.45763670     18.95896955    -41.01582341
 C     -4.19558595     20.26571679    -40.67021880
 C     -5.57283275     20.05281527    -40.01488361
 C     -6.16279458     21.32113742    -39.37075323
 C     -7.56547028     21.12254370    -38.76688121
 C     -7.99997404     22.24727830    -37.80887361
 C     -9.45509463     22.12593762    -37.31948572
 C     -9.86402924     23.20277020    -36.29732914
 C    -11.15696921     23.95503553    -36.66339349
 C    -11.71446193     24.83214567    -35.52696063
 C    -13.11382995     25.40936545    -35.81013282
 C    -13.77665986     26.07283640    -34.58863259
 C    -15.14265976     26.71690063    -34.89000533
 C    -15.83314367     27.32743965    -33.65628167
 C    -17.24639625     27.87212169    -33.93491877
 C    -17.99660905     28.34133477    -32.67451414
 C    -19.43267636     28.82734684    -32.94488976
 C    -20.06953204     29.58623534    -31.76586343
 C    -21.50073158     30.08377929    -32.04103228
 C    -22.38422000     30.17685885    -30.78310366
 C    -23.88960231     30.00918828    -31.06115164
 C    -24.76573734     30.02216673    -29.79473189
 C    -26.26862604     30.20805834    -30.07467810
 C    -27.18650550     29.46594764    -29.08555272
 C    -28.68680085     29.58837644    -29.41070659
 C    -29.60838726     28.90877097    -28.38094211
 C    -31.10958359     29.13958346    -28.63537319
 C    -32.00110438     27.94418218    -28.25091713
 C    -33.51056690     28.24284907    -28.31353496
 C    -34.40312400     27.02576817    -28.00750241
 C    -35.90354418     27.27214260    -28.25171321
 C    -36.72637600     25.98481522    -28.44493850
 C    -38.22580375     26.23142436    -28.69493917
 C    -38.93245934     25.08661402    -29.44437041
 C    -40.35871261     24.79538855    -28.94178776
 C    -41.11224672     23.74001196    -29.77243004
 C    -42.47615573     23.33564449    -29.18265113
 C    -43.17712857     22.19799427    -29.94815035
 C    -44.38572912     21.59628990    -29.20731530
 C    -45.07637036     20.44727343    -29.96519116
 C    -46.34542302     19.91475335    -29.27415737
 C    -46.80181097     18.53385000    -29.78053271
 C    -48.21898500     18.13727318    -29.32672153
 C    -48.70848962     16.79541408    -29.90239452
 C    -49.95449469     16.22845052    -29.19697004
 C    -50.09969077     14.69982895    -29.31458881
 C    -51.22067819     14.10798314    -28.44011424
 C    -51.50689151     12.61933911    -28.71144590
 C    -52.48412049     11.97664911    -27.70966095
 C    -52.92186517     10.54978275    -28.08917644
 C    -53.92697476      9.92072947    -27.10650321
 C    -53.96911274      8.38200792    -27.15298307
 C    -54.96311972      7.75232347    -26.15948036
 C    -54.82700632      6.22464874    -26.02061686
 C    -55.97022322      5.56335856    -25.22856230
 C    -55.73238079      4.07566915    -24.90948363
 C    -56.85609769      3.42523318    -24.08135721
 C    -56.71200579      1.90066743    -23.91845609
 C    -57.70390828      1.28127222    -22.91641864
 C    -57.53016985     -0.23621026    -22.71979243
 C    -58.55726087     -0.86511031    -21.76001706
 C    -58.48159927     -2.40119562    -21.68053611
 C    -58.87490580     -2.97750320    -20.30766338
 C    -58.09178915     -4.24310590    -19.91196385
 C    -58.43030834     -4.77552213    -18.50713727
 C    -57.39553162     -5.76952903    -17.94786326
 C    -57.64236174     -6.17219583    -16.48207530
 C    -56.54175289     -7.06867174    -15.88492280
 C    -56.70198762     -7.33692932    -14.37695639
 C    -55.70175066     -8.36345797    -13.81360483
 C    -55.60386724     -8.36433761    -12.27671900
 C    -54.41327203     -9.17062046    -11.72536520
 C    -54.44326593     -9.36699883    -10.19823197
 C    -53.16283739    -10.00029150     -9.62286848
 C    -53.08745224     -9.97380303     -8.08494279
 C    -51.70066107    -10.33256316     -7.51952134
 C    -50.55363190     -9.47163947     -8.08053334
 C    -49.33306250     -9.36912599     -7.14709811
 C    -48.24590110     -8.39715364     -7.64202219
 C    -46.83604741     -8.70904139     -7.10663580
 C    -46.74431723     -8.74925140     -5.56989615
 C    -45.30297295     -8.73303165     -5.02780429
 C    -45.20583743     -8.91171877     -3.50129337
 C    -43.79125535     -9.25675082     -2.99978522
 C    -43.74328533     -9.72411219     -1.53319999
 C    -42.35395089    -10.20407009     -1.07386328
 C    -42.28858601    -10.60233047      0.41231171
 C    -41.10556970    -11.52404100      0.76234326
 C    -41.13883222    -12.06600806      2.20344191
 C    -39.85741346    -12.81031066      2.62246413
 C    -39.83148101    -13.22718324      4.10474101
 C    -38.46019102    -13.73374653      4.58905226
 C    -38.50883473    -14.48549631      5.93222241
 C    -37.17437067    -15.14264686      6.33091882
 C    -37.26331612    -16.02899129      7.58713627
 C    -36.16452710    -17.10450208      7.67396510
 C    -36.38213535    -18.13284714      8.79946636
 C    -35.30076006    -19.22731157      8.86561087
 C    -35.43308018    -20.16606394     10.07921515
 C    -34.27133113    -21.16608743     10.22717522
 C    -34.36166620    -22.04946574     11.48538122
 C    -33.11635906    -22.92215471     11.72874123
 C    -32.15107858    -22.35515766     12.78626094
 C    -31.03107020    -23.32862239     13.19802255
 C    -29.81345202    -22.64427206     13.84661379
 C    -28.82128047    -23.62217293     14.50304773
 C    -27.58453789    -22.94102969     15.11795558
 C    -26.89984947    -23.76604468     16.22346543
 C    -25.63434508    -23.10761406     16.80361003
 C    -24.95463700    -23.92847457     17.91526867
 C    -23.83176738    -23.17535542     18.65254431
 C    -23.08929132    -24.02641602     19.69945651
 C    -22.24073522    -23.20438848     20.68729417
 C    -21.25860559    -22.23067932     20.00986381
 C    -20.36272906    -21.45783110     20.99561777
 C    -19.50380455    -20.36329816     20.33543119
 C    -19.01464312    -19.27715531     21.31145108
 C    -18.58061536    -17.96832969     20.62574313
 C    -17.56399770    -17.14353131     21.43678947
 C    -17.02411516    -15.90793288     20.69286516
 C    -15.53496157    -15.61840183     20.95780543
 C    -15.04295539    -14.28165762     20.37244670
 C    -13.51843980    -14.08250678     20.46071429
 C    -13.03572749    -12.71014811     19.95552075
 C    -11.57785585    -12.38278289     20.32840451
 C    -10.97574468    -11.21033182     19.53189925
 C     -9.44156768    -11.11306213     19.62376611
 C     -8.80946525    -10.17712656     18.57683196
 C     -7.27212686    -10.11314951     18.64084467
 C     -6.62866985     -9.33449308     17.47840876
 C     -5.14170785     -8.99851904     17.69673293
 C     -4.40596317     -8.55348471     16.41914763
 C     -2.94797358     -8.11763284     16.65557842
 C     -2.11761605     -7.98241644     15.36568583
 C     -0.74259169     -7.32046980     15.57240943
 C      0.10926357     -7.23301181     14.29245095
 C      1.24491447     -6.19543938     14.36552955
 C      2.04887981     -6.05374320     13.05971106
 C      3.20487359     -5.03965238     13.14276633
 C      4.09024468     -4.99456799     11.88352630
 C      5.26081235     -3.99818256     11.97619456
 C      6.19962741     -4.01948210     10.75563215
 C      6.88693283     -2.67119327     10.47045060
 C      7.69761166     -2.64590224      9.16134396
 C      6.86934998     -2.97420912      7.90523999
 C      7.58046021     -2.63945844      6.58090461
 C      7.09363953     -3.47241915      5.38057879
 C      7.94441118     -3.29554851      4.10916053
 C      7.55087849     -4.23745590      2.95610265
 C      8.66545158     -4.45347284      1.91559147
 C      8.38869648     -5.60492101      0.93112525
 C      9.28100124     -5.58415287     -0.32384920
 C      9.04264144     -6.76637181     -1.28152503
 C      9.90872959     -6.72593019     -2.55426058
 C      9.65999215     -7.90044418     -3.51875349
 C     10.47450775     -7.82286230     -4.82341643
 C      9.93486934     -6.79842837     -5.83876145
 C     10.54991307     -6.92639815     -7.24480019
 C     10.19545137     -5.76473382     -8.19163328
 C     10.63834488     -5.98758885     -9.64963910
 C      9.97722678     -5.03005191    -10.65842345
 C     10.59178606     -5.08485819    -12.06942067
 C     10.08431115     -3.98200073    -13.01693037
 C     10.45879834     -4.20412377    -14.49409681
 C      9.80337373     -3.20325572    -15.46377806
 C     10.27486560     -3.34447702    -16.92300798
 C      9.92839215     -2.13633528    -17.81292353
 C     10.41031473     -2.27241308    -19.26923169
 C      9.95296053     -1.12591186    -20.19008027
 C      9.85331599     -1.51780402    -21.67604510
 C      9.81234601     -0.31684665    -22.63917689
 C      9.99360792     -0.69567997    -24.12080756
 C     10.20819509      0.51043614    -25.05399364
 C     11.00832978      0.18200731    -26.32816748
 C     11.35545740      1.41382423    -27.18474759
 C     12.22559466      1.09619584    -28.41502128
 C     12.54999952      2.32370581    -29.28656059
 C     12.07504104      2.19874282    -30.74614912
 C     12.06144054      3.53200350    -31.51675342
 C     11.29391727      3.47666816    -32.85071220
 C     11.09871152      4.85054584    -33.51851069
 C      9.97335917      4.88200052    -34.56931642
 C      9.54739589      6.30127253    -34.98862807
 C      8.35023660      6.33560864    -35.95673482
 C      7.88282559      7.75606333    -36.32475033
 C      6.46767521      7.81280587    -36.92950622
 C      6.15061732      9.13154115    -37.65889745
 C      4.64493759      9.41450108    -37.81530149
 C      4.31577497     10.49125459    -38.86594599
 C      2.81348369     10.80615684    -38.99067551
 C      2.47050677     11.78086645    -40.13256343
 C      1.08484759     11.54555060    -40.76198785
 C      0.44988422     12.81021523    -41.36947848
 C     -1.04468424     12.65955225    -41.70883933
 C     -1.80991566     13.99439457    -41.77377668
 C     -3.25226797     13.86469179    -42.29760585
 C     -3.92318201     15.21159088    -42.62522938
 C     -5.36757874     15.08222683    -43.14347936
 C     -6.14921823     16.40904385    -43.15749098
 C     -7.60166182     16.27519481    -43.65154770
 C     -8.23040092     17.60235585    -44.11515394
 C     -9.72206389     17.49423329    -44.48237470
 C    -10.35972650     18.82859953    -44.91185476
 C    -11.89282939     18.77526645    -45.04732110
 C    -12.48815939     19.92385098    -45.88274660
 C    -14.01134571     19.82544648    -46.08724599
 C    -14.60965256     20.98470110    -46.90563320
 C    -16.11443152     20.83467024    -47.19671915
 C    -16.79915161     22.13970653    -47.64352861
 C    -18.28277805     21.97136600    -48.02050875
 C    -18.96177780     23.27216185    -48.48793736
 C    -19.63010037     24.07218927    -47.35440260
 C    -20.30657277     25.37446191    -47.82138340
 C    -21.16477390     26.05710510    -46.74013917
 C    -21.71944317     27.43212887    -47.15637425
 C    -22.72482207     28.03111548    -46.15536061
 C    -24.05750015     27.26398946    -46.07117752
 C    -25.14335595     27.98311785    -45.24936760
 C    -26.51818095     27.29020524    -45.28581392
 C    -27.61604987     28.03527556    -44.50405050
 C    -29.04123925     27.52303774    -44.78342058
 C    -29.99266670     27.62913510    -43.57713323
 C    -31.07652329     26.53589309    -43.53618460
 C    -31.74889663     26.37167751    -42.16048575
 C    -32.65679775     25.13259847    -42.05094721
 C    -33.44306908     25.04703695    -40.72956286
 C    -34.03798589     23.65566096    -40.44364882
 C    -34.48439500     23.45324948    -38.98373495
 C    -35.03211458     22.04513578    -38.68570967
 C    -35.39490390     21.81418089    -37.20697922
 C    -36.62921795     20.91740700    -36.99753851
 C    -37.00890654     20.70952068    -35.51962787
 C    -38.38216833     20.04377540    -35.31338708
 C    -38.74466270     19.80006350    -33.83663309
 C    -40.18805069     19.30941015    -33.61871017
 C    -40.35808342     18.38566210    -32.39830925
 C    -41.81905552     17.99567644    -32.10663867
 C    -41.98726070     17.05631697    -30.89795723
 C    -43.44306271     16.62838765    -30.63505610
 C    -43.58019891     15.42547172    -29.68332771
 C    -45.03704394     15.04933494    -29.35511484
 C    -45.18794895     14.15578170    -28.10996815
 C    -46.64117270     13.74838836    -27.80374701
 C    -46.78118528     12.76401522    -26.62773426
 C    -48.18076281     12.13407538    -26.50140713
 C    -48.28983802     11.06666324    -25.39671988
 C    -49.66363107     10.37411967    -25.32833814
 C    -49.91480673      9.60913501    -24.01558940
 C    -51.29691801      8.93428394    -23.93848920
 C    -51.53857746      8.14861334    -22.63621334
 C    -52.82948531      7.30889475    -22.64165433
 C    -52.97951367      6.38288339    -21.42034582
 C    -54.37154801      5.73699359    -21.29124601
 C    -54.49575918      4.74543324    -20.11950386
 C    -55.83712627      3.99006247    -20.07767884
 C    -56.05483635      3.17084617    -18.79195454
 C    -57.28565020      2.24646798    -18.83909500
 C    -57.32396237      1.19653053    -17.71314494
 C    -58.61515843      0.35779806    -17.68247620
 C    -58.89866044     -0.30610951    -16.32216250
 C    -60.01579142     -1.36533774    -16.36283098
 C    -60.19573557     -2.13693747    -15.04228035
 C    -60.74419236     -3.56483779    -15.22087439
 C    -60.53105878     -4.47529498    -13.99725608
 C    -61.31484702     -5.79953771    -14.05773091
 C    -60.78724611     -6.88397782    -13.10001126
 C    -61.54483030     -8.22171192    -13.19019819
 C    -61.36624818     -9.12704894    -11.95728566
 C    -59.94987656     -9.71357905    -11.81074603
 C    -59.71254601    -10.45279874    -10.48077292
 C    -58.27636220    -10.98007671    -10.30483547
 C    -58.06937307    -11.82075492     -9.03125169
 C    -56.63805234    -12.36421588     -8.86520607
 C    -56.42352193    -13.18061256     -7.57715592
 C    -54.95197923    -13.54219800     -7.30253245
 C    -54.73828230    -14.36496408     -6.01840255
 C    -53.26475979    -14.71035325     -5.73373128
 C    -53.04615556    -15.49177769     -4.42484318
 C    -51.61970631    -16.04765253     -4.25797285
 C    -51.37317063    -16.74480391     -2.90712122
 C    -50.03367349    -17.50045260     -2.82748164
 C    -49.61160856    -17.87788645     -1.39534866
 C    -48.35377513    -18.76368430     -1.32594228
 C    -47.61710432    -18.70074191      0.02496643
 C    -46.34982654    -19.57341390      0.08861109
 C    -45.57271144    -19.45369102      1.41275555
 C    -44.34805107    -20.38267882      1.50650337
 C    -43.22537802    -19.84928664      2.41573271
 C    -41.89115545    -20.60488510      2.27248085
 C    -40.80058403    -20.14235955      3.25651546
 C    -39.41472275    -20.75909733      2.99076555
 C    -38.30595628    -20.23238113      3.92071553
 C    -36.95297362    -20.94787268      3.75009970
 C    -35.88177405    -20.51304247      4.76747582
 C    -34.46021997    -20.42596819      4.18164133
 C    -33.35305721    -20.28454476      5.24267387
 C    -31.94232454    -20.09588597      4.65459122
 C    -30.93099004    -19.47866667      5.63838127
 C    -29.59207720    -19.07835420      4.99134005
 C    -28.63031259    -18.34482426      5.94451509
 C    -27.32009923    -17.88357786      5.27953937
 C    -26.40503308    -17.05901294      6.20384811
 C    -25.08759035    -16.61138738      5.54386629
 C    -23.85246265    -16.75120685      6.45299229
 C    -22.55000079    -16.21980911      5.82624709
 C    -21.38017523    -16.09916305      6.82050696
 C    -20.18050629    -15.29770457      6.28193592
 C    -18.82675907    -15.71426119      6.88645974
 C    -17.61257215    -15.02121800      6.24067242
 C    -16.26331463    -15.39620481      6.88136659
 C    -15.08622329    -14.51484339      6.42391929
 C    -13.72418197    -14.93794549      7.00480487
 C    -12.54515698    -14.06468235      6.53692502
 C    -11.17027710    -14.55154124      7.03116557
 C    -10.07343247    -13.47112845      6.99595112
 C     -8.64992518    -14.01632324      7.21501643
 C     -7.59605736    -12.92601455      7.48369762
 C     -6.28778475    -13.45730124      8.09831721
 C     -5.19428988    -12.38600336      8.26621543
 C     -3.81097904    -12.95499250      8.63268846
 C     -2.77468813    -11.88288515      9.01776895
 C     -1.70748628    -12.37259308     10.01419574
 C     -0.90759884    -11.23904674     10.68266621
 C      0.32417940    -11.72201893     11.47073997
 C      0.87342948    -10.68730952     12.47039030
 C      2.16793440    -11.12705051     13.17925199
 C      2.83771182    -10.01452497     14.00707149
 C      3.96580678    -10.51289549     14.92936678
 C      4.42703951     -9.47666172     15.97104040
 C      5.70527746     -9.87804970     16.73037922
 C      6.06078726     -8.93946888     17.89840269
 C      7.21256996     -9.45007731     18.78399608
 C      7.89624146     -8.35066332     19.61795179
 C      9.25784916     -8.76574655     20.20559997
 C     10.17875088     -7.58058128     20.55045254
 C     11.62106482     -7.98979538     20.90241042
 C     12.54452810     -6.80386642     21.23765369
 C     14.01505864     -7.20010493     21.46598455
 C     14.94663944     -6.00906072     21.75782508
 C     16.09568773     -5.84972085     20.74495844
 C     16.88551251     -4.53625537     20.89524240
 C     18.24312819     -4.53504537     20.16827735
 C     18.84132014     -3.13121698     19.96083518
 C     19.91702813     -3.06500954     18.86080385
 C     20.59292100     -1.68766951     18.72775027
 C     21.83922896     -1.68630115     17.82314284
 C     22.40691394     -0.28282126     17.54104716
 C     23.60055186     -0.27389750     16.56803695
 C     24.20557095      1.12241370     16.33167504
 C     25.22975768      1.17499339     15.18281608
 C     26.12788882      2.42584355     15.20110091
 C     27.35375707      2.33037263     14.27388338
 C     28.32055402      3.52355216     14.38888889
 C     29.39808356      3.56487773     13.28942435
 C     30.60055074      4.46678150     13.62445014
 C     31.67209366      4.51810080     12.51956910
 C     32.64085762      5.70900872     12.64136693
 C     33.54244947      5.91157326     11.40941735
 C     34.61188987      7.00505048     11.58887424
 C     35.26374225      7.46581626     10.27191434
 C     36.26464400      8.62405114     10.44010363
 C     36.47134526      9.46334033      9.16555734
 C     35.19754725     10.17209298      8.66885993
 C     35.33366770     10.79550525      7.26727927
 C     34.15688243     11.70581998      6.86965693
 C     34.12907960     12.07678437      5.37526326
 C     33.05162392     13.11372083      5.00722517
 C     33.26194340     13.77446886      3.63216962
 C     31.96425401     14.28076323      2.97545944
 C     32.14795321     14.78416545      1.53170018
 C     30.82888487     15.13149432      0.81684257
 C     30.98908723     15.42200174     -0.68699939
 C     29.65509528     15.58220714     -1.43959471
 C     29.79416917     16.22941603     -2.83005474
 C     28.47977882     16.28192728     -3.63081724
 C     28.53624403     17.19708735     -4.86811014
 C     27.23658360     17.21465203     -5.69404855
 C     27.33583051     18.02324232     -7.00092719
 C     26.29216748     17.62871285     -8.06239503
 C     26.40452048     18.42312059     -9.37688852
 C     25.30053465     18.09951099    -10.40065222
 C     25.57493510     18.64956652    -11.81265198
 C     24.76906204     17.95194705    -12.92418051
 C     25.07694420     18.47100834    -14.34100228
 C     24.16936120     17.87974182    -15.43566982
 C     24.22160889     18.64277725    -16.77232501
 C     23.54156593     17.90595843    -17.94118753
 C     22.91511834     18.84159495    -18.99178152
 C     22.28576499     18.10621754    -20.18958553
 C     21.44417405     19.01128880    -21.10837316
 C     20.83531543     18.28108269    -22.31985581
 C     21.86292662     17.89540953    -23.40007405
 C     21.24199515     17.25286891    -24.65434104
 C     22.26896444     16.87305106    -25.73724107
 C     21.70556045     15.96013228    -26.84211901
 C     22.57767511     15.89968261    -28.10993676
 C     22.04046330     14.94797128    -29.19494782
 C     22.56483703     15.25232343    -30.61057558
 C     22.07808142     14.26236244    -31.68512024
 C     22.52721081     14.61858588    -33.11445143
 C     22.04345848     13.62666159    -34.18854168
 C     22.08448161     14.18686818    -35.62244742
 C     22.17096461     13.10525963    -36.71526197
 C     22.12270798     13.66017692    -38.15099806
 C     22.40807613     12.60831400    -39.23900055
 C     22.46447689     13.18317650    -40.66656914
 C     22.92684599     12.17133722    -41.73146166
 C     22.88032308     12.71310127    -43.17226953
 C     23.50657351     11.77025113    -44.21651280
 C     23.31495617     12.23283433    -45.67284366
 C     22.20020768     11.48382085    -46.42644476
 C     20.85287521     11.45147707    -45.68129438
 C     19.64720452     11.12229829    -46.58107187
 C     18.38035615     10.71428749    -45.80633165
 C     17.10377906     10.67953740    -46.66699613
 C     15.83796224     10.26589268    -45.89355847
 C     14.55562184     10.26356125    -46.74631732
 C     13.27850388      9.92282332    -45.95608483
 C     11.97679613     10.11525650    -46.75616384
 C     10.71298469      9.62933794    -46.02249922
 C      9.40725073     10.26322461    -46.53713164
 C      8.14225388      9.76825907    -45.81160281
 C      6.84097267     10.43354836    -46.29704835
 C      5.56476874      9.65121245    -45.93531082
 C      4.26296514     10.32068620    -46.41354953
 C      2.98440105      9.69573569    -45.82506781
 C      1.69293835     10.45143383    -46.18927159
 C      1.67218238     11.91826042    -45.72066839
 C      0.28427451     12.58104548    -45.79830655
 C      0.29858934     14.09768017    -45.53144646
 C     -0.93706318     14.84058703    -46.07260471
 C     -1.29267947     16.11801094    -45.28945388
 C     -2.23446593     17.07406153    -46.04483823
 C     -2.80507040     18.20889683    -45.17411474
 C     -3.71543566     19.18780119    -45.93869394
 C     -4.29084955     20.31919200    -45.06665400
 C     -5.03819720     21.40522145    -45.86265119
 H     -0.36333333      0.00000000      1.02766186
 H     -0.36333333     -0.88998127     -0.51383093
 H     -0.36333333      0.88998127     -0.51383093
 H      1.88274777     -0.76235982     -0.69959379
 H      1.88274777     -0.73931309     -0.72390615
 H      1.82362666     -2.05810574     -0.54691847
 H      1.82362666     -1.75447351      1.20695557
 H      4.11560115     -0.71577923      0.84526449
 H      3.96806343     -1.08288433     -0.89017007
 H      3.52082722     -3.51298431      0.51680968
 H      4.05655636     -3.15450002      1.31748508
 H      4.32708038     -4.64590609     -0.78346747
 H      2.56441315     -3.98097608     -0.03957485
 H      3.68686849     -5.40545254      1.14710656
 H      5.01178790     -5.49757986     -0.03795369
 H      3.75196204     -5.98428451     -1.95455638
 H      2.72847617     -6.45550399     -1.29695740
 H      5.81575041     -6.54823626     -1.61380901
 H      4.78895346     -5.46263711     -2.58098488
 H      3.51186891     -6.64932198     -3.75513362
 H      4.18336494     -8.17863493     -3.13985998
 H      6.17837496     -8.32727570     -3.64630022
 H      6.19883671     -6.76870385     -4.50577785
 H      5.65004409     -7.54134690     -6.38480386
 H      4.57483251     -9.05995725     -5.48325244
 H      6.99599471     -9.18699890     -6.09654291
 H      6.91168580     -7.51723460     -6.70731771
 H      5.42882325     -7.78318453     -8.39122239
 H      5.26470404     -9.52622121     -8.07004535
 H      7.62996231     -9.93722275     -8.45893297
 H      7.78320465     -8.27235735     -9.06967567
 H      6.56922243     -7.95054202    -10.66975238
 H      5.93165553     -9.61238712    -10.67653341
 H      8.12863086    -10.53585298    -11.13602103
 H      8.83092809     -8.90031834    -11.14448759
 H      7.88477382     -7.87450145    -12.78144999
 H      6.90650636     -9.29015501    -13.23662515
 H      9.65353430     -9.87743307    -13.54580445
 H      9.86122058     -8.21120700    -12.95519143
 H      8.48017480     -7.45573849    -14.95533782
 H      8.70886900     -9.09874048    -15.60071374
 H     10.91485432     -9.25801796    -15.72189522
 H     11.15448923     -7.60759772    -15.09983831
 H      9.94829255     -6.80548381    -17.16962111
 H      9.76711781     -8.49932771    -17.68569787
 H     12.42665917     -8.24277977    -17.71091066
 H     12.16388816     -6.56668572    -17.17246218
 H     10.99952140     -5.96144168    -19.18115534
 H     11.20438451     -7.60744872    -19.82687864
 H     13.68543432     -7.18506428    -19.78364179
 H     13.37242148     -5.55663595    -19.13671768
 H     12.19702285     -4.80512455    -21.04857716
 H     12.42144600     -6.37756170    -21.85190917
 H     14.79340100     -6.20219137    -21.91896671
 H     14.73199357     -4.61185709    -21.12188913
 H     13.43039592     -4.27617737    -23.52158620
 H     13.78616929     -6.00125193    -23.77812028
 H     15.59080922     -3.49914519    -23.45058120
 H     13.90702183     -2.94269571    -23.29731456
 H     13.63221453     -3.70514377    -25.70997562
 H     15.33722713     -4.21617352    -25.70309876
 H     16.30012294     -2.18183874    -25.56812139
 H     14.77216709     -1.35777938    -25.17500086
 H     13.99958762     -1.86845513    -27.49947353
 H     15.55203103     -2.67848094    -27.81891732
 H     16.74991984     -0.55295615    -27.41894794
 H     15.18072504      0.26916050    -27.24568933
 H     14.87552254     -0.51745580    -29.71102405
 H     16.48878192     -1.26146999    -29.60100708
 H     17.11344890      1.30925698    -29.27976732
 H     15.37252265      1.64630084    -29.43418203
 H     15.68021342      0.69964323    -31.81530952
 H     17.39843836      0.43896505    -31.43058026
 H     17.21905832      3.10677756    -31.26076737
 H     15.49883002      2.90682811    -31.67198691
 H     16.12213625      1.83474817    -33.82101832
 H     17.80111823      2.34151322    -33.51692071
 H     17.58267153      4.55777901    -33.38400017
 H     15.82886920      4.48479438    -33.67915656
 H     16.83919324      3.50102851    -35.97723673
 H     18.43963949      3.75036921    -35.23922068
 H     17.87074983      6.22112469    -35.23388898
 H     16.29897946      5.82714169    -35.97049062
 H     17.35025638      4.95546185    -37.96849397
 H     18.95997467      5.32094039    -37.30253666
 H     18.30610530      7.74381168    -37.26538905
 H     16.77113844      7.30063281    -38.05007745
 H     16.82345181      6.48896259    -39.76368838
 H     18.59804997      6.54976901    -39.88766666
 H     17.89534480      9.16690589    -39.77019416
 H     16.21999127      8.57683422    -39.65498735
 H     16.37819066      7.58311540    -41.88480920
 H     18.05561132      8.16035202    -42.03083826
 H     16.73946690     10.47757547    -41.86300255
 H     15.79855883     10.07699186    -41.32654426
 H     14.78845125      9.71023447    -40.60193455
 H     14.33139637      8.62039491    -41.93295568
 H     14.02406639     10.89773722    -43.19336221
 H     14.53150741     11.70872523    -41.69233965
 H     12.43829860     10.70106284    -40.65656784
 H     12.06719028      9.95029432    -42.22720208
 H     11.66530151     12.02573820    -43.28753931
 H     12.29595556     12.94087495    -41.89719156
 H      9.93438287     11.62734463    -41.11825440
 H      9.92659239     11.07789207    -42.81127178
 H      9.82868642     13.60631551    -43.37169545
 H      9.57763013     13.87689887    -41.63042521
 H      7.67677923     12.73568129    -41.29057962
 H      7.56773879     12.25421099    -43.00071505
 H      7.35130127     14.82714374    -43.36024681
 H      7.49297484     15.01559180    -41.59596719
 H      5.45414504     13.80257151    -41.18467361
 H      5.21841423     13.56116719    -42.93236398
 H      5.04199751     16.13153833    -42.99544382
 H      5.30038690     16.13882407    -41.23435083
 H      3.27176633     14.92471505    -40.80373801
 H      2.91162372     14.86010915    -42.54568808
 H      2.73763446     17.29643820    -42.64130071
 H      3.09428661     17.39816631    -40.90040517
 H      1.00232115     16.14631974    -40.43914154
 H      0.67661313     16.06211693    -42.18702336
 H      0.47170391     18.38076208    -42.49960606
 H      0.77393251     18.68562088    -40.77218438
 H     -1.43735907     17.17111061    -40.61833906
 H     -1.49676648     17.34930741    -42.38836260
 H     -1.61621639     19.83787912    -42.04976821
 H     -1.71764750     19.54637513    -40.29676969
 H     -3.57643903     18.36999732    -40.10637428
 H     -3.89112088     18.41898858    -41.85761437
 H     -4.07589727     20.95770872    -41.50383849
 H     -3.73905875     20.69108603    -39.77649405
 H     -5.43066644     19.48584781    -39.09486370
 H     -6.19466559     19.47958648    -40.70251190
 H     -6.26520703     22.08241724    -40.14409968
 H     -5.46968027     21.67122341    -38.60581379
 H     -7.48630090     21.20227235    -37.68268770
 H     -8.23752611     20.79702550    -39.56090820
 H     -8.09025097     23.16996220    -38.38211396
 H     -7.22874304     22.36631325    -37.04786544
 H     -9.56412283     21.17318545    -36.80133888
 H    -10.11183777     22.14375642    -38.18923910
 H    -10.04261846     24.13453908    -36.83399724
 H     -9.20412611     23.12349666    -35.43341735
 H    -11.96639255     23.22889992    -36.73863275
 H    -11.01081729     24.43764751    -37.62973985
 H    -10.95548986     25.56638784    -35.25686836
 H    -11.92162611     24.19157489    -34.66972549
 H    -13.80114721     24.57875445    -35.97069541
 H    -13.05817380     26.01496796    -36.71470343
 H    -13.13354044     26.88445284    -34.24837362
 H    -13.86715290     25.32593443    -33.79993210
 H    -15.81176187     25.94214842    -35.26438665
 H    -15.00114784     27.47709193    -35.65823939
 H    -15.17773492     28.09261677    -33.24029688
 H    -15.98171110     26.53710849    -32.92047982
 H    -17.86346407     27.05216275    -34.30233496
 H    -17.17162356     28.64266796    -34.70223063
 H    -17.48040953     29.21342139    -32.27313779
 H    -17.97226288     27.53528357    -31.94117334
 H    -20.05882414     27.95615406    -33.13740492
 H    -19.41774505     29.46631550    -33.82783715
 H    -19.45003537     30.45485427    -31.54264822
 H    -20.08937823     28.92235627    -30.90158876
 H    -22.12548144     29.22059016    -32.27057996
 H    -21.47197989     30.75088095    -32.90257085
 H    -21.91112752     30.86453407    -30.08211414
 H    -22.44636345     29.18571299    -30.33380633
 H    -24.04689707     29.03257951    -31.51896565
 H    -24.19891608     30.79015558    -31.75578468
 H    -24.61541765     30.97313634    -29.28369296
 H    -24.44393123     29.20673853    -29.14695286
 H    -26.61582707     29.35736771    -30.66108828
 H    -26.39921241     31.12407080    -30.65084505
 H    -26.97684838     29.83400221    -28.08122224
 H    -26.95722873     28.40161062    -29.13769565
 H    -28.85591802     29.18052203    -30.40727779
 H    -28.95467177     30.64489699    -29.40024237
 H    -29.43026835     29.36561496    -27.40746009
 H    -29.35229942     27.85015868    -28.33782551
 H    -31.35363109     28.74979210    -29.62360571
 H    -31.30041886     30.21246366    -28.61067579
 H    -31.86086995     27.73939298    -27.18955211
 H    -31.68389773     27.07887963    -28.83292353
 H    -33.75880774     28.54203411    -29.33184964
 H    -33.72596928     29.06466709    -27.63066092
 H    -34.16545107     26.66984961    -27.00503866
 H    -34.17793125     26.24441740    -28.73336685
 H    -36.04046321     27.54300023    -29.29860830
 H    -36.22270633     28.09931914    -27.61766708
 H    -36.62087408     25.37289605    -27.54910131
 H    -36.32348168     25.44599411    -29.30252114
 H    -38.32785300     26.84139581    -29.59250297
 H    -38.63140612     26.77236928    -27.83997409
 H    -38.82853543     24.17559061    -28.85501808
 H    -38.44156431     24.95365194    -30.40844673
 H    -40.97553502     25.67345016    -29.13319810
 H    -40.31286301     24.61052110    -27.86855813
 H    -40.50426447     22.83614874    -29.81101565
 H    -41.24742145     24.13030471    -30.78114178
 H    -43.09879877     24.22781066    -29.11590393
 H    -42.31147850     22.93193209    -28.18365278
 H    -42.52565538     21.32419452    -29.93563313
 H    -43.33119909     22.52161015    -30.97753610
 H    -45.11158322     22.39071741    -29.03376197
 H    -44.04074935     21.20398391    -28.25066230
 H    -44.34506562     19.65551073    -30.12768795
 H    -45.41904894     20.82838648    -30.92718088
 H    -47.05436214     20.73716189    -29.17850424
 H    -46.07046743     19.55490359    -28.28268998
 H    -45.99418275     17.82205220    -29.60970958
 H    -46.99969483     18.60910373    -30.84977490
 H    -48.91933982     18.88640750    -29.69604646
 H    -48.23951038     18.12668149    -28.23696628
 H    -48.01654808     16.01441236    -29.58719107
 H    -48.70439850     16.86716815    -30.99002250
 H    -50.76120566     16.95564835    -29.28916945
 H    -49.71538788     16.08265874    -28.14356001
 H    -49.21637265     14.23678638    -28.87476989
 H    -50.15706918     14.44133711    -30.37193912
 H    -52.14058715     14.65554739    -28.64515303
 H    -50.94492639     14.23976752    -27.39383808
 H    -50.63797721     12.04060268    -28.39815355
 H    -51.66269808     12.48993500    -29.78246359
 H    -53.42758523     12.52070998    -27.75406874
 H    -52.05912653     12.06730965    -26.71003063
 H    -52.03210895      9.92311289    -28.15015805
 H    -53.40684497     10.58808315    -29.06458798
 H    -54.81386257     10.55342507    -27.07148509
 H    -53.46578224      9.88663500    -26.11946773
 H    -52.97471807      8.00454466    -26.91465405
 H    -54.24098743      8.07694482    -28.16348822
 H    -55.96020633      8.12952541    -26.38671807
 H    -54.68022277      8.05717431    -25.15194114
 H    -53.81549805      6.00001644    -25.68225116
 H    -54.99058247      5.77551671    -27.00022048
 H    -56.90948851      5.77888615    -25.73790361
 H    -55.99084263      5.99788145    -24.22913011
 H    -54.81691586      3.99287164    -24.32367774
 H    -55.61163346      3.53841727    -25.85016450
 H    -57.28673161      2.61268375    -24.66652201
 H    -56.94606292      3.96752540    -23.14012110
 H    -55.76128730      1.69694863    -23.42577667
 H    -56.71148417      1.44852447    -24.91025570
 H    -58.71616727      1.49516275    -23.25946758
 H    -57.54398870      1.74653341    -21.94376364
 H    -56.51828537     -0.42149907    -22.35943448
 H    -57.66747106     -0.72475857    -23.68445244
 H    -59.55523455     -0.68321326    -22.15884286
 H    -58.46027252     -0.38030174    -20.78859855
 H    -57.48282169     -2.67816354    -21.34314594
 H    -58.65297880     -2.80489107    -22.67841338
 H    -59.89829702     -2.67295178    -20.08853134
 H    -58.20338254     -2.56193099    -19.55636034
 H    -57.03039379     -3.99612808    -19.88868612
 H    -58.27051127     -5.00726357    -20.66841706
 H    -59.49489679     -5.00740781    -18.47582504
 H    -58.20728604     -3.99352482    -17.78129896
 H    -56.42903833     -5.26778104    -17.90053804
 H    -57.33163757     -6.61760965    -18.62960868
 H    -58.62915784     -6.63011623    -16.41394047
 H    -57.61715843     -5.27059149    -15.87005047
 H    -55.59525017     -6.53068326    -15.93784729
 H    -56.47726880     -7.97716642    -16.48373765
 H    -57.66450672     -7.82232153    -14.21555197
 H    -56.68548258     -6.38018334    -13.85497486
 H    -54.69260133     -7.99125463    -13.99018995
 H    -55.84019520     -9.30459397    -14.34576658
 H    -56.51522373     -8.80766815    -11.87548667
 H    -55.52253447     -7.33154364    -11.93786564
 H    -53.49451503     -8.74328875    -12.12707801
 H    -54.51216465    -10.20224819    -12.06309951
 H    -55.36248861     -9.89186471     -9.93814452
 H    -54.43985431     -8.38452011     -9.72618968
 H    -52.32036991     -9.35387845     -9.86883335
 H    -53.02209165    -10.97452243    -10.09101882
 H    -53.94586832    -10.51737776     -7.69029313
 H    -53.13318322     -8.93519288     -7.75737962
 H    -51.00586533    -10.43236062     -8.35342742
 H    -51.44148416    -11.33568445     -7.85815831
 H    -50.76086315     -8.42807072     -7.84363788
 H    -50.52629466     -9.60007642     -9.16259463
 H    -48.95173974    -10.37474064     -6.96980704
 H    -49.65920785     -8.93254841     -6.20310170
 H    -48.68948045     -7.40596996     -7.73632104
 H    -47.90241811     -8.73598016     -8.61942488
 H    -46.56463530     -9.71640833     -7.42230541
 H    -46.92893325     -9.43551712     -6.29935318
 H    -47.42685253     -9.51714419     -5.20577223
 H    -47.05077329     -7.77751813     -5.18270224
 H    -44.81585644     -7.82242278     -5.37652911
 H    -44.77747065     -9.60130112     -5.42536618
 H    -45.66015812     -9.86701766     -3.23843077
 H    -45.76007991     -8.10265900     -3.02554390
 H    -43.11746905     -8.45213816     -3.29425165
 H    -43.47655823    -10.18617250     -3.47438092
 H    -44.36755309    -10.61232817     -1.43592650
 H    -44.14438999     -8.92768020     -0.90637375
 H    -41.64977337     -9.38085100     -1.19446327
 H    -42.05169934    -11.03674039     -1.70900434
 H    -43.00313850    -11.40752416      0.58312703
 H    -42.56741119     -9.73583893      1.01193571
 H    -40.17989999    -10.98094215      0.57187221
 H    -41.15168523    -12.40106922      0.11674674
 H    -42.06282259    -12.62864496      2.33678923
 H    -41.12741888    -11.21844869      2.88872494
 H    -39.01688760    -12.12192456      2.53448197
 H    -39.71153069    -13.65050961      1.94357980
 H    -40.68392183    -13.88012644      4.29211715
 H    -39.92103469    -12.32856847      4.71512748
 H    -37.72997218    -12.93758896      4.44409171
 H    -38.18098475    -14.59719928      3.98523670
 H    -39.17146247    -15.34376145      5.82084282
 H    -38.91158677    -13.81119519      6.68800597
 H    -36.41603391    -14.36290407      6.40181693
 H    -36.89495823    -15.85141162      5.55137972
 H    -37.99125629    -16.81816295      7.39895762
 H    -37.60336363    -15.41178437      8.41871507
 H    -35.19556605    -16.60528865      7.67462435
 H    -36.24232803    -17.74564750      6.79591069
 H    -37.20581182    -18.78635569      8.51209261
 H    -36.64620468    -17.59419916      9.70953544
 H    -34.33537833    -18.74624784      9.02282347
 H    -35.29151121    -19.75798482      7.91356026
 H    -36.40850999    -20.65033553     10.03319643
 H    -35.36828906    -19.56496122     10.98617581
 H    -33.33604542    -20.60636023     10.23396506
 H    -34.28629174    -21.83822816      9.36921075
 H    -35.29455420    -22.61164179     11.44321398
 H    -34.36822003    -21.39977054     12.36056873
 H    -32.23824626    -22.27644803     11.71975251
 H    -32.97802782    -23.57080695     10.86374716
 H    -32.69191516    -22.25953235     13.72777652
 H    -31.82034670    -21.37058297     12.45561140
 H    -30.45423922    -23.58325888     12.30890711
 H    -31.49180845    -24.22979821     13.60262410
 H    -30.15194549    -22.11479048     14.73721551
 H    -29.40172168    -21.92989086     13.13370592
 H    -28.46078159    -24.30975660     13.73795346
 H    -29.35093252    -24.18178046     15.27402640
 H    -27.92346675    -22.23576412     15.87678871
 H    -27.06210677    -22.40151033     14.32796533
 H    -26.58923957    -24.71976628     15.79680794
 H    -27.62466698    -23.94239736     17.01822281
 H    -25.91206942    -22.13957440     17.22058534
 H    -24.92083308    -22.96262078     15.99245186
 H    -24.67810804    -24.89933895     17.50410681
 H    -25.67069038    -24.06752600     18.72522685
 H    -24.25802870    -22.27797490     19.10099666
 H    -23.07300087    -22.89177508     17.92319147
 H    -22.65036655    -24.88625190     19.19336629
 H    -23.81362633    -24.37020021     20.43786780
 H    -22.89979928    -22.51309019     21.21250007
 H    -22.36820355    -22.14777860     20.45186396
 H    -21.83236042    -21.53911156     19.39290399
 H    -20.58463022    -22.80844000     19.37736891
 H    -19.78574072    -22.18017598     21.57302779
 H    -21.00443330    -20.88619267     21.66609907
 H    -20.17046397    -19.65186113     19.84806833
 H    -18.86487031    -20.83337434     19.58784077
 H    -18.41997711    -19.75732737     22.08856570
 H    -19.88674330    -18.80327837     21.76198624
 H    -19.43198492    -17.57299088     20.07168799
 H    -17.77061273    -18.19658906     19.93299975
 H    -16.77398840    -17.81263601     21.77779419
 H    -18.07759424    -16.71854048     22.29917070
 H    -17.87275984    -15.33410848     20.32053767
 H    -16.42038761    -16.25051558     19.85247826
 H    -14.95589094    -16.48714603     20.64465894
 H    -15.40179176    -15.45949434     22.02790553
 H    -15.63213604    -13.47717580     20.81264571
 H    -15.20193693    -14.30041281     19.29426624
 H    -13.03473765    -14.89369110     19.91655236
 H    -13.22744758    -14.12486158     21.51029973
 H    -13.51764949    -11.93614264     20.55282028
 H    -13.33547307    -12.60389284     18.91294586
 H    -10.93387914    -13.15129453     19.90087222
 H    -11.49016810    -12.39833244     21.41476037
 H    -11.58348245    -10.32407082     19.71437187
 H    -11.01008613    -11.46252279     18.47203116
 H     -9.01583164    -12.04110460     19.24220879
 H     -9.16797240    -10.99173092     20.67187124
 H     -9.36622109     -9.24004800     18.57424045
 H     -8.89187616    -10.65142021     17.59889844
 H     -6.88040197    -11.11803417     18.48317909
 H     -6.98465097     -9.76249751     19.63205644
 H     -7.01503482     -8.31537306     17.49312231
 H     -6.91298630     -9.81738738     16.54348777
 H     -4.59500409     -9.93233155     17.82791677
 H     -5.05552771     -8.39685224     18.60153680
 H     -4.90401673     -7.66621940     16.02824747
 H     -4.47154983     -9.35892180     15.68766319
 H     -2.40506244     -8.95769630     17.08875377
 H     -2.94898257     -7.28445902     17.35837310
 H     -2.59714672     -7.24202168     14.72540000
 H     -2.10899928     -8.94837874     14.86076742
 H     -0.17603655     -7.92195175     16.28327844
 H     -0.90048195     -6.32378084     15.98445528
 H     -0.44246990     -6.65323205     13.55248770
 H      0.26846195     -8.24383183     13.91695294
 H      1.89954238     -6.46167883     15.19539632
 H      0.80321915     -5.21632671     14.55084986
 H      1.39496917     -5.62697243     12.29920624
 H      2.37114274     -7.04668479     12.74616107
 H      3.75892551     -5.22608389     14.06274989
 H      2.77941311     -4.03653688     13.17179533
 H      3.46262272     -4.72992378     11.03255385
 H      4.51481776     -5.98626013     11.72737127
 H      5.88492127     -4.28050378     12.82406412
 H      4.85068713     -3.00209780     12.14266514
 H      5.61392562     -3.77862844      9.86847775
 H      6.61144466     -5.02390732     10.65746631
 H      7.39927946     -2.34913223     11.37702526
 H      6.11873807     -1.94337519     10.20918896
 H      7.48379412     -3.56037913      8.60806819
 H      8.46598136     -3.41685980      9.21907124
 H      6.18914149     -2.14367699      7.71647349
 H      6.29311480     -3.87842375      8.10132395
 H      8.50928532     -3.20821493      6.53731585
 H      7.80662968     -1.57320822      6.57329916
 H      6.02603946     -3.29502499      5.25072727
 H      7.26242904     -4.52595006      5.60347499
 H      8.95668939     -3.63812275      4.32371992
 H      7.96560614     -2.23565406      3.85563634
 H      6.50836790     -4.04866469      2.69992001
 H      7.65978444     -5.26566905      3.30109136
 H      9.53149339     -4.87727932      2.42398073
 H      8.93094528     -3.48502895      1.49164628
 H      7.46194171     -5.38682597      0.40040862
 H      8.27153426     -6.52487243      1.50389257
 H     10.32156681     -5.64791396     -0.00563886
 H      9.11758420     -4.64087497     -0.84502256
 H      7.98233695     -6.79575748     -1.53250485
 H      9.31967865     -7.68608569     -0.76628066
 H     10.95705505     -6.73257939     -2.25581541
 H      9.68907417     -5.80191573     -3.08909586
 H      8.61168852     -7.88305356     -3.81684250
 H      9.87183938     -8.82941903     -2.98938925
 H     11.53358255     -7.80914918     -4.56598192
 H     10.71235712     -6.77694835     -5.01730219
 H      9.94352293     -5.81428662     -5.37026373
 H      8.91019062     -7.07214469     -6.09018322
 H     10.33803452     -7.92692871     -7.62182285
 H     11.62815251     -6.79051896     -7.16091600
 H     10.55245821     -4.83698348     -7.74450308
 H      9.11102219     -5.72486849     -8.29422033
 H     10.15505289     -6.89154610    -10.02030087
 H     11.71989445     -6.12243992     -9.66251150
 H     10.23750583     -4.00822863    -10.38232203
 H      8.89670172     -5.15922580    -10.59613626
 H     10.39872154     -6.07206156    -12.48924872
 H     11.66733466     -4.93163525    -11.98100148
 H     10.32393678     -3.01436696    -12.57606252
 H      9.00282048     -4.08103651    -13.11004238
 H     10.03400992     -5.15487991    -14.81614890
 H     11.54532512     -4.24750379    -14.56944749
 H     10.13603747     -2.20000820    -15.19745259
 H      8.72179341     -3.27050989    -15.34647121
 H     10.20885950     -4.39547410    -17.20434111
 H     11.31300273     -3.01734769    -16.98095360
 H     10.39734349     -1.25007777    -17.38545157
 H      8.84571939     -2.01016234    -17.81323749
 H      9.94860675     -3.16013820    -19.70151614
 H     11.49357031     -2.39325922    -19.26191302
 H     10.33792581     -0.18885630    -19.78780100
 H      8.86325354     -1.10064521    -20.19060287
 H      9.13944206     -2.33641316    -21.76749506
 H     10.83558037     -1.85345526    -22.00860328
 H     10.72247411      0.26629820    -22.49878839
 H      8.94624159      0.29512747    -22.38728245
 H      9.10081719     -1.22708138    -24.45040923
 H     10.85898271     -1.35329966    -24.20304386
 H     11.09998832      1.04391283    -24.72504462
 H      9.34140588      1.16615096    -24.97144333
 H     10.47874332     -0.59907130    -26.87365295
 H     11.99082064     -0.18468651    -26.03093466
 H     11.94581343      2.09900415    -26.57638237
 H     10.42520906      1.89930058    -27.47979119
 H     11.68751422      0.38417634    -29.04079894
 H     13.15609052      0.64566266    -28.06962685
 H     13.07933068      3.05093993    -28.67089911
 H     11.61120400      2.75579284    -29.63306276
 H     10.99444294      2.05590456    -30.74391756
 H     12.55587484      1.32681725    -31.18959549
 H     13.07345921      3.93686483    -31.51910200
 H     11.39557991      4.22125102    -30.99745824
 H     10.26298761      3.19124063    -32.64139150
 H     11.75917681      2.72022863    -33.48271916
 H     12.08143154      5.28313688    -33.70619752
 H     10.54540276      5.49029688    -32.83100213
 H      9.04000787      4.60283300    -34.08041883
 H     10.20881916      4.15394473    -35.34558529
 H     10.41698335      6.81194482    -35.40230844
 H      9.20256178      6.83188301    -34.10113613
 H      7.50242120      5.85285612    -35.47066995
 H      8.61942172      5.77924031    -36.85456200
 H      8.71628566      8.28096828    -36.79156839
 H      7.59689746      8.27116660    -35.40768232
 H      5.76783593      7.39902567    -36.20348217
 H      6.45642328      7.20338946    -37.83315716
 H      6.87316926      9.25973694    -38.46486552
 H      6.25196690      9.95022164    -36.94644358
 H      4.19907925      9.45668918    -36.82155579
 H      4.19897001      8.59516818    -38.37913347
 H      4.82182691     10.22945930    -39.79517936
 H      4.69147896     11.44863227    -38.50487190
 H      2.45984813     11.17640253    -38.02840734
 H      2.28940682      9.88345852    -39.23981653
 H      2.80765607     11.34129510    -41.07128989
 H      3.00319392     12.71549290    -39.95701343
 H      0.33128970     11.65289346    -39.98177761
 H      1.05607840     10.53032263    -41.15769544
 H      1.11721588     13.19132339    -42.14247592
 H      0.34580150     13.55454616    -40.58002408
 H     -1.58106094     12.41303684    -40.79252596
 H     -1.15327137     11.84414384    -42.42397425
 H     -1.34620449     14.61849145    -42.53769751
 H     -1.72640344     14.48487601    -40.80395522
 H     -3.77627035     13.13399010    -41.68149178
 H     -3.21229824     13.50970993    -43.32740695
 H     -3.32649666     15.71579273    -43.38539192
 H     -3.94105532     15.81528709    -41.71785326
 H     -5.96189862     14.57996482    -42.38018600
 H     -5.35360485     14.47684494    -44.04980022
 H     -5.65108894     17.09305818    -43.84458021
 H     -6.13156451     16.82788710    -42.15133062
 H     -8.12336088     15.57695130    -42.99703559
 H     -7.58326876     15.87749695    -44.66623884
 H     -7.62655143     18.00145372    -44.93013043
 H     -8.21622287     18.29945745    -43.27733037
 H    -10.26657991     17.14501404    -43.60507873
 H     -9.82500180     16.76655570    -45.28735241
 H     -9.81898697     19.20277857    -45.78115955
 H    -10.25970744     19.53672343    -44.08926329
 H    -12.31241733     18.48965819    -44.08271036
 H    -12.14509251     18.01968046    -45.79133262
 H    -12.24306120     19.74852642    -46.93026184
 H    -12.03276885     20.85818359    -45.55450577
 H    -14.48968821     19.83034782    -45.10782554
 H    -14.22917610     18.88492615    -46.59328102
 H    -13.98049045     21.14689461    -47.78081793
 H    -14.60600132     21.88040125    -46.28449884
 H    -16.64354731     20.77782145    -46.24545436
 H    -16.26544400     19.90915889    -47.75234849
 H    -16.30792262     22.49126262    -48.55083363
 H    -16.67508838     22.87989093    -46.85306333
 H    -18.81547861     21.58489927    -47.15161659
 H    -18.34949893     21.25235444    -48.83700780
 H    -18.42616207     23.64358572    -49.36158495
 H    -18.62739219     24.08440365    -47.84253089
 H    -18.86678733     24.32881515    -46.61983037
 H    -20.38540230     23.43983560    -46.88776803
 H    -21.06947815     25.11968981    -48.55702364
 H    -19.54978222     26.00606985    -48.28661397
 H    -20.52359178     26.28973351    -45.88992184
 H    -21.94230754     25.35956717    -46.42871940
 H    -22.33301344     27.29878190    -48.04735691
 H    -20.87813218     28.08497071    -47.38895404
 H    -22.22608623     28.13996289    -45.19228491
 H    -23.10590055     27.22498812    -45.52843329
 H    -23.84413403     26.23826497    -45.77040491
 H    -24.51643967     27.26471625    -47.05985036
 H    -25.33459699     28.95302790    -45.70849870
 H    -24.76692353     28.12834819    -44.23679327
 H    -26.40343892     26.28010188    -44.89258948
 H    -26.84973729     27.24085073    -46.32299015
 H    -27.72351164     29.03267464    -44.93036850
 H    -27.30078728     28.11679865    -43.46382770
 H    -29.08504158     26.46769099    -44.51430238
 H    -29.24302628     27.63502305    -45.84870988
 H    -30.05658204     28.67649775    -43.28209712
 H    -29.57328661     27.04571089    -42.75747689
 H    -30.58269775     25.56489208    -43.49885663
 H    -31.66971075     26.60702678    -44.44786911
 H    -32.20956742     27.32139073    -41.88859012
 H    -30.97948894     26.11901515    -41.43091497
 H    -32.05232998     24.24655279    -42.24496210
 H    -33.43798259     25.21217142    -42.80693556
 H    -34.06615949     25.93720835    -40.64323078
 H    -32.72871955     25.02235261    -39.90664401
 H    -33.22101159     22.93520905    -40.40362341
 H    -34.71138643     23.39635702    -41.26059018
 H    -35.23932226     24.20363487    -38.74898701
 H    -33.61804203     23.59494712    -38.33762790
 H    -34.27458594     21.31521661    -38.97113631
 H    -35.92877484     21.89196155    -39.28624113
 H    -36.25236364     22.44114262    -36.96247610
 H    -34.54268040     22.10932867    -36.59484942
 H    -36.43131160     19.94907350    -37.45717239
 H    -37.48103148     21.38617486    -37.49025589
 H    -37.21483535     21.68463881    -35.07822334
 H    -36.16175011     20.25127661    -35.00929626
 H    -38.36834923     19.07047422    -35.80389076
 H    -39.14146787     20.67354385    -35.77702045
 H    -38.74867992     20.76072888    -33.32165163
 H    -37.98226416     19.15605083    -33.39834534
 H    -40.31772536     18.37363025    -34.16240167
 H    -40.86937319     20.05990927    -34.01952274
 H    -40.04366269     18.93155889    -31.50879461
 H    -39.71710254     17.51481327    -32.53566216
 H    -42.21852337     17.48388104    -32.98219044
 H    -42.38818267     18.90795509    -31.92791557
 H    -41.58335936     17.55544139    -30.01714027
 H    -41.42119583     16.14499603    -31.09073867
 H    -43.78628365     16.03984475    -31.48588901
 H    -44.05347434     17.52692460    -30.54489523
 H    -43.12289085     15.68907178    -28.72965882
 H    -43.04810874     14.58039729    -30.12016779
 H    -45.57510086     14.91163773    -30.29300302
 H    -45.48548653     15.87066419    -28.79617164
 H    -44.76993910     14.68647580    -27.25455507
 H    -44.62610876     13.23686876    -28.27740350
 H    -47.03376474     13.20645730    -28.66414356
 H    -47.22571366     14.65508640    -27.64782864
 H    -46.36151325     13.23197537    -25.73723513
 H    -46.21555170     11.86314570    -26.86562656
 H    -48.40005899     11.59819570    -27.42490166
 H    -48.90652133     12.93588725    -26.36549433
 H    -48.03616987     11.53198981    -24.44423699
 H    -47.57523908     10.27310011    -25.61513674
 H    -49.90893294     10.00040059    -26.32245134
 H    -50.40522192     11.11302047    -25.02474532
 H    -50.10705838     10.33620924    -23.22660121
 H    -49.01757059      9.03936933    -23.77385735
 H    -51.38150387      8.23074796    -24.76672972
 H    -52.06087596      9.70544738    -24.03735885
 H    -51.44686319      8.83874444    -21.79751938
 H    -50.77460788      7.37533407    -22.55565495
 H    -52.80359014      6.64610886    -23.50660768
 H    -53.67880758      7.98654751    -22.72847831
 H    -52.97485864      6.99848025    -20.52083548
 H    -52.12816399      5.70254087    -21.39942296
 H    -54.56256012      5.15166936    -22.19069580
 H    -55.11241608      6.53249371    -21.21128312
 H    -54.27843468      5.27919278    -19.19431696
 H    -53.76183281      3.95231623    -20.26239364
 H    -55.94719845      3.43516552    -21.00938346
 H    -56.64028921      4.72217304    -19.99375385
 H    -56.01816908      3.85159674    -17.94146400
 H    -55.24842096      2.44219214    -18.70914437
 H    -57.16164360      1.55274647    -19.67064345
 H    -58.16979109      2.86128627    -19.00759829
 H    -57.32446654      1.71944194    -16.75676458
 H    -56.42872121      0.57941169    -17.78935258
 H    -58.71047797     -0.15968654    -18.63705666
 H    -59.45988080      1.03375030    -17.54968802
 H    -58.98093378      0.47741165    -15.56888586
 H    -58.06031174     -0.95845911    -16.07780323
 H    -59.72555151     -2.14262011    -17.06972059
 H    -60.93150522     -0.88466545    -16.70710178
 H    -60.43162341     -1.42003304    -14.25582949
 H    -59.25667413     -2.63803351    -14.80740514
 H    -60.12943337     -4.07814453    -15.96025762
 H    -61.76899100     -3.49524683    -15.58562754
 H    -61.02985777     -4.02113647    -13.14107875
 H    -59.46083666     -4.54121463    -13.80135000
 H    -61.00061145     -6.34343690    -14.94853373
 H    -62.37707550     -5.56610283    -14.13038636
 H    -60.84318939     -6.49877042    -12.08188278
 H    -59.74736430     -7.08926073    -13.35418590
 H    -61.46051313     -8.59523220    -14.21072414
 H    -62.59342504     -8.03823874    -12.95591914
 H    -61.72608739     -8.58776768    -11.08104856
 H    -60.47710217     -8.80033451    -11.41804817
 H    -59.24296398     -8.88739850    -11.73458626
 H    -59.72807260    -10.30055799    -12.70201408
 H    -60.43080384    -11.26959527    -10.40971584
 H    -59.87892563     -9.75056557     -9.66389692
 H    -57.59196964    -10.13309375    -10.35307128
 H    -58.06125216    -11.66803928    -11.12247547
 H    -58.74560202    -12.67472580     -9.07059822
 H    -58.31541196    -11.20192902     -8.16833838
 H    -55.98981965    -11.53852778     -8.57172092
 H    -56.30861770    -12.76119332     -9.82540487
 H    -57.11186540    -14.02569124     -7.58834901
 H    -56.64813927    -12.54031821     -6.72412005
 H    -54.38119033    -12.61717524     -7.22108968
 H    -54.57962869    -14.12597477     -8.14435176
 H    -55.30808306    -15.29010065     -6.10528997
 H    -55.11224634    -13.78585249     -5.17407994
 H    -52.70615565    -13.77897831     -5.64098354
 H    -52.87811366    -15.28355112     -6.57637532
 H    -53.37949860    -16.51809736     -4.57862983
 H    -53.64816831    -15.02740473     -3.64379363
 H    -50.92127159    -15.21107012     -4.27843786
 H    -51.41189192    -16.71500452     -5.09436659
 H    -52.07648554    -17.57244538     -2.81515524
 H    -51.55514780    -16.02316259     -2.11074310
 H    -49.22714292    -16.78717248     -2.99730481
 H    -50.02015235    -18.25762339     -3.61145203
 H    -50.38797864    -18.51020596     -0.96462654
 H    -49.52359016    -16.96179141     -0.81129161
 H    -47.52988907    -18.22645829     -1.79572944
 H    -48.55058201    -19.68233707     -1.87861229
 H    -48.30596613    -19.02182258      0.80629646
 H    -47.31927211    -17.66781908      0.20515080
 H    -45.76381846    -19.39299384     -0.81257875
 H    -46.65512623    -20.61930932      0.12015244
 H    -46.23440085    -19.75038896      2.22653529
 H    -45.27879230    -18.41239674      1.54473195
 H    -43.67023720    -20.13989843      0.68813546
 H    -44.69007063    -21.41230944      1.40170162
 H    -43.54121651    -19.96271942      3.45278578
 H    -43.07812507    -18.79221900      2.19431776
 H    -41.67962624    -20.72857072      1.21038045
 H    -42.00040428    -21.58455272      2.73768623
 H    -41.17020205    -20.28887521      4.27141234
 H    -40.61377808    -19.08188242      3.08742441
 H    -39.16236125    -20.59636195      1.94294359
 H    -39.47223626    -21.82944227      3.18863900
 H    -38.58800672    -20.45385685      4.95003378
 H    -38.23181077    -19.15296904      3.78853388
 H    -36.62494959    -20.81933403      2.71860659
 H    -37.09776164    -22.00844290      3.95583556
 H    -36.25602662    -20.72200891      5.76965747
 H    -35.71894404    -19.44098675      4.65664750
 H    -34.46981541    -19.70455340      3.36459260
 H    -34.18775266    -21.40830512      3.79579716
 H    -33.47830013    -21.08035857      5.97690449
 H    -33.46866516    -19.31736985      5.73186451
 H    -31.94989142    -19.20675065      4.02413018
 H    -31.70428318    -20.96952762      4.04780743
 H    -30.85648978    -20.13162009      6.50797976
 H    -31.30551136    -18.50289009      5.94772549
 H    -29.79501225    -18.34983974      4.20636613
 H    -29.14335932    -19.96961439      4.55269722
 H    -28.42009371    -18.99969116      6.79012573
 H    -29.12350673    -17.43994346      6.29955069
 H    -27.57034716    -17.21000321      4.45992168
 H    -26.80840933    -18.76144753      4.88505452
 H    -26.20594455    -17.64535865      7.10087791
 H    -26.92942904    -16.14338949      6.47723898
 H    -25.33014169    -16.00449896      4.67153878
 H    -24.54313485    -17.50109434      5.22749666
 H    -23.75408321    -17.79843972      6.73886780
 H    -24.01260326    -16.14473544      7.34442227
 H    -22.68719405    -15.16360674      5.59448305
 H    -22.36228654    -16.77239554      4.90564316
 H    -21.18183849    -17.08638790      7.23781936
 H    -21.67802931    -15.42012621      7.61943869
 H    -20.52333486    -14.29352029      6.03257172
 H    -19.81528617    -15.79107359      5.38121329
 H    -18.66208978    -16.76860557      6.66432925
 H    -18.87582304    -15.57379658      7.96625714
 H    -17.72652653    -13.94431842      6.36477590
 H    -17.60333022    -15.26558209      5.17845739
 H    -16.12971980    -16.47435888      6.79284414
 H    -16.29556564    -15.11939630      7.93513930
 H    -14.55398313    -14.16722947      7.30934854
 H    -14.98931498    -14.60685403      5.34214166
 H    -13.52399587    -15.96413107      6.69663497
 H    -13.78559964    -14.89050214      8.09203851
 H    -12.74087209    -13.03523645      6.83698623
 H    -12.48675947    -14.12146219      5.44997250
 H    -11.01308058    -15.56540919      6.66311525
 H    -11.18052320    -14.55817624      8.12109721
 H    -10.36419986    -12.66542182      7.67003654
 H    -10.00389974    -13.08633467      5.97850385
 H     -8.43803992    -14.74546600      6.43299630
 H     -8.61671461    -14.50687791      8.18782328
 H     -7.89301491    -12.37472917      8.37588630
 H     -7.57644124    -12.25017759      6.62873586
 H     -5.85843301    -14.18732582      7.41215310
 H     -6.52625595    -13.94396370      9.04403976
 H     -5.58198068    -11.59894393      8.91300232
 H     -4.96774734    -11.97063961      7.28425237
 H     -3.50173853    -13.63955682      7.84285177
 H     -3.90276991    -13.50113961      9.57151633
 H     -3.15627251    -11.33003950      9.87617156
 H     -2.65347367    -11.20441203      8.17332755
 H     -1.17959977    -13.21386294      9.56508456
 H     -2.21218024    -12.70315710     10.92200158
 H     -1.60632748    -10.59572474     11.21747000
 H     -0.40943685    -10.66443703      9.90179598
 H      1.04216653    -12.13750041     10.76365467
 H      0.00430036    -12.50045369     12.16342800
 H      0.08409105    -10.44595635     13.18228459
 H      1.15066535     -9.78994242     11.91724244
 H      2.92938439    -11.30855568     12.42073384
 H      1.96565096    -12.05182912     13.71959070
 H      2.22442709     -9.82662321     14.88836303
 H      2.88241025     -9.11268105     13.39651470
 H      4.72870881    -10.98736674     14.31214921
 H      3.54678153    -11.24708357     15.61746976
 H      3.57102526     -9.20892050     16.59043869
 H      4.78270538     -8.59298552     15.44121197
 H      6.50675462    -10.01428723     16.00431194
 H      5.51680134    -10.82046334     17.24460999
 H      5.22927520     -8.93918629     18.60316337
 H      6.19997410     -7.93436956     17.50027913
 H      8.09772370     -9.57044516     18.15940465
 H      6.92486176    -10.41703976     19.19667950
 H      7.14575941     -7.89252148     20.26214333
 H      8.29549853     -7.60080132     18.93501638
 H      9.91976585     -9.03249725     19.38170049
 H      9.10458968     -9.63532689     20.84469431
 H      9.66852750     -6.95082916     21.27927650
 H     10.35831148     -7.00966297     19.63945843
 H     12.04598985     -8.51675415     20.04809597
 H     11.88283603     -7.53523069     21.85789290
 H     12.12206892     -6.27055756     22.08924626
 H     12.57769236     -6.14033548     20.37352013
 H     14.38609081     -7.67776354     20.55918944
 H     14.05449239     -7.90955051     22.29256302
 H     14.63726208     -5.55452435     22.69898518
 H     14.83868521     -5.28383334     20.95129477
 H     15.66519163     -5.78467591     19.74568758
 H     16.73375007     -6.73112428     20.80902430
 H     17.30707344     -4.50283736     21.89986652
 H     16.19442528     -3.70373007     20.76333306
 H     18.06383037     -4.70766948     19.10707369
 H     18.84844094     -5.34700979     20.57127889
 H     18.97553328     -2.66797001     20.93832639
 H     18.13730949     -2.54207589     19.37314327
 H     19.46746149     -3.38817861     17.92189406
 H     20.72487623     -3.74546080     19.13000178
 H     21.06169105     -1.44241914     19.68074917
 H     19.82416869     -0.94917383     18.50027717
 H     21.54148353     -2.01945837     16.82893264
 H     22.56495824     -2.38553890     18.23845427
 H     22.67369469      0.17665517     18.49278737
 H     21.63096068      0.30971006     17.05637906
 H     23.27545173     -0.70848506     15.62276262
 H     24.39530605     -0.88564886     16.99491639
 H     24.54197939      1.51696543     17.29045463
 H     23.42752033      1.76882220     15.92560451
 H     24.73315534      0.85697535     14.26610967
 H     26.04086255      0.48480634     15.41487368
 H     26.58178888      2.50747696     16.18872974
 H     25.50290117      3.29929155     15.01514650
 H     27.00099834      2.17658849     13.25407374
 H     27.95241777      1.47400873     14.58428026
 H     28.67331394      3.58084262     15.41863558
 H     27.77341226      4.43313933     14.14112473
 H     28.89878750      3.62030514     12.32209233
 H     29.98046257      2.64521142     13.34553648
 H     31.06044258      4.09825695     14.54139569
 H     30.23439991      5.48100002     13.78380624
 H     31.20657385      4.89222610     11.60774589
 H     32.03938068      3.50577986     12.35102664
 H     33.14537663      5.64322914     13.60533457
 H     32.05922331      6.62982448     12.59777948
 H     32.90444391      6.07615645     10.54110791
 H     34.13005561      5.00543357     11.26200675
 H     35.37680574      6.62822757     12.26785009
 H     34.13562541      7.88140447     12.02850573
 H     34.48156703      7.85505325      9.62015019
 H     35.73260012      6.60185430      9.80091324
 H     37.05400685      8.29920326     11.11795328
 H     35.73717378      9.47221182     10.87656510
 H     35.73920790      9.14535018      8.42329245
 H     36.83778868      8.80537650      8.37758346
 H     34.84196632     10.83220324      9.46000887
 H     34.44230590      9.41404083      8.46133295
 H     35.78002173     10.05429689      6.60434772
 H     35.99181485     11.66135405      7.33972354
 H     34.08662475     12.51320891      7.59855127
 H     33.24206369     11.11369467      6.89403500
 H     34.06190120     11.15659798      4.79488058
 H     35.05834237     12.59229487      5.13273570
 H     33.23830302     14.02077225      5.58212397
 H     32.07738767     12.70634991      5.27743374
 H     33.25923884     12.99294888      2.87235437
 H     34.23086886     14.27373372      3.63641717
 H     31.51544056     15.02550467      3.63274679
 H     31.28389212     13.43634930      2.86512892
 H     32.71739770     14.03751130      0.97821979
 H     32.70829811     15.71857487      1.56320621
 H     30.32328554     15.90918274      1.38926726
 H     30.20695400     14.23670367      0.79131460
 H     31.41478296     14.53878977     -1.16325537
 H     31.67329197     16.26258043     -0.80272033
 H     29.21478732     16.53841557     -1.15693886
 H     28.99114201     14.77267849     -1.13639605
 H     30.45537196     15.60718079     -3.43315852
 H     30.23821134     17.21705121     -2.70554244
 H     27.75161184     16.85531675     -3.05714716
 H     28.11740798     15.26233468     -3.76203580
 H     29.32486328     16.83409196     -5.52721107
 H     28.77618112     18.20733030     -4.53653906
 H     26.41236750     17.47656823     -5.03059718
 H     27.07401271     16.21562732     -6.09854863
 H     28.12554059     17.58861502     -7.61375433
 H     27.59572408     19.05137811     -6.74895072
 H     25.29903495     17.78091519     -7.63975780
 H     26.42777184     16.57380675     -8.30089993
 H     27.44248360     18.39247478     -9.70823940
 H     26.11661174     19.45562726     -9.17905390
 H     24.33540340     18.32345108     -9.94625977
 H     25.35304386     17.03671969    -10.63690939
 H     26.55772896     18.30184445    -12.13093739
 H     25.57342523     19.73841543    -11.76259425
 H     23.70801011     18.07659321    -12.70800430
 H     25.01958205     16.89116723    -12.91491240
 H     26.13778689     18.31785084    -14.53913246
 H     24.85175482     19.53704443    -14.37193439
 H     23.13585464     18.12986069    -15.19607698
 H     24.29090124     16.79654122    -15.43354952
 H     25.24945021     18.62902356    -17.13488956
 H     23.91393091     19.67266707    -16.59132440
 H     22.49591231     17.74176472    -17.68090129
 H     24.03778006     16.94480777    -18.07557852
 H     23.70244992     19.47632316    -19.39838830
 H     22.16799949     19.46171412    -18.49643756
 H     21.36942657     17.62224564    -19.85165788
 H     22.98991917     17.34960738    -20.53571839
 H     22.08742441     19.80326616    -21.49191041
 H     20.64168129     19.45014414    -20.51548922
 H     20.19661992     17.47858141    -21.95085751
 H     21.40722682     17.36957924    -22.49357631
 H     22.60893480     17.24309781    -22.94613437
 H     22.34476581     18.80622515    -23.75552571
 H     20.53713600     17.96148576    -25.08923843
 H     20.70994865     16.35152378    -24.35003286
 H     22.97730743     16.16627753    -25.30501268
 H     22.79704547     17.77694612    -26.04089242
 H     20.87521774     16.47686191    -27.32338969
 H     21.34264214     15.04341570    -26.37733840
 H     23.56421868     15.53025048    -27.83002303
 H     22.66820476     16.90872442    -28.51210464
 H     21.04304950     15.28209235    -29.48065541
 H     21.98045593     13.94513437    -28.77207993
 H     23.65217329     15.17742854    -30.59676928
 H     22.27401104     16.26964588    -30.87244442
 H     20.98873978     14.29131257    -31.70954724
 H     22.40877020     13.26228594    -31.40477773
 H     23.61679309     14.63956829    -33.13613549
 H     22.13982538     15.60764900    -33.35896458
 H     20.95391665     13.60309546    -34.16748884
 H     22.43305684     12.63870912    -33.94305637
 H     23.11278621     14.46611232    -35.85203914
 H     21.44991734     15.07219170    -35.66282616
 H     21.35900637     12.39493809    -36.55948284
 H     23.12718763     12.59186295    -36.61445831
 H     23.00795180     14.27582414    -38.31044043
 H     21.22899872     14.27619841    -38.25050324
 H     21.66486799     11.81565905    -39.15274629
 H     23.40160377     12.19539778    -39.06434943
 H     23.25233244     13.93558201    -40.70220049
 H     21.50482655     13.65130712    -40.88571506
 H     22.23432032     11.32961492    -41.72803065
 H     23.92397071     11.82255322    -41.46277592
 H     23.52526115     13.58994379    -43.22973327
 H     21.85356206     13.00193120    -43.39685602
 H     22.96854269     10.82269061    -44.18909201
 H     24.54938783     11.60390193    -43.94639019
 H     23.77060178     13.21692223    -45.78265293
 H     22.26103216     12.46751726    -45.82206873
 H     21.75547505     10.75705174    -45.74665101
 H     22.44517660     10.42172901    -46.43359601
 H     20.15611474     12.10649136    -46.20434423
 H     21.00490119     10.96203409    -44.71929975
 H     19.81306299     10.14390477    -47.03200100
 H     19.58763523     11.87797579    -47.36433621
 H     18.10183976     11.53665612    -45.14736392
 H     18.61297079      9.83277100    -45.20890457
 H     17.25543811      9.96541251    -47.47639416
 H     16.32812237     11.24694926    -46.15270003
 H     15.68471692     10.97685626    -45.08167998
 H     15.99928101      9.27064352    -45.47936604
 H     14.69506192      9.56703921    -47.57306607
 H     14.40378407     11.26869268    -47.13970784
 H     13.08698061     10.73035774    -45.24946825
 H     13.45058355      8.99533536    -45.40995785
 H     12.01709090      9.47299373    -47.63592226
 H     11.91805159     11.15755888    -47.06962010
 H     10.62549577     10.18251503    -45.08738383
 H     10.82890729      8.56719185    -45.80684295
 H      9.25661708      9.94750211    -47.56947307
 H      9.51494383     11.34728141    -46.50075801
 H      8.24181937     10.00134141    -44.75148049
 H      8.07325355      8.68819611    -45.94122906
 H      6.72778430     10.22874035    -47.36163375
 H      6.92693680     11.50889845    -46.14106003
 H      5.51702824      9.55598682    -44.85052839
 H      5.63132478      8.66028128    -46.38444968
 H      4.30757183     10.42118211    -47.49798986
 H      4.19915095     11.30948670    -45.95934548
 H      3.03218355      9.77599931    -44.73907767
 H      2.95405522      8.64426231    -46.11069496
 H      1.50148008     10.31006352    -47.25297182
 H      1.96830791     11.37571045    -46.69719317
 H      2.59048225     12.39888325    -46.05805103
 H      1.63520137     11.92958290    -44.63135475
 H     -0.40297592     12.01158406    -45.17260651
 H     -0.05425255     12.54723255    -46.83385284
 H      0.94565876     14.56968993    -46.27077585
 H      0.70361110     14.26631591    -44.53363919
 H     -1.82457131     14.41805103    -45.60154989
 H     -0.98740866     14.68259312    -47.14991769
 H     -0.43957019     16.79510082    -45.33251032
 H     -1.48549537     15.84197053    -44.25276506
 H     -3.15831294     16.54017613    -46.26748835
 H     -1.75042386     17.36681975    -46.97655488
 H     -1.97172915     18.78987905    -44.77901725
 H     -3.35991286     17.76205721    -44.34913947
 H     -4.54944978     18.62447598    -46.35724520
 H     -3.34378245     20.19952395    -45.77624105
 H     -3.45919216     20.88322783    -44.64438683
 H     -4.87119212     19.86956715    -44.26096175
 H     -6.10805244     21.19740997    -45.84464727
 H     -4.68572545     21.40700041    -46.89408732
 H     -4.84978055     22.37993717    -45.41261958
1502
Final Conformation Chain 4 (Simulation Frame 5)
 C      0.00000000      0.00000000      0.00000000
 C      1.54000000      0.00000000      0.00000000
 C      2.16637443     -1.21724824     -0.70538061
 C      3.70506086     -1.18587098     -0.76069358
 C      4.32938182     -2.37823715     -1.50908269
 C      5.75333878     -2.11326403     -2.03228037
 C      5.80219706     -1.60228297     -3.48421398
 C      7.16522820     -1.01584675     -3.89632888
 C      8.34363227     -1.99331713     -3.73045088
 C      9.72480885     -1.35574553     -3.97014593
 C     10.90801844     -2.30130122     -3.69168675
 C     12.26835306     -1.58751166     -3.58401050
 C     12.22081764     -0.26409793     -2.79793385
 C     13.60748540      0.32324580     -2.47578499
 C     13.58374460      1.81733140     -2.10330064
 C     14.98039210      2.43806544     -1.91444881
 C     14.96676146      3.96711960     -1.73167134
 C     16.35392295      4.57770047     -1.45858895
 C     16.30791041      6.01102136     -0.89727438
 C     17.68600059      6.57358140     -0.50231403
 C     17.63416508      7.98615855      0.10886422
 C     17.35381080      9.10176751     -0.91505869
 C     18.06792517     10.43048355     -0.60497102
 C     17.74569253     11.56164153     -1.59907754
 C     18.23008735     12.95124527     -1.14524596
 C     18.20469699     14.01716950     -2.25644391
 C     18.60738429     15.42595411     -1.78234597
 C     18.28806746     16.54236489     -2.79391096
 C     18.28108050     17.95661937     -2.18445593
 C     18.35727974     19.08806901     -3.22638462
 C     18.29067126     20.50254263     -2.62105191
 C     18.50894557     21.63264426     -3.64419736
 C     18.22658730     23.04176718     -3.09080202
 C     18.38333430     24.16631465     -4.13119778
 C     17.84959462     25.53255178     -3.66203037
 C     17.73149897     26.57848417     -4.78616509
 C     17.66569068     28.03287039     -4.28413922
 C     17.60646364     29.08203051     -5.40990794
 C     17.39011967     30.52325036     -4.91223274
 C     17.67087095     31.60172265     -5.97509503
 C     17.54611779     33.04460926     -5.45153521
 C     17.91114568     34.12154315     -6.49007651
 C     18.98972075     35.11180003     -6.01293173
 C     19.40436153     36.14634845     -7.07565586
 C     20.73101267     36.86466988     -6.76644547
 C     21.30413357     37.66024344     -7.95396185
 C     22.69047757     38.27472257     -7.68551129
 C     22.68515084     39.39485065     -6.62868362
 C     24.08295258     39.94935785     -6.29661126
 C     25.00503502     38.94001289     -5.58767773
 C     26.49543763     39.32673971     -5.61492525
 C     27.44237025     38.20435884     -5.15105050
 C     28.87685807     38.67849675     -4.85265826
 C     29.78687477     37.58667517     -4.25987225
 C     30.73556978     38.09253299     -3.15729089
 C     31.63415485     36.99745765     -2.55317595
 C     32.57601557     37.50140992     -1.44388316
 C     33.68857120     36.50568818     -1.06657933
 C     34.70083226     37.05529379     -0.04439480
 C     35.70330455     36.00589437      0.47078495
 C     36.87803006     36.60088681      1.26928603
 C     37.88629755     35.55251844      1.77517181
 C     37.40872814     34.77030634      3.01277905
 C     38.29667678     33.56469738      3.37285437
 C     37.78743690     32.74873248      4.57554968
 C     38.90670573     32.10400038      5.41409472
 C     38.41064787     31.42393023      6.70368039
 C     39.54057562     30.95654583      7.63985083
 C     39.06473034     30.05616475      8.79505003
 C     40.09655335     29.89085313      9.92624999
 C     39.63857652     28.95453100     11.05989812
 C     40.60949478     28.89490554     12.25378360
 C     40.39976547     27.67608455     13.17143768
 C     41.58758181     27.38489502     14.10733350
 C     41.36583971     26.18425256     15.04588990
 C     42.38316232     26.09395600     16.19849618
 C     42.05849948     25.00370068     17.23654116
 C     43.23863346     24.64567805     18.15887710
 C     42.92087717     23.53920658     19.18179050
 C     44.13468332     23.09072654     20.01673976
 C     43.86224363     21.86663716     20.91059759
 C     44.40365819     22.00593815     22.34554202
 C     44.03507658     20.83140556     23.27086401
 C     44.65990868     20.92070970     24.67557381
 C     44.12722146     19.86871228     25.66610183
 C     44.99877807     19.69461727     26.92375043
 C     44.49374643     18.60718800     27.89020821
 C     45.18733361     18.61996218     29.26511680
 C     44.54782791     17.67361299     30.29810068
 C     45.03658867     17.89899907     31.74098461
 C     44.19028055     17.18067854     32.80840121
 C     44.75621143     17.29280175     34.23624946
 C     44.00381463     16.44264817     35.27679641
 C     44.38645097     16.75474244     36.73548987
 C     43.86403586     15.72472802     37.75419137
 C     44.06791443     14.25997171     37.32463056
 C     43.19536321     13.25337472     38.09729922
 C     43.29817898     11.80725950     37.57789602
 C     42.32061114     10.82793890     38.25383409
 C     42.66447828      9.34389180     38.02809181
 C     41.76982992      8.36710983     38.81364976
 C     42.54701566      7.26121150     39.55160044
 C     41.68696939      6.04467414     39.94141739
 C     42.49598358      4.75610863     40.17952447
 C     41.63197142      3.48673436     40.29687839
 C     42.43709869      2.17470900     40.25261169
 C     41.57744196      0.90666830     40.40965657
 C     42.31277824     -0.39730595     40.04836483
 C     41.53919520     -1.67613500     40.41953263
 C     42.16770483     -2.97015213     39.86990065
 C     41.22550553     -4.18780647     39.90422838
 C     41.89653851     -5.51088285     39.49096860
 C     40.90752401     -6.59750422     39.02976981
 C     41.52805602     -8.00249694     38.91780797
 C     40.49385877     -9.13420059     38.77192132
 C     41.11038981    -10.54484103     38.73213429
 C     40.09987898    -11.66120227     38.40932560
 C     40.70978101    -13.07526293     38.40211787
 C     39.71518644    -14.18441641     38.01204071
 C     40.31222342    -15.60342116     38.05169361
 C     39.26326529    -16.72713267     37.95917704
 C     39.84962775    -18.10254332     37.59036189
 C     38.78892092    -19.19724744     37.37099029
 C     39.36317817    -20.62539631     37.32387957
 C     38.38580228    -21.67534672     36.76357561
 C     38.86563807    -23.12925415     36.92943942
 C     38.26182729    -24.10875983     35.90592530
 C     38.03963882    -25.53030290     36.45496773
 C     37.57623680    -26.54610308     35.39430352
 C     37.15225241    -27.90815050     35.97453109
 C     36.59399584    -28.88895969     34.92669382
 C     36.54932762    -30.35349438     35.40076436
 C     35.83281613    -31.30596379     34.42556525
 C     36.03504592    -32.79867424     34.74575058
 C     35.12316535    -33.74151648     33.93882906
 C     34.96557010    -35.14251406     34.55848180
 C     34.50829747    -36.22150917     33.55934652
 C     34.16553549    -37.57394183     34.21129755
 C     33.72885645    -38.65928272     33.20982536
 C     34.78150954    -38.97654525     32.13146274
 C     34.71661868    -40.41982045     31.59822183
 C     35.79234930    -40.74784294     30.54617389
 C     35.52662840    -42.04665331     29.76253876
 C     35.48243179    -43.31052299     30.64133345
 C     35.19965410    -44.60712580     29.86001538
 C     35.38863653    -45.89149509     30.68843626
 C     34.49778347    -47.06414188     30.23801386
 C     34.66471497    -48.33908633     31.08551047
 C     33.68164191    -49.46693447     30.72064619
 C     33.70620678    -50.65894796     31.69537713
 C     32.56121411    -51.66641136     31.48181383
 C     32.35455593    -52.63840573     32.65829985
 C     31.42479953    -53.82304899     32.33616111
 C     31.20507031    -54.78613087     33.51759768
 C     30.39202661    -56.04356024     33.15783205
 C     29.80534056    -56.78001016     34.37645463
 C     28.86400073    -57.94303742     34.01197292
 C     28.27017620    -58.67371491     35.23061266
 C     26.92947947    -59.37653659     34.94746257
 C     26.30127349    -60.04829631     36.18265329
 C     25.04141310    -60.87759753     35.87182974
 C     24.45028396    -61.60148580     37.09581998
 C     23.25715532    -62.51756390     36.76590340
 C     22.73426884    -63.32308968     37.96977962
 C     21.75264709    -64.44795472     37.59202658
 C     22.31506599    -65.86633054     37.80058118
 C     21.27024106    -66.98527508     37.63353635
 C     21.87576983    -68.39756361     37.53167359
 C     20.83434326    -69.53084691     37.58363197
 C     21.41597986    -70.92928667     37.30494739
 C     20.44834692    -72.08466446     37.62178908
 C     21.03350594    -73.48347641     37.35250475
 C     20.05857807    -74.63804592     37.64929578
 C     20.48735685    -75.98988316     37.04905845
 C     19.43973619    -77.10712725     37.20985824
 C     19.79962460    -78.41333802     36.47781060
 C     20.48163658    -78.19943622     35.11373374
 C     20.86505873    -79.50550459     34.39347485
 C     21.68986051    -79.29426829     33.11024406
 C     22.49880011    -80.53030760     32.67501590
 C     23.62950245    -80.21924405     31.67684173
 C     24.00427400    -81.40313854     30.76605080
 C     24.97971000    -81.03675563     29.63208070
 C     24.71256771    -81.78165118     28.31095784
 C     25.81850917    -81.60004154     27.25478010
 C     25.48744685    -82.22590402     25.88719321
 C     26.64296631    -82.15873546     24.87138655
 C     26.41977294    -83.01537327     23.61124514
 C     27.42845197    -82.74075822     22.48042544
 C     27.03050345    -83.35185348     21.12403334
 C     27.81369369    -82.78242923     19.92654886
 C     27.38028807    -83.35618188     18.56472381
 C     28.13608123    -82.75780098     17.36375879
 C     27.88051732    -83.49155016     16.03413507
 C     28.01390745    -82.59569705     14.78864148
 C     27.84311502    -83.34718399     13.45533832
 C     27.67160970    -82.42492478     12.23401777
 C     27.75609066    -83.15525518     10.88084354
 C     27.59149613    -82.23192876      9.65937845
 C     28.08740354    -82.84731963      8.33764856
 C     27.89989868    -81.93377105      7.11214013
 C     28.36421825    -82.56256294      5.78525351
 C     28.07009302    -81.69765519      4.54548541
 C     28.53874611    -82.32426745      3.21909129
 C     28.12214529    -81.52801327      1.96848222
 C     29.11311323    -81.64101817      0.79510571
 C     28.75749319    -80.75428256     -0.41271644
 C     28.61276931    -79.25957466     -0.07139068
 C     28.85134989    -78.31819098     -1.26657940
 C     28.14191774    -76.95692162     -1.14308141
 C     28.07259469    -76.16478623     -2.46191265
 C     27.18274724    -74.90979993     -2.39276858
 C     26.59417768    -74.48368915     -3.75056660
 C     25.43501882    -73.47562101     -3.64217220
 C     25.03020574    -72.83981036     -4.98510600
 C     23.80915848    -71.90589895     -4.89316544
 C     23.41212372    -71.26015664     -6.23368036
 C     22.14348461    -70.39038158     -6.15853926
 C     21.76025186    -69.72499196     -7.49345099
 C     22.62575223    -68.50385528     -7.85585176
 C     22.08827189    -67.68581252     -9.04476763
 C     23.02339653    -66.54864346     -9.49641843
 C     22.40196313    -65.60494005    -10.54276656
 C     23.08287533    -64.22613145    -10.62550367
 C     22.70414582    -63.41467835    -11.87838348
 C     23.58349277    -62.17163885    -12.10903849
 C     23.02681614    -61.19757487    -13.16398422
 C     23.77271412    -59.85185758    -13.22941494
 C     23.40501377    -58.99069085    -14.45203030
 C     24.37740657    -57.82528847    -14.71258652
 C     24.01409849    -56.96881533    -15.93980329
 C     24.91739677    -55.73666110    -16.13331856
 C     24.21126280    -54.54057792    -16.79841994
 C     25.13734970    -53.67195892    -17.66989230
 C     24.39976712    -52.59533279    -18.48747906
 C     25.23365972    -52.00190513    -19.63816006
 C     24.39106147    -51.36061887    -20.75636403
 C     25.22568338    -50.69125195    -21.86404367
 C     24.45416406    -50.46036467    -23.17669328
 C     25.25583042    -49.69917755    -24.24885243
 C     24.38769441    -48.84436055    -25.19078010
 C     25.15183954    -48.27061248    -26.39846192
 C     24.28094017    -47.42591623    -27.34694626
 C     25.07943317    -46.67646228    -28.42968709
 C     24.27720606    -45.57811966    -29.15195793
 C     25.02314371    -44.93275976    -30.33461918
 C     24.24734547    -43.79027194    -31.01613124
 C     25.01254189    -43.11394709    -32.16880601
 C     24.21667776    -42.00651846    -32.88420946
 C     24.88148369    -41.49099489    -34.17411974
 C     23.98121367    -40.56913240    -35.01749595
 C     24.75503656    -39.63564017    -35.96691176
 C     23.86005181    -38.86760241    -36.95722499
 C     24.62364141    -38.25410604    -38.14556547
 C     23.71417642    -37.61920790    -39.21391831
 C     24.47457899    -37.05188630    -40.42698638
 C     23.61339072    -36.16880740    -41.34900938
 C     24.41428719    -35.10930109    -42.12850360
 C     23.76196885    -34.68300641    -43.45679334
 C     24.68677961    -33.86049846    -44.37320249
 C     23.97310419    -33.23874834    -45.58798403
 C     24.84447830    -32.25451410    -46.39022470
 C     24.11531812    -31.59506436    -47.57557337
 C     25.00402936    -30.65849603    -48.41499704
 C     24.35856932    -30.19993628    -49.73586959
 C     25.36346023    -29.65636985    -50.76850205
 C     24.76914362    -29.45466388    -52.17481014
 C     25.75019387    -28.83317420    -53.18619087
 C     25.13421651    -28.56323392    -54.57158040
 C     26.14096142    -28.04214522    -55.61394850
 C     25.54899822    -27.87036150    -57.02521387
 C     26.56386690    -27.38040898    -58.07477953
 C     25.99730421    -27.30091269    -59.50456520
 C     26.91369570    -26.56756669    -60.50157587
 C     27.04539266    -25.05629182    -60.23642651
 C     28.28979420    -24.41403346    -60.87718310
 C     28.31816152    -22.87694763    -60.78683687
 C     29.52871835    -22.23064766    -61.48572779
 C     29.71114649    -20.73509057    -61.16693483
 C     28.87541904    -19.79808043    -62.05865880
 C     28.69588724    -18.38100479    -61.48310259
 C     27.79921198    -17.46655401    -62.33829453
 C     28.31422739    -16.02031873    -62.45979616
 C     27.67299322    -15.22159870    -63.60978096
 C     28.22780916    -13.79354303    -63.76610207
 C     27.67751171    -13.03826154    -64.99016195
 C     28.00683852    -11.53390722    -64.99803194
 C     27.49263929    -10.78663513    -66.24253328
 C     27.80822322     -9.27931744    -66.24294565
 C     26.71183476     -8.40998913    -66.88621903
 C     27.03924753     -6.90539190    -66.91046881
 C     25.94910505     -6.03762586    -67.56634339
 C     26.09982936     -4.52968450    -67.29249118
 C     25.24266188     -3.63774210    -68.20971671
 C     24.92337004     -2.25296183    -67.61639022
 C     24.22789960     -1.29478591    -68.60118450
 C     24.01747416      0.12716473    -68.04857476
 C     23.46495362      1.12565272    -69.08266508
 C     23.30405421      2.55969001    -68.54484686
 C     22.62604502      3.52687271    -69.53300735
 C     22.41555935      4.94672477    -68.97505046
 C     22.21031571      6.02151682    -70.05870036
 C     22.33032545      7.46612336    -69.53878727
 C     22.29214123      8.53559190    -70.64620725
 C     22.29711901      9.98281932    -70.11979675
 C     22.68004140     11.03324402    -71.17884273
 C     22.44923586     12.48819726    -70.73002219
 C     23.40610505     13.50391785    -71.38141534
 C     23.49630536     14.84763661    -70.63449915
 C     24.45786246     15.86112923    -71.28245027
 C     24.41605787     17.26143396    -70.64291994
 C     25.41112242     18.26180039    -71.25993985
 C     25.26849836     19.69848148    -70.72402399
 C     25.99958708     20.75786064    -71.56949728
 C     25.90042290     22.18727595    -71.00510528
 C     26.79210598     23.21100485    -71.73207187
 C     26.62395634     24.65683525    -71.22918006
 C     27.52601090     25.67837035    -71.94637153
 C     27.40975671     27.11187064    -71.39577015
 C     27.85693281     28.20193771    -72.38742902
 C     27.74835450     29.63492432    -71.83393095
 C     28.10800964     30.72986536    -72.85537713
 C     27.68710345     32.14812937    -72.42763283
 C     27.76678646     33.19242652    -73.55665634
 C     27.38489108     34.61862853    -73.11881647
 C     27.66003115     35.69580490    -74.18445667
 C     27.47407863     37.13863413    -73.67921865
 C     28.09755111     38.20825412    -74.59507625
 C     27.92430600     39.65004220    -74.08240359
 C     27.99666572     40.72058104    -75.18708031
 C     28.05132199     42.16530816    -74.65663119
 C     26.86821461     42.54348045    -73.74622323
 C     26.76498741     44.05057116    -73.44685436
 C     26.22003614     44.37451434    -72.04339829
 C     26.84102523     45.63083558    -71.40493961
 C     25.97462459     46.26621268    -70.30165095
 C     26.73923388     47.24378179    -69.38987725
 C     25.91370188     47.76568636    -68.19919991
 C     26.55152347     48.96407906    -67.47212457
 C     25.73678818     49.47213740    -66.26809669
 C     26.59841007     49.91919127    -65.07254219
 C     25.78627418     50.47739374    -63.88913808
 C     26.63037095     50.77849066    -62.63676382
 C     25.87870306     51.56953043    -61.55009392
 C     26.69689671     51.80314147    -60.26651103
 C     25.93388647     52.56564268    -59.16741718
 C     26.74429140     52.77938658    -57.87545844
 C     25.89530238     53.22322969    -56.66971347
 C     26.57698227     52.99892224    -55.30714285
 C     25.65556044     53.24423122    -54.09784334
 C     26.31254704     52.94181468    -52.73824309
 C     25.31070542     52.78841287    -51.57876853
 C     25.97100772     52.65561877    -50.19386182
 C     24.98057772     52.73639257    -49.01737382
 C     25.47597157     52.04602565    -47.73301467
 C     24.65088244     52.38976390    -46.47895250
 C     25.15131930     51.70591539    -45.19306208
 C     24.38407319     52.12055217    -43.92380649
 C     24.88546722     51.43781253    -42.63769972
 C     24.23195397     51.97168766    -41.34948476
 C     24.44614195     51.07107566    -40.11878515
 C     23.82678649     51.62470325    -38.82206031
 C     24.26547079     50.87681538    -37.54933888
 C     23.82321018     51.55600584    -36.23987110
 C     24.36497486     50.87716974    -34.96815077
 C     23.79903177     51.45751234    -33.65875745
 C     24.30468296     50.74786179    -32.38898859
 C     23.82593786     51.39582244    -31.07652902
 C     24.58697723     50.91552704    -29.82683489
 C     24.06701757     51.51604603    -28.50750973
 C     25.04789244     51.38042901    -27.32806388
 C     24.36326724     51.28282287    -25.95206919
 C     25.33038988     50.98633101    -24.79087740
 C     24.63197283     50.74951282    -23.43894147
 C     25.53751042     50.11083620    -22.36950524
 C     24.81286579     49.77991807    -21.05155859
 C     25.68319285     49.02298524    -20.03117460
 C     24.96299638     48.70462174    -18.70770880
 C     25.73514695     47.73731583    -17.79135582
 C     24.91561974     47.21945722    -16.59477836
 C     25.42563256     45.88651392    -16.01620332
 C     24.38031023     45.12628217    -15.17897641
 C     24.83013782     43.71960411    -14.74249961
 C     23.70182665     42.85841218    -14.14512002
 C     24.17928819     41.51244031    -13.56893412
 C     23.03945351     40.60506866    -13.06988144
 C     23.51614192     39.25464645    -12.50355288
 C     22.38167338     38.24219344    -12.25958566
 C     22.85563388     36.89999005    -11.67183443
 C     21.72339778     35.88133747    -11.44382492
 C     22.14230248     34.65499838    -10.61183256
 C     21.00687353     33.64229120    -10.37345207
 C     21.46768851     32.32764943     -9.71697163
 C     20.43100953     31.19151712     -9.79507473
 C     20.93251878     29.84652977     -9.23731360
 C     19.81709980     28.81125932     -9.00139918
 C     20.33335648     27.40057680     -8.66220330
 C     19.23350370     26.32330508     -8.62465984
 C     19.75525725     24.90561742     -8.32543594
 C     18.64487542     23.87460486     -8.05036270
 C     19.15733784     22.43228410     -7.88097235
 C     18.03919282     21.37870643     -7.77454961
 C     18.52729782     19.99121938     -7.31822384
 C     17.39427114     18.97587428     -7.07963456
 C     17.88620432     17.55868519     -6.73152992
 C     16.75553534     16.56672229     -6.40107982
 C     17.14653655     15.08824962     -6.58228863
 C     16.24776851     14.10362827     -5.81135621
 C     16.76727729     12.65391030     -5.80602340
 C     15.81377465     11.64931527     -5.13280610
 C     16.10453574     10.17820726     -5.48337597
 C     15.14768925      9.17396107     -4.81439587
 C     15.31476354      7.72501576     -5.30860602
 C     14.01141383      6.90481486     -5.29635739
 C     14.20583753      5.41475823     -5.63330052
 C     12.89482175      4.60859938     -5.68757323
 C     12.99492209      3.30392016     -6.49960282
 C     11.69322009      2.48145629     -6.52653032
 C     11.81547570      1.13953704     -7.27212155
 C     10.51596190      0.31342332     -7.29212121
 C     10.73143578     -1.18654034     -7.56649329
 C      9.45015927     -2.03379930     -7.45657175
 C      9.67355620     -3.54001684     -7.68679455
 C      8.38675563     -4.38272276     -7.61202130
 C      8.58661709     -5.86508572     -7.97843017
 C      9.55447727     -6.61600334     -7.04517276
 C      9.44085108     -8.14958767     -7.12768442
 C     10.29979924     -8.89797480     -6.09147750
 C     10.74832114    -10.29974276     -6.54477069
 C     11.36066099    -11.15555006     -5.42038919
 C     11.46692180    -12.65372291     -5.76066371
 C     11.84951460    -13.54254715     -4.56265944
 C     13.30756258    -13.37260062     -4.09702624
 C     13.70650138    -14.30173515     -2.93549413
 C     15.15178480    -14.10286020     -2.44233637
 C     15.59004679    -15.11126856     -1.36407897
 C     17.09134554    -15.05372232     -1.02586237
 C     17.54790571    -16.12499792     -0.01813155
 C     19.05985451    -16.10638722      0.27386926
 C     19.49588272    -17.08301018      1.38187964
 C     21.02202435    -17.18826676      1.55911609
 C     21.45807406    -18.16550285      2.66657727
 C     22.96415959    -18.11998953      2.98475162
 C     23.42162397    -19.18104169      4.00283543
 C     24.90731361    -19.56738401      3.88009227
 C     25.33643970    -20.71166749      4.81714410
 C     26.85190236    -20.98547736      4.81818560
 C     27.24675785    -22.32049940      5.47652085
 C     28.74818794    -22.64815737      5.37678155
 C     29.23443644    -23.67918157      6.41222903
 C     30.72355172    -24.04790024      6.27738750
 C     31.10264146    -25.37958113      6.95156624
 C     32.62034406    -25.61802545      7.05797631
 C     33.00038535    -26.91524529      7.79580373
 C     32.09413427    -27.24079314      8.99760553
 C     32.36596786    -28.61730998      9.63235578
 C     31.46237267    -28.94120659     10.83660108
 C     32.02557064    -30.03156272     11.76694056
 C     31.00848814    -30.56716469     12.79176918
 C     31.56326286    -31.67756191     13.70327509
 C     30.50790780    -32.31747249     14.62432892
 C     30.97435573    -33.61962077     15.30140807
 C     30.17681033    -33.98849730     16.56610229
 C     30.83320167    -35.08750741     17.42221396
 C     30.13145284    -35.33388733     18.77071146
 C     30.61994777    -36.59334066     19.51013690
 C     30.03476925    -36.75531751     20.92538586
 C     30.79587963    -37.76343690     21.80629805
 C     30.32080702    -37.79929122     23.27075034
 C     31.34250091    -38.41323557     24.24584721
 C     30.78869242    -38.65677617     25.66203369
 C     31.85471732    -39.08986950     26.68556731
 C     31.35750157    -39.09645308     28.14307653
 C     32.15742009    -38.17436652     29.08195178
 C     32.34405893    -36.74320683     28.54478526
 C     33.07600097    -35.79966643     29.51720099
 C     32.80138236    -34.30532903     29.26592352
 C     33.39814517    -33.37048583     30.33435336
 C     33.21560281    -31.87228961     30.02827108
 C     33.99456919    -30.94014983     30.97480519
 C     34.17017338    -29.50732502     30.43835739
 C     34.96940032    -28.58164203     31.37427795
 C     35.30285908    -27.20848076     30.76204156
 C     36.09346301    -26.27908295     31.70159738
 C     36.60891356    -24.99541992     31.02475178
 C     37.11861415    -23.92843139     32.01133212
 C     37.79691275    -22.72274994     31.33469097
 C     38.47720653    -21.75309390     32.31884926
 C     38.86956939    -20.40073059     31.69533915
 C     39.43346043    -19.38498173     32.70622053
 C     39.47746949    -17.93773322     32.18168746
 C     39.90128174    -16.90101751     33.23866604
 C     39.67830296    -15.43958599     32.80727484
 C     39.97099388    -14.40847247     33.91304920
 C     39.46837191    -12.98818787     33.59404637
 C     40.31675854    -11.86747143     34.22320040
 C     39.80189138    -10.44774792     33.92170914
 C     40.81841782     -9.33356612     34.23295330
 C     40.17698770     -7.96472740     34.52697361
 C     41.14807069     -6.93552459     35.13470662
 H     -0.36333333      0.00000000      1.02766186
 H     -0.36333333     -0.88998127     -0.51383093
 H     -0.36333333      0.88998127     -0.51383093
 H      1.88274777     -0.19402125     -1.01635610
 H      1.88274777     -0.10258298     -1.02961192
 H      1.82362666     -1.22767584     -1.74003767
 H      1.82362666     -2.12012502     -0.19997237
 H      4.08406526     -1.14905940      0.26062937
 H      4.01056643     -0.28583573     -1.29426918
 H      4.80680701     -2.00283597     -2.41420099
 H      4.02309487     -3.29616853     -1.00739526
 H      6.38519176     -1.84498285     -1.18558855
 H      5.78384018     -1.10614431     -2.44806821
 H      6.15306886     -0.57036329     -3.47277900
 H      5.33454414     -2.34877611     -4.12620210
 H      7.87517004     -1.19907830     -3.08978763
 H      7.39497965     -0.18286461     -3.23190806
 H      8.14885405     -2.87238501     -4.34478068
 H      8.39988435     -2.28765225     -2.68245157
 H      9.85367910     -0.53972010     -3.25909392
 H     10.27910682     -1.98905265     -4.66280446
 H     10.81357855     -3.16970099     -4.34365526
 H     10.85392319     -2.62072578     -2.65094584
 H     12.14190827     -0.55699232     -3.91588641
 H     12.51293945     -1.16701954     -4.55944060
 H     11.86460310     -0.47675745     -1.78997198
 H     11.52070380      0.40596412     -3.29689022
 H     14.13100292      0.50116002     -3.41513367
 H     14.16005408     -0.40694356     -1.88452249
 H     12.81061598      1.97062217     -1.35039024
 H     14.22632525      2.35469911     -2.80074315
 H     15.53418058      2.32596804     -2.84657139
 H     15.49232449      1.89488500     -1.12010617
 H     14.36568065      4.20195745     -0.85323350
 H     14.50970707      4.41379658     -2.61466679
 H     17.00511300      4.33881304     -2.29941254
 H     16.75375072      4.12745511     -0.55000936
 H     15.75025385      5.99466453      0.03912918
 H     15.79025293      6.64468209     -1.61741660
 H     18.39412381      6.33413373     -1.29561493
 H     17.61882111      6.96329508      0.51341731
 H     17.00978382      7.95065062      1.00160563
 H     16.76761443      8.50523488     -0.30070842
 H     16.39385727      8.89817146     -1.38954565
 H     18.14230613      9.08254759     -1.66739221
 H     19.14197244     10.24578033     -0.58479251
 H     17.74003019     10.77508154      0.37576192
 H     16.67022803     11.73809715     -1.58065156
 H     18.04358331     11.23695760     -2.59604365
 H     19.31102794     12.91046671     -1.01106493
 H     17.75436133     13.18593633     -0.19303544
 H     17.18044005     14.11211315     -2.61697605
 H     18.84646085     13.67936830     -3.07015731
 H     19.23328029     15.88021344     -2.55046228
 H     17.91733866     15.73344363     -0.99660605
 H     17.21439260     16.53782246     -2.98179837
 H     18.82002081     16.32753851     -3.72072014
 H     19.26541310     18.15120069     -1.75863033
 H     17.53108978     17.98551093     -1.39402617
 H     17.49992076     18.99806060     -3.89341841
 H     19.27705353     18.96588823     -3.79838815
 H     19.23256423     20.70123447     -2.10972112
 H     17.47339705     20.52877361     -1.90030591
 H     17.74032445     21.55224281     -4.41286971
 H     19.49131495     21.49968071     -4.09737623
 H     18.82043010     23.18054294     -2.18736855
 H     17.16716998     23.10665220     -2.84275991
 H     17.69020672     23.97451562     -4.95027488
 H     19.40592366     24.14459602     -4.50794612
 H     18.39117949     25.82111928     -2.76118931
 H     16.78993586     25.42532462     -3.43024243
 H     17.05140590     26.19103837     -5.54475534
 H     18.71905624     26.72419144     -5.22388649
 H     18.57259568     28.24084473     -3.71636286
 H     16.79801702     28.13135999     -3.63180325
 H     16.84844450     28.77098784     -6.12876776
 H     18.57977999     29.11475083     -5.89948394
 H     18.21214451     30.78248695     -4.24502096
 H     16.45020961     30.55817718     -4.36137051
 H     17.00763911     31.42857651     -6.82258776
 H     18.70707460     31.50269838     -6.29847746
 H     18.25590501     33.17540671     -4.63471570
 H     16.53207957     33.18723278     -5.07805828
 H     17.24772106     34.00954012     -7.34764464
 H     18.94205425     33.95897095     -6.80455673
 H     19.86185465     34.54114501     -5.69381528
 H     18.59140321     35.67061877     -5.16607592
 H     18.52022022     36.71508211     -7.36364226
 H     19.79035130     35.61084685     -7.94303694
 H     21.51814038     36.11422634     -6.69320291
 H     20.62816861     37.37784752     -5.81032215
 H     20.56999114     38.40917200     -8.25101558
 H     21.47290037     36.96927736     -8.77990594
 H     23.38303820     37.46731475     -7.44770386
 H     22.88250818     38.23209163     -6.61340735
 H     22.36911703     38.96695444     -5.67730174
 H     21.97011240     40.15637406     -6.93997468
 H     24.52140847     40.34470987     -7.21288262
 H     24.82682667     39.22577710     -6.63005127
 H     25.12573294     38.07205005     -6.23588489
 H     25.66618141     39.49090859     -4.91872379
 H     26.63666445     40.19288577     -4.96843782
 H     26.76260780     39.58985420     -6.63839527
 H     27.26856214     37.32887164     -5.77668050
 H     27.20607340     37.96304120     -4.11469651
 H     28.82080058     39.55562662     -4.20798721
 H     29.35110749     38.95038557     -5.79566619
 H     29.83940200     36.76144309     -4.97003625
 H     29.34083555     37.23696396     -3.32882387
 H     30.58552392     37.47983927     -2.26836308
 H     31.36776473     38.87305604     -3.58062683
 H     32.23686858     36.56842469     -3.35365511
 H     30.99384352     36.22530648     -2.12669739
 H     31.96819179     37.92555470     -0.64466388
 H     33.21630918     38.27701954     -1.86406624
 H     34.28444036     36.30406977     -1.95674221
 H     33.22077485     35.58209744     -0.72562959
 H     34.15992735     37.32476020      0.86274893
 H     35.16648590     37.94529033     -0.46768292
 H     36.25657826     35.61273640     -0.38210134
 H     35.14268630     35.19931489      0.94326428
 H     36.47252381     37.13756518      2.12698120
 H     37.41277832     37.29799975      0.62416755
 H     38.14968148     34.90047927      0.94236101
 H     37.37256383     34.59471403      1.85756337
 H     36.42835257     34.34730548      2.79361242
 H     37.32571341     35.46656848      3.84730143
 H     39.30616687     33.92791677      3.56547171
 H     38.31173829     32.88380228      2.52182263
 H     36.78834781     32.38090043      4.34183920
 H     37.73821195     33.40891543      5.44148003
 H     39.55510304     32.89661718      5.78751075
 H     39.48018257     31.43985997      4.76745584
 H     37.69737354     30.64688530      6.42883333
 H     37.91193857     32.17446093      7.31694435
 H     39.26118408     31.20337111      8.66411528
 H     40.16450364     30.24700773      7.09637175
 H     38.67698406     29.13014788      8.37049663
 H     38.26668207     30.57413730      9.32695547
 H     40.32221881     30.87736218     10.33118826
 H     41.00209515     29.45586853      9.50330503
 H     39.43777877     27.97197610     10.63285464
 H     38.72157375     29.35859480     11.48877848
 H     40.71411785     29.90053950     12.66103581
 H     41.57697524     28.54705928     11.89172763
 H     40.53210739     26.77236312     12.57656525
 H     39.38158075     27.71005868     13.55905299
 H     41.75306544     28.26127900     14.73396440
 H     42.47068016     27.20451524     13.49438943
 H     41.18636055     25.29987109     14.43453349
 H     40.48772365     26.38626922     15.65924254
 H     42.31434666     27.00771008     16.78876551
 H     43.38165132     26.01329721     15.76882900
 H     42.03274933     24.04105299     16.72590787
 H     41.07735461     25.21607683     17.66121881
 H     43.54275079     25.54660205     18.69174536
 H     44.06356892     24.29415005     17.53919205
 H     42.75228582     22.60899107     18.63922618
 H     42.01287186     23.81749020     19.71675274
 H     44.35360855     23.86845147     20.74839246
 H     44.98636080     22.97187663     19.34694863
 H     43.55984296     21.03654087     20.27216671
 H     43.04951036     22.11479184     21.59322771
 H     43.93629312     22.87680035     22.80518201
 H     45.48166013     22.15803114     22.29188064
 H     44.43896326     19.91546644     22.83955081
 H     42.94841750     20.76157208     23.31980622
 H     44.32090761     21.84502206     25.14336109
 H     45.74427052     20.94465718     24.56747238
 H     44.33634409     18.87893950     25.26024769
 H     43.04960922     20.00216365     25.76119435
 H     45.00149167     20.63670914     27.47197988
 H     46.01396593     19.45573055     26.60684863
 H     44.46998596     17.65763238     27.35553114
 H     43.48464933     18.87146666     28.20640407
 H     45.01776193     19.59329427     29.72551889
 H     46.25623197     18.47211546     29.11117638
 H     44.58762067     16.65830428     29.90355694
 H     44.11131773     18.27842886     31.09293187
 H     44.80331279     18.92501244     32.02555256
 H     46.11640566     17.75214157     31.76396569
 H     44.21400778     16.11072383     32.60167937
 H     43.16484781     17.54256786     32.73340896
 H     44.81553402     18.34887570     34.49947679
 H     45.75649527     16.85981178     34.24345489
 H     44.05580967     15.39844530     34.96851590
 H     42.96267506     16.76485239     35.29448379
 H     44.16944601     17.80515136     36.92952580
 H     45.45507412     16.57637096     36.85519029
 H     43.17368965     15.05509856     37.24124060
 H     42.77671828     15.69438533     37.68405013
 H     45.13508069     14.09001047     37.18190935
 H     43.54568812     14.10374503     36.38071695
 H     42.14901120     13.51450936     37.93900780
 H     43.43406727     13.33599816     39.15762641
 H     44.32039958     11.46053179     37.72937188
 H     43.06916957     11.80873591     36.51222603
 H     41.31080872     11.22474115     38.14920588
 H     42.57746394     10.76230794     39.31110379
 H     43.66309229      9.15937154     38.42409980
 H     42.65734023      9.14971451     36.95555079
 H     40.73573255      8.52940909     38.50967350
 H     41.87466603      8.58541286     39.87640710
 H     43.23497311      7.73476411     40.25200209
 H     43.11343950      6.69078257     38.81547893
 H     41.26444887      5.61800736     39.03172961
 H     40.88107067      6.38832819     40.58989958
 H     42.08148124      4.24702610     41.04965250
 H     43.03478603      4.51541975     39.26308528
 H     41.06637311      3.37042542     39.37239433
 H     40.94229392      3.61744253     41.13076107
 H     43.14960890      2.18180978     41.07746245
 H     42.97694794      2.13560700     39.30649657
 H     40.84519836      0.88686161     39.60248434
 H     42.13284118      0.18860538     41.01299507
 H     43.18345410     -0.49093213     40.69740850
 H     42.63882960     -0.33064080     39.01041191
 H     40.58451469     -1.66400867     39.89366376
 H     41.36172980     -1.66939483     41.49496770
 H     43.21842448     -2.99057720     40.15916010
 H     42.09038920     -2.95384829     38.78276842
 H     40.40989248     -4.00994096     39.20334378
 H     40.82362925     -4.28188329     40.91306186
 H     42.72710908     -5.70091639     40.17077724
 H     42.27638013     -5.39994773     38.47533395
 H     40.35095000     -6.21377585     38.17473887
 H     40.21856027     -6.80381980     39.84883199
 H     41.91567734     -8.28498135     39.89660942
 H     42.34808145     -7.95888736     38.20103988
 H     39.90523352     -8.94692456     37.87384115
 H     39.84093655     -9.11642713     39.64454763
 H     41.66362293    -10.70333420     39.65783027
 H     41.79570223    -10.59563485     37.88604513
 H     39.65830235    -11.45253348     37.43486810
 H     39.32068205    -11.64907264     39.17143125
 H     41.13347704    -13.27081221     39.38717734
 H     41.50188477    -13.10307828     37.65385459
 H     39.33655684    -13.96935712     37.01279643
 H     38.88995824    -14.17070308     38.72401709
 H     39.81195110    -16.16381011     38.84149854
 H     41.15476804    -15.64019608     37.36113864
 H     38.71799968    -16.61074935     37.02256595
 H     38.57353669    -16.62195672     38.79662105
 H     40.58109366    -18.37817178     38.35002403
 H     40.34514693    -18.01576535     36.62339223
 H     38.12911411    -18.87840181     36.56408730
 H     38.21292754    -19.30547827     38.29002115
 H     39.86902640    -20.82276378     38.26900583
 H     40.08404754    -20.67821327     36.50800108
 H     38.11209150    -21.38237878     35.74999177
 H     37.49531888    -21.68455141     37.39210928
 H     39.00614227    -23.32464685     37.99253879
 H     39.81848340    -23.23695140     36.41118554
 H     38.53331267    -23.77018546     34.90604376
 H     37.17727922    -24.09138940     36.01341361
 H     37.36421917    -25.46653620     37.30810435
 H     39.00139064    -25.92573134     36.78172420
 H     38.33421015    -26.59520923     34.61253310
 H     36.63728033    -26.19256702     34.96830704
 H     36.33148466    -27.74286580     36.67247183
 H     38.00259530    -28.33322539     36.50775554
 H     37.36366213    -29.06149167     34.17439965
 H     35.72358480    -28.43038369     34.45744689
 H     35.92061894    -30.40702389     36.28956129
 H     37.56338292    -30.66290533     35.65385864
 H     36.35293720    -31.27128811     33.46829221
 H     34.80860938    -30.95643562     34.29544766
 H     35.45911908    -33.03859003     35.63953393
 H     37.09429163    -32.96711242     34.93998525
 H     35.32399803    -33.58813595     32.87852691
 H     34.08641291    -33.48232954     34.15346014
 H     34.54416448    -35.03004302     35.55741501
 H     35.95291787    -35.59874020     34.62991079
 H     35.24552565    -36.28178514     32.75874586
 H     33.54622060    -35.91963395     33.14536651
 H     33.36445847    -37.41338279     34.93282122
 H     35.05253014    -37.93966173     34.72858804
 H     33.92589716    -38.29466093     32.20169546
 H     32.84658977    -38.30112955     32.67932388
 H     35.69049060    -39.31488071     32.62883840
 H     34.98997809    -38.06191867     31.57639599
 H     33.72753805    -40.58292275     31.17018310
 H     34.86720329    -41.10156827     32.43526675
 H     36.77212943    -40.59313082     30.99805337
 H     35.66838031    -40.06577817     29.70503220
 H     34.56767798    -41.94973216     29.25350009
 H     34.79363259    -42.63567799     30.31378015
 H     34.68983601    -43.18726506     31.37937100
 H     36.44123779    -43.40756482     31.15062113
 H     35.98385113    -44.73567085     29.11395159
 H     34.23644909    -44.50314051     29.36049244
 H     34.71216758    -45.85133067     31.54217894
 H     36.41906828    -45.92248068     31.04248470
 H     34.72937181    -47.29041880     29.19721340
 H     33.45599187    -46.75403928     30.31929503
 H     34.41740923    -48.09821304     32.11939631
 H     35.70567909    -48.65671382     31.02545649
 H     33.83394660    -49.72897337     29.67363191
 H     32.66648594    -49.09452884     30.85802307
 H     33.45397534    -50.29307903     32.69067569
 H     34.71447146    -51.07296032     31.70518019
 H     32.67219145    -52.10637146     30.49074414
 H     31.61555069    -51.12708452     31.53610248
 H     32.13441884    -52.05362136     33.55142185
 H     33.27872773    -53.19657759     32.80813530
 H     31.85466126    -54.37950097     31.50328652
 H     30.45239540    -53.42614801     32.04461383
 H     30.76907526    -54.22271495     34.34256484
 H     32.17380052    -55.18330873     33.82076681
 H     30.92201619    -56.58103628     32.37149208
 H     29.41687169    -55.72693386     32.78780417
 H     29.15197178    -56.09086286     34.91151093
 H     30.62854604    -57.07826528     35.02566694
 H     29.42340940    -58.66212943     33.41358457
 H     28.03849445    -57.54400745     33.42255417
 H     27.70894558    -57.95138195     35.82336495
 H     29.09214842    -59.07165478     35.82568034
 H     27.08610375    -60.10629872     34.15309738
 H     26.21247512    -58.62587416     34.61503111
 H     25.92211160    -59.26739238     36.84183862
 H     27.07815940    -60.61316359     36.69789425
 H     25.31099798    -61.65615141     35.15819269
 H     24.29789633    -60.21724742     35.42548844
 H     24.19176828    -60.85301851     37.84486362
 H     25.21055036    -62.27086149     37.49835095
 H     23.56285935    -63.20917775     35.98084587
 H     22.43785259    -61.89634847     36.40405475
 H     22.42351716    -62.62071681     38.74321724
 H     23.54790489    -63.94251486     38.34715056
 H     22.28481670    -65.17598554     36.97976305
 H     20.89927828    -64.00117750     37.08187779
 H     22.57785334    -65.97961833     38.85234574
 H     23.21077618    -65.97326462     37.18872470
 H     20.86046863    -66.92386084     36.62536234
 H     20.47409444    -66.82202530     38.35989719
 H     22.44481292    -68.59288135     38.44059654
 H     22.54499123    -68.42234259     36.67165689
 H     20.13892261    -69.39552523     36.75527326
 H     20.29404923    -69.45683027     38.52740307
 H     22.18445763    -71.13556679     38.04992419
 H     21.86529042    -70.92195411     36.31188835
 H     19.55286110    -71.95840803     37.01329549
 H     20.18141196    -72.02855089     38.67710751
 H     21.92590023    -73.60567757     37.96634457
 H     21.30617532    -73.54392451     36.29889314
 H     19.17505769    -74.50991498     37.02393653
 H     19.77156139    -74.58292114     38.69938276
 H     21.46344645    -76.25199703     37.45728072
 H     20.56447184    -75.87577975     35.96779360
 H     18.52109593    -76.78913453     36.71682610
 H     19.25063027    -77.24910416     38.27389843
 H     20.74990000    -78.77548782     36.87014233
 H     20.86155822    -78.38785745     36.23337712
 H     21.39872037    -77.63259403     35.27419327
 H     19.80624290    -77.62573417     34.47906112
 H     19.95791929    -80.08878284     34.23540995
 H     21.54816549    -80.06266373     35.03459796
 H     22.60640463    -78.76697036     33.37482633
 H     21.10448463    -78.68312877     32.42326258
 H     21.80353608    -81.35220700     32.50416711
 H     23.18216271    -80.79430269     33.48212318
 H     24.31263817    -79.50930738     32.14312009
 H     23.18778611    -79.76838559     30.78818356
 H     23.08585949    -81.82832009     30.36128491
 H     24.51580451    -82.15212649     31.37057838
 H     25.83339014    -80.51821355     30.06847998
 H     24.46533631    -80.37068837     28.93935124
 H     23.70059884    -81.54475037     27.98248102
 H     24.79222700    -82.85234697     28.49901347
 H     26.75535903    -81.96854771     27.67265036
 H     25.91188747    -80.53637623     27.03569882
 H     24.57479431    -81.76390178     25.51073701
 H     25.32191187    -83.29375460     26.02999835
 H     27.49954862    -82.68603199     25.29129739
 H     26.90177000    -81.11145601     24.71541730
 H     25.51032606    -82.67066371     23.11912554
 H     26.29476815    -84.05321704     23.92003976
 H     28.43066616    -82.94217814     22.85870673
 H     27.35051471    -81.69055646     22.19917456
 H     26.06593091    -82.93726003     20.83109633
 H     26.93967983    -84.43099758     21.24772280
 H     28.87412379    -82.78370280     20.17871225
 H     27.48204309    -81.75823212     19.75587910
 H     26.32310829    -83.13372794     18.41986127
 H     27.52465295    -84.43636430     18.58628122
 H     29.20000193    -82.95468524     17.49570321
 H     27.96441933    -81.68146199     17.35250804
 H     26.81229787    -83.45242125     15.82088374
 H     28.18991305    -84.53017959     16.15085348
 H     29.02452716    -82.18795771     14.76636091
 H     27.29512092    -81.78074175     14.87404509
 H     26.85386835    -83.80474717     13.44407083
 H     28.60413277    -84.12562413     13.40072206
 H     28.55347482    -81.78876990     12.15838126
 H     26.78920969    -81.80526378     12.39367512
 H     26.97307772    -83.91294222     10.85082570
 H     28.73117074    -83.63751021     10.81193124
 H     28.37773824    -81.47767774      9.69145238
 H     26.61837205    -81.74543696      9.72612622
 H     27.52510620    -83.76275954      8.15355224
 H     29.14527713    -83.08638312      8.44651595
 H     28.55537792    -81.07021093      7.22488273
 H     26.86207152    -81.60146200      7.08794326
 H     27.96716884    -83.57610469      5.72881874
 H     29.45362169    -82.59861687      5.78575860
 H     28.57721284    -80.74051156      4.66716353
 H     26.99391019    -81.53407227      4.48917253
 H     28.03453702    -83.28274082      3.09579495
 H     29.61526967    -82.48488524      3.27739192
 H     28.54579164    -80.52647676      2.04296965
 H     27.03429072    -81.46196957      1.95085651
 H     29.26669674    -82.69782170      0.57675189
 H     30.05827684    -81.19196084      1.10025039
 H     27.92006790    -80.11478818     -0.13367197
 H     27.76884557    -81.04230528     -0.77009410
 H     29.60122419    -78.86413521      0.16245666
 H     27.96875892    -79.16853507      0.80328778
 H     28.12931464    -78.56337350     -2.04545721
 H     29.86097942    -78.48816900     -1.64055223
 H     28.50235471    -76.46320177     -0.24062592
 H     27.07018447    -77.13560018     -1.05612299
 H     27.49159018    -76.74405962     -3.17953101
 H     29.08762512    -76.03433582     -2.83714048
 H     27.57731367    -74.25211747     -1.61825511
 H     26.17253931    -75.22020420     -2.12588072
 H     25.99512320    -75.30767794     -4.13822134
 H     27.41928172    -74.28160772     -4.43355007
 H     25.80219093    -72.58456410     -3.13295494
 H     24.63973212    -73.93003387     -3.05130164
 H     24.72878814    -73.63693838     -5.66468996
 H     25.89761087    -72.32198806     -5.39445720
 H     24.00814399    -71.15591395     -4.12764126
 H     22.94354345    -72.50109436     -4.60238539
 H     23.18260050    -72.05563642     -6.94264510
 H     24.25990556    -70.68089084     -6.59949053
 H     22.31538039    -69.59549576     -5.43279249
 H     21.31762194    -71.01717509     -5.82211581
 H     21.59492943    -70.50916105     -8.23226581
 H     22.66454104    -69.60972196     -8.09100761
 H     23.66477788    -68.82701824     -7.91981582
 H     22.52365414    -67.76371392     -7.06221031
 H     21.08733931    -67.33432512     -8.79438679
 H     22.03654457    -68.33974230     -9.91528479
 H     23.97944921    -66.98533989     -9.78513887
 H     23.17224301    -65.87250577     -8.65452619
 H     21.50432620    -65.16029075    -10.11307490
 H     22.13171071    -66.19474712    -11.41866111
 H     24.12955945    -64.37609322    -10.89019938
 H     23.02010220    -63.75349675     -9.64531186
 H     21.64275584    -63.17300330    -11.82230779
 H     22.89005410    -64.03316893    -12.75645382
 H     24.61831794    -62.49817560    -12.21204639
 H     23.49260550    -61.52128175    -11.23905278
 H     22.04170928    -60.86467161    -12.83712050
 H     22.93447094    -61.73229114    -14.10931532
 H     24.81188142    -60.04843787    -13.49320937
 H     23.72952434    -59.38777994    -12.24408932
 H     22.31839975    -58.93852681    -14.52021305
 H     23.80222107    -59.47479700    -15.34420046
 H     25.37326767    -58.23887039    -14.87167981
 H     24.38702070    -57.18343780    -13.83165787
 H     23.01717998    -56.55562635    -15.78641371
 H     24.00883729    -57.61379469    -16.81848067
 H     25.94563154    -56.07997122    -16.24721070
 H     24.83949991    -55.11147653    -15.24383763
 H     23.36592431    -54.25118746    -16.17411552
 H     23.84904026    -54.85703258    -17.77655657
 H     25.55881715    -54.30060825    -18.45428073
 H     25.94054162    -53.28900677    -17.04034454
 H     24.02891507    -51.83617240    -17.79882511
 H     23.55864106    -53.06708276    -18.99547406
 H     25.51360614    -52.81187713    -20.31171433
 H     26.13279503    -51.55447814    -19.21452721
 H     23.78118352    -50.57161139    -20.31634576
 H     23.74261750    -52.12769818    -21.17969577
 H     25.87056547    -51.44748200    -22.31164081
 H     25.83922376    -49.91395289    -21.40855010
 H     23.59574535    -49.82377320    -22.96229035
 H     24.10749102    -51.42594850    -23.54488570
 H     26.15476510    -50.27229527    -24.47590426
 H     25.53726087    -48.72817455    -23.84136000
 H     23.84322342    -48.11670463    -24.58897598
 H     23.67930852    -49.50176573    -25.69487124
 H     25.56212187    -49.10239762    -26.97108910
 H     25.96626181    -47.64971406    -26.02523073
 H     23.86305504    -46.59449893    -26.77930440
 H     23.47204735    -48.05404045    -27.72011161
 H     25.62201475    -47.41064847    -29.02523378
 H     25.78940083    -46.01373661    -27.93487337
 H     23.94284306    -44.85352010    -28.40949119
 H     23.41054479    -46.04094719    -29.62396314
 H     25.26182457    -45.71374511    -31.05655638
 H     25.94605470    -44.49164846    -29.95811404
 H     24.05083096    -43.01805412    -30.27238284
 H     23.30209777    -44.18949346    -31.38386616
 H     25.23902303    -43.87038374    -32.92021129
 H     25.94227288    -42.70727367    -31.77091528
 H     23.95665276    -41.24308020    -32.15096392
 H     23.30543513    -42.44649849    -33.28936925
 H     24.99416211    -42.33012158    -34.86061079
 H     25.86474966    -41.09597604    -33.91868258
 H     23.70394107    -39.70935166    -34.40758040
 H     23.08420588    -41.12403605    -35.29237588
 H     25.45016248    -40.23959407    -36.55012670
 H     25.31338120    -38.91966108    -35.36381541
 H     23.17094651    -38.24608470    -36.38542989
 H     23.29491404    -39.59320355    -37.54222268
 H     25.12051356    -39.05959498    -38.68631091
 H     25.37120173    -37.56456988    -37.75340038
 H     23.12721344    -36.83211950    -38.74056188
 H     23.04584239    -38.39023850    -39.59724771
 H     25.03363315    -37.86413654    -40.89153776
 H     25.16843062    -36.29033890    -40.07101519
 H     23.23021846    -35.33321564    -40.76329151
 H     22.77987935    -36.76748568    -41.71635542
 H     25.15634446    -35.62220555    -42.74036962
 H     24.91929623    -34.46402271    -41.40969787
 H     22.74815339    -34.34210305    -43.24688119
 H     23.72441838    -35.55144644    -44.11444208
 H     25.56675508    -34.46202789    -44.60103033
 H     24.99012802    -32.96168924    -43.83633964
 H     23.18203926    -32.58391721    -45.22259045
 H     23.53480885    -34.04420857    -46.17724714
 H     25.69398856    -32.80253026    -46.79779141
 H     25.20304198    -31.48158536    -45.71043558
 H     23.25295279    -31.05232971    -47.18844919
 H     23.77679859    -32.38148563    -48.25014443
 H     25.83961692    -31.23869157    -48.80648979
 H     25.38233475    -29.87037772    -47.76395590
 H     23.43297218    -29.67449123    -49.50075806
 H     24.13307393    -31.08403236    -50.33221340
 H     26.08301001    -30.44351553    -50.99377919
 H     25.88217287    -28.80544345    -50.32695765
 H     23.94075033    -28.75030461    -52.09903030
 H     24.39764752    -30.41552189    -52.53095974
 H     26.49403279    -29.58540063    -53.44879144
 H     26.24297016    -27.98585421    -52.70940962
 H     24.29355391    -27.88090111    -54.44584921
 H     24.77662533    -29.50933511    -54.97793132
 H     27.03982251    -28.65627083    -55.55919017
 H     26.38985601    -27.01072060    -55.36431931
 H     24.72071061    -27.16430486    -56.96585348
 H     25.17777116    -28.83850254    -57.36135878
 H     27.37664400    -28.10460611    -58.12984207
 H     26.95669975    -26.41748900    -57.74833281
 H     25.15053983    -26.61456761    -59.50003626
 H     25.65751670    -28.29522412    -59.79437416
 H     27.86818408    -27.09253281    -60.53981852
 H     27.62160999    -25.96242988    -59.93521309
 H     27.44983382    -24.91819917    -59.23370134
 H     26.05219325    -24.61070251    -60.29214988
 H     28.23949056    -24.56984435    -61.95481593
 H     29.17496285    -24.91024782    -60.47925376
 H     28.29037686    -22.59490131    -59.73432659
 H     27.43355269    -22.48760267    -61.29079889
 H     29.50694987    -22.51175640    -62.53863045
 H     30.43748655    -22.61789777    -61.02499173
 H     29.83943822    -20.62739104    -60.08988235
 H     28.72443561    -20.27919329    -61.08533017
 H     27.82292562    -20.05023782    -61.92914334
 H     29.16398779    -19.96500222    -63.09642814
 H     29.68267245    -17.93755619    -61.35003013
 H     28.20144724    -18.46425904    -60.51527109
 H     26.81616129    -17.93018131    -62.42052015
 H     28.24418817    -17.38004738    -63.32956281
 H     29.30624053    -16.04649527    -62.91071157
 H     28.38140926    -15.59514295    -61.45839106
 H     26.59590108    -15.18922207    -63.44569481
 H     27.88254843    -15.73980763    -64.54554061
 H     29.29982043    -13.86071283    -63.95152066
 H     28.05319725    -13.25418114    -62.83513514
 H     26.59337245    -12.97634488    -64.89577767
 H     27.93248165    -13.60496232    -65.88567328
 H     29.09080732    -11.42026251    -64.98401298
 H     27.58285399    -11.08552072    -64.09954061
 H     26.40955492    -10.90063593    -66.28761160
 H     27.94282398    -11.24067500    -67.12530252
 H     28.88995609     -9.15560412    -66.19147695
 H     27.34907873     -8.83276666    -65.36097131
 H     25.78397944     -8.56575481    -66.33583593
 H     26.58028369     -8.73290847    -67.91894233
 H     27.96230919     -6.76450826    -67.47279342
 H     27.18446748     -6.56963169    -65.88368925
 H     25.00572113     -6.22759875    -67.05444780
 H     25.86048045     -6.33125270    -68.61230178
 H     26.99783327     -4.17725642    -67.79991943
 H     26.20972487     -4.38583674    -66.21762803
 H     24.19605380     -3.90847063    -68.07036974
 H     25.53304624     -3.82919912    -69.24273226
 H     25.86429946     -1.73885644    -67.42030992
 H     24.38601007     -2.39728974    -66.67909960
 H     23.29305235     -1.75349606    -68.92328015
 H     24.88049911     -1.15615806    -69.46315677
 H     24.99217335      0.54414708    -67.79522282
 H     23.40670544      0.05815370    -67.14840863
 H     22.50593713      0.75198218    -69.44149330
 H     24.16729531      1.18159818    -69.91434185
 H     24.28071779      2.91349987    -68.21462447
 H     22.62122494      2.53267386    -67.69566236
 H     21.63627640      3.13663075    -69.77000793
 H     23.22782490      3.56683251    -70.44095239
 H     23.38896869      5.35738189    -68.70684347
 H     21.79293405      4.87570660    -68.08320172
 H     21.28543851      5.79932507    -70.59099067
 H     23.04949631      5.97321686    -70.75263338
 H     23.32494245      7.59527225    -69.11198803
 H     21.57974686      7.61444720    -68.76242922
 H     21.39762594      8.37425869    -71.24780014
 H     23.17699823      8.41382087    -71.27094713
 H     23.20292435     10.13052853    -69.53175026
 H     21.42369823     10.11854354    -69.48197619
 H     21.96509071     10.96935121    -71.99912513
 H     23.67856487     10.79941477    -71.54813227
 H     23.04561359     12.66976704    -69.83589355
 H     21.39237654     12.61014624    -70.49279482
 H     23.27508255     13.45379502    -72.46235049
 H     24.42824286     13.22448334    -71.12597326
 H     23.84236631     14.65296491    -69.61939091
 H     22.49998060     15.28840616    -70.60045242
 H     24.19046951     15.96321390    -72.33420106
 H     25.47243467     15.47096917    -71.20171393
 H     24.92316792     17.21340439    -69.67926411
 H     23.37268772     17.53786709    -70.49105336
 H     25.18238222     18.36257694    -72.32089320
 H     26.41782811     17.86094912    -71.14177927
 H     25.42605760     19.67925789    -69.64564301
 H     24.25732854     20.04507306    -70.93735439
 H     25.64537242     20.68019534    -72.59740782
 H     27.06811710     20.54515107    -71.53635773
 H     26.33100088     22.19103925    -70.00376196
 H     24.84690411     22.46115170    -70.94862317
 H     26.49962456     23.23592699    -72.78180207
 H     27.82802257     22.88169519    -71.65125122
 H     26.86959719     24.68119854    -70.16749884
 H     25.58312036     24.94917575    -71.36809546
 H     27.29051973     25.65600175    -73.01039387
 H     28.56447895     25.38238913    -71.79778070
 H     27.68110416     27.09664618    -70.34019506
 H     26.37436966     27.43619360    -71.50011711
 H     27.23781584     28.12688225    -73.28138699
 H     28.89879293     28.01931436    -72.65063275
 H     28.37143891     29.70612817    -70.94241773
 H     26.70828617     29.82101386    -71.56610908
 H     27.43344938     30.63926214    -73.70676395
 H     29.13388661     30.56683216    -73.18567489
 H     28.18175454     32.38283769    -71.48511901
 H     26.60679525     32.15601108    -72.28281544
 H     27.11332811     32.87092542    -74.36766140
 H     28.79583815     33.23333936    -73.91369802
 H     28.06099664     34.92468469    -72.32049893
 H     26.36246210     34.59911654    -72.74151254
 H     27.20260629     35.37631568    -75.12082686
 H     28.73872946     35.77923460    -74.31693096
 H     28.15624749     37.30010577    -72.84454951
 H     26.44595087     37.25151276    -73.33525395
 H     27.63640181     38.12768241    -75.57942859
 H     29.16601401     38.00880600    -74.67697550
 H     28.39309742     39.72353850    -73.10111215
 H     26.85773538     39.85578455    -73.99186522
 H     27.20910058     40.51793007    -75.91287211
 H     28.96850878     40.64468280    -75.67478977
 H     28.93353558     42.26511645    -74.02430416
 H     27.90479176     42.13973909    -73.57682792
 H     26.86175834     41.86512429    -72.89305781
 H     25.94597375     42.42159787    -74.31430459
 H     26.65299362     44.58097399    -74.39249183
 H     27.68721796     44.36719863    -72.95968103
 H     26.88334133     43.92315153    -71.30556509
 H     25.22530429     43.93815863    -71.95283212
 H     26.63910467     46.48154803    -72.05579783
 H     27.91775374     45.47968871    -71.32806082
 H     26.03477623     45.63699707    -69.41363659
 H     24.94342299     46.30105276    -70.65309002
 H     27.14603939     48.04318356    -70.00920437
 H     27.55617919     46.70112752    -68.91424428
 H     25.59982041     46.91157453    -67.59914042
 H     25.03449637     48.27791197    -68.58999731
 H     26.67023705     49.77638703    -68.18917606
 H     27.53076775     48.65934180    -67.10291480
 H     25.63283258     48.65436173    -65.55497946
 H     24.75088673     49.77195349    -66.62335525
 H     27.05459863     50.87812334    -65.31839027
 H     27.37920478     49.17501823    -64.91548772
 H     25.10154439     49.70139281    -63.54698653
 H     25.21517935     51.33678973    -64.24040609
 H     27.39250725     51.51017195    -62.90488830
 H     27.11091013     49.85390243    -62.31689085
 H     25.00750366     50.98984756    -61.24500480
 H     25.55259628     52.51681865    -61.97951144
 H     27.59864406     52.35558052    -60.53063752
 H     26.97302037     50.83246224    -59.85464022
 H     25.04412379     51.99234119    -58.90713313
 H     25.63726794     53.53577177    -59.56612383
 H     27.64272535     53.34434363    -58.12393376
 H     27.02639478     51.80269556    -57.48227611
 H     25.01819060     52.57865611    -56.61226946
 H     25.57905472     54.25335389    -56.83382177
 H     27.51073958     53.56109134    -55.29436795
 H     26.79168965     51.93543813    -55.20225107
 H     24.80542522     52.56604460    -54.17155239
 H     25.30288444     54.27477221    -54.13913398
 H     27.01947757     53.74058958    -52.51394891
 H     26.84727475     51.99542245    -52.81891536
 H     24.49622872     52.14541269    -51.91235281
 H     24.91748256     53.77480690    -51.33279576
 H     26.57054238     53.54778408    -50.01303250
 H     26.61858377     51.77891547    -50.20554883
 H     24.17828407     52.02023247    -49.19496777
 H     24.56732461     53.74452317    -48.98583696
 H     26.40963456     52.51868405    -47.42810900
 H     25.65712592     50.99477844    -47.95698433
 H     23.61851095     52.08720278    -46.65435457
 H     24.69249224     53.46821670    -46.32628232
 H     26.18244097     52.01403877    -45.02000691
 H     25.11474308     50.62679112    -45.34223643
 H     23.33293352     51.86645690    -44.06033849
 H     24.48406718     53.19884369    -43.79975564
 H     25.96308715     51.58632420    -42.56856536
 H     24.66944195     50.37181330    -42.70896487
 H     23.15354147     51.83533260    -41.43031655
 H     24.45849194     53.03455875    -41.26530883
 H     25.51817262     50.97555250    -39.94637413
 H     24.02398221     50.08960648    -40.33465409
 H     22.75446927     51.74305868    -38.97771306
 H     24.27369399     52.59746739    -38.61686866
 H     25.35021329     50.94602788    -37.46783225
 H     23.97457815     49.83107261    -37.64885534
 H     22.73534484     51.62418878    -36.23956382
 H     24.25010036     52.55856330    -36.21260749
 H     25.45162432     50.83157434    -35.04035890
 H     23.96122107     49.86580664    -34.92095381
 H     22.71517714     51.34284732    -33.67328592
 H     24.05177050     52.51694226    -33.61596283
 H     25.39109861     50.83108860    -32.35941931
 H     24.02228718     49.69674991    -32.44828819
 H     22.73607153     51.38280783    -31.06548384
 H     24.17720921     52.42745612    -31.05554325
 H     25.64365675     51.14832461    -29.95849235
 H     24.46051108     49.83619615    -29.74227050
 H     23.01787595     51.24214688    -28.39623929
 H     24.15502243     52.60088292    -28.56653582
 H     25.97537743     51.88777080    -27.59353684
 H     25.24648732     50.32076254    -27.16754272
 H     23.70908733     50.41096582    -25.95580110
 H     23.76781831     52.18319958    -25.80086620
 H     26.07107397     51.78492889    -24.74930204
 H     25.82901631     50.03850869    -24.99361992
 H     24.77142790     49.70523935    -23.15939686
 H     24.05883883     51.64213028    -23.18823946
 H     26.38988897     50.76978387    -22.20416090
 H     25.88858301     49.15037313    -22.74680981
 H     24.00090359     49.08679006    -21.27153799
 H     24.40169824     50.70395806    -20.64512121
 H     26.55263595     49.63808544    -19.79918228
 H     26.01046098     48.08824513    -20.48642893
 H     24.12024175     48.04849030    -18.92532353
 H     24.59578441     49.63929701    -18.28387217
 H     26.70104357     48.18474240    -17.55693490
 H     25.88896201     46.80298615    -18.33123449
 H     24.03797197     46.70004674    -16.97954731
 H     24.59902772     48.07608913    -15.99975629
 H     26.45651494     46.02619512    -15.69082555
 H     25.39230738     45.13527264    -16.80526985
 H     23.51908575     44.91729536    -15.81357621
 H     24.07456288     45.76497587    -14.35030946
 H     25.73851787     43.81921394    -14.14834176
 H     25.04357246     43.13496401    -15.63734128
 H     22.91900720     42.75036649    -14.89586621
 H     23.30056467     43.37573748    -13.27364807
 H     24.90815422     41.71479459    -12.78413666
 H     24.65523741     40.94635443    -14.36963326
 H     22.37155928     40.40194756    -13.90699500
 H     22.49388636     41.13727258    -12.29064112
 H     24.08579300     39.44621586    -11.59421312
 H     24.16140408     38.78121901    -13.24355505
 H     21.87744424     38.05729207    -13.20809210
 H     21.67704744     38.68067392    -11.55294774
 H     23.34910638     37.09768466    -10.72025589
 H     23.56896968     36.45488292    -12.36547099
 H     21.38355540     35.52337610    -12.41566380
 H     20.90296622     36.38868687    -10.93629300
 H     22.49093533     35.00327945     -9.63959008
 H     22.95749443     34.15088961    -11.13090521
 H     20.64978651     33.29336473    -11.34238922
 H     20.19774014     34.15150622     -9.84990339
 H     21.92215791     32.56569220     -8.75525795
 H     22.21088489     31.86306439    -10.36498387
 H     20.21778041     30.99370938    -10.84555340
 H     19.52066523     31.52326096     -9.29575593
 H     21.20611317     29.98960840     -8.19195499
 H     21.81303083     29.54674667     -9.80558168
 H     19.31736406     28.62328772     -9.95167855
 H     19.10365027     29.23161229     -8.29260221
 H     20.93794008     27.46518713     -7.75754636
 H     20.95302319     27.05429385     -9.48936791
 H     18.75556405     26.28717495     -9.60362271
 H     18.49887240     26.60959418     -7.87202752
 H     20.25305555     24.92114510     -7.35587122
 H     19.24816873     24.20635336     -8.99025998
 H     17.99911389     23.82422839     -8.92703496
 H     18.06604173     24.21510461     -7.19181074
 H     19.85738422     22.41314956     -7.04570656
 H     19.67491554     22.14281307     -8.79553228
 H     17.49081955     21.36455378     -8.71645537
 H     17.36769713     21.67187965     -6.96755333
 H     19.05730024     20.10813202     -6.37295727
 H     19.21152496     19.60331452     -8.07285159
 H     16.84044309     18.85526046     -8.01066990
 H     16.73176006     19.37570710     -6.31196746
 H     18.48951679     17.61816265     -5.82567314
 H     18.50210328     17.19770319     -7.55521704
 H     16.09628680     16.49779094     -7.26637737
 H     16.19734145     16.95470190     -5.54902854
 H     17.99192296     14.87464673     -5.92822775
 H     17.44286308     14.93682303     -7.62024844
 H     15.22240972     14.23197508     -6.15815074
 H     16.30541022     14.34581932     -4.75016776
 H     17.75629058     12.64591749     -5.34788714
 H     16.84240063     12.31293996     -6.83859093
 H     14.86246219     11.67054780     -5.66445804
 H     15.65988298     11.96205958     -4.10003877
 H     17.12281799      9.94629150     -5.17126006
 H     16.01982766     10.06009719     -6.56364193
 H     14.13076334      9.40699532     -5.13008040
 H     15.22853210      9.29121438     -3.73374047
 H     16.33845290      7.40984798     -5.10654325
 H     15.13435473      7.70652468     -6.38341333
 H     13.25035285      7.46249771     -5.84213759
 H     13.69606447      6.77785086     -4.26072477
 H     14.88874988      4.98404329     -4.90103324
 H     14.64670828      5.34287875     -6.62756724
 H     12.25169376      5.05095601     -6.44836689
 H     12.40841475      4.67937294     -4.71469126
 H     13.76412412      2.67735834     -6.04810696
 H     13.28448398      3.55644091     -7.51964556
 H     10.90741804      3.09767009     -6.96344645
 H     11.42724635      2.22704987     -5.50055013
 H     12.58673109      0.54463299     -6.78288306
 H     12.11261925      1.34469242     -8.30057524
 H      9.74059070      0.90594001     -7.77773781
 H     10.22457596      0.10791679     -6.26209145
 H     11.38057084     -1.58756992     -6.78809817
 H     11.21899976     -1.29110204     -8.53574466
 H      8.82106721     -1.81745695     -8.32001784
 H      8.92667048     -1.74681718     -6.54459546
 H     10.38617347     -3.89831030     -6.94389320
 H     10.08989916     -3.67614164     -8.68490706
 H      7.69424369     -4.01897335     -8.37110863
 H      7.94616264     -4.24863774     -6.62409468
 H      9.65546903     -6.05103374     -8.08368633
 H      8.97197034     -5.91751191     -8.99669063
 H      9.16128597     -6.56389624     -6.02989671
 H     10.52389991     -6.11930518     -7.08530597
 H      9.44142741     -8.43724567     -8.17904190
 H      8.49799098     -8.44855118     -6.66971538
 H      9.98652092     -8.58415507     -5.09574969
 H     11.34280250     -8.62265912     -6.24782798
 H     11.33036852    -10.19400529     -7.46027078
 H      9.85832991    -10.89571348     -6.74684622
 H     10.61532363    -11.27191257     -4.63360334
 H     12.22891138    -10.62955193     -5.02344180
 H     12.08865480    -12.76003649     -6.64962124
 H     10.46547642    -13.02937780     -5.97064123
 H     11.08243810    -13.43325846     -3.79601113
 H     12.25771949    -12.90436825     -3.77895257
 H     13.51481155    -12.30676417     -4.00142006
 H     13.96183228    -13.80340644     -4.85494280
 H     13.56798070    -15.33343510     -3.25876993
 H     13.05036981    -14.09467846     -2.09008365
 H     15.26120880    -13.07090874     -2.10886586
 H     15.82743577    -14.28846333     -3.27728980
 H     15.73527924    -16.08087714     -1.84038427
 H     14.79533782    -15.18645914     -0.62186335
 H     17.32455555    -14.04975194     -0.67124065
 H     17.65573467    -15.25790431     -1.93573853
 H     17.32862743    -17.10651683     -0.43841440
 H     16.98331403    -15.99043685      0.90448947
 H     19.31958340    -15.12639881      0.67419864
 H     19.59198633    -16.26863123     -0.66347411
 H     19.14399290    -18.08025820      1.11773964
 H     19.03167730    -16.76977499      2.31702511
 H     21.40778592    -16.19849665      1.80333557
 H     21.45417760    -17.52424850      0.61653461
 H     21.07238894    -19.15515711      2.42176831
 H     21.02586049    -17.83009698      3.60933617
 H     23.25033089    -17.07979150      3.14029601
 H     23.50741954    -18.52231815      2.12970758
 H     23.18594564    -20.16623836      3.60041370
 H     22.87051924    -19.02610385      4.93040098
 H     25.50344438    -18.65604587      3.92689931
 H     25.05721212    -20.05040684      2.91452540
 H     24.73366159    -21.58952159      4.58448400
 H     25.14647555    -20.40249851      5.84497101
 H     27.36434880    -20.07576660      5.13111525
 H     27.15453695    -21.24206963      3.80296507
 H     26.75288517    -23.12827352      4.93643683
 H     26.89983618    -22.30895540      6.50977401
 H     29.30662670    -21.84803275      5.86262797
 H     29.02001486    -22.69245423      4.32214990
 H     28.67198141    -24.60159224      6.26765073
 H     29.03519821    -23.28450833      7.40854081
 H     31.31371827    -23.13912017      6.39538004
 H     30.88583860    -24.45975081      5.28132422
 H     30.68999183    -26.19450829      6.35682763
 H     30.66108850    -25.39720210      7.94797002
 H     33.05532139    -24.80415559      7.63807163
 H     33.03967081    -25.61163718      6.05188274
 H     32.55802440    -27.75582669      7.26116395
 H     32.10521736    -27.52966960      7.89201722
 H     31.06984222    -27.33855736      8.63792796
 H     32.15331795    -26.41398102      9.70540423
 H     33.40259705    -28.64108621      9.96841325
 H     32.21325853    -29.38207840      8.87083814
 H     30.42492764    -28.91639124     10.50314645
 H     31.61789059    -28.17623836     11.59734925
 H     32.99143524    -29.69517598     12.14383517
 H     32.16024459    -30.94302595     11.18453374
 H     30.16131507    -30.98483570     12.24775749
 H     30.66997284    -29.73326026     13.40667632
 H     32.41985647    -31.27882397     14.24674122
 H     31.88603763    -32.50757016     13.07478265
 H     29.72334698    -32.74602300     14.00070340
 H     30.08438424    -31.53591469     15.25511826
 H     31.85995173    -33.39805279     15.89699798
 H     31.23057228    -34.33806735     14.52276336
 H     29.12873707    -34.10252584     16.28926312
 H     30.27650627    -33.17423263     17.28383050
 H     31.81987163    -34.73993977     17.72844772
 H     30.93742404    -35.98289609     16.80941970
 H     29.09980915    -35.62440718     18.57219315
 H     30.14408058    -34.40363692     19.33866808
 H     31.70495811    -36.53930933     19.59920530
 H     30.34708693    -37.46634812     18.91725839
 H     28.95746174    -36.89556595     20.83684832
 H     30.23751172    -35.84314342     21.48657559
 H     31.82840464    -37.42663895     21.89881420
 H     30.77347852    -38.73509769     21.31286772
 H     29.26357369    -38.06431446     23.28172150
 H     30.45052919    -36.80477508     23.69761075
 H     32.25898235    -37.82519829     24.19712411
 H     31.54904711    -39.43501524     23.92740574
 H     29.93803436    -39.33400816     25.58562879
 H     30.45724711    -37.70162933     26.06938920
 H     32.61195206    -38.30798281     26.74343583
 H     32.31284762    -40.01397807     26.33309037
 H     30.51451821    -39.78374609     28.21454236
 H     31.19305223    -38.06469828     28.45378290
 H     32.95464244    -37.70589864     28.50482582
 H     33.19864833    -38.49666024     29.07355505
 H     31.95532417    -36.04534663     29.28638922
 H     32.86940839    -36.80071645     27.59147493
 H     34.06044636    -36.21865841     29.72555885
 H     32.50069794    -35.74653641     30.44148646
 H     31.72946642    -34.13284208     29.36259038
 H     33.11807333    -34.06455163     28.25111660
 H     34.47738840    -33.52145123     30.35766637
 H     32.63795784    -32.64154504     30.61517456
 H     32.14816265    -31.66603050     29.94998528
 H     33.69832837    -31.65586354     29.07525703
 H     35.05500517    -31.17947236     30.89543101
 H     33.65555561    -31.12554086     31.99402055
 H     33.18942152    -29.03328126     30.39952038
 H     34.58521619    -29.56650768     29.43220786
 H     35.95819867    -29.01552850     31.52300703
 H     34.44850767    -28.52826533     32.33027051
 H     34.36739939    -26.71140690     30.50526785
 H     35.88885174    -27.36981057     29.85722927
 H     37.06659143    -26.73162862     31.89218462
 H     35.54387769    -26.19106734     32.63877891
 H     35.75185400    -24.44376312     30.63845698
 H     37.25952485    -25.28127066     30.19825659
 H     37.93334363    -24.36032683     32.59252245
 H     36.29957045    -23.65910736     32.67821442
 H     37.07496892    -22.25415517     30.66587407
 H     38.64535609    -23.08728307     30.75558865
 H     39.40566395    -21.40259538     31.86805262
 H     37.72101464    -21.37833355     33.00865249
 H     37.96647482    -19.92429539     31.31385559
 H     39.55662868    -20.59001956     30.87058511
 H     40.41257774    -19.73466241     33.03356243
 H     38.75867525    -19.34154576     33.56113472
 H     38.49342474    -17.68654980     31.78588091
 H     40.21526354    -17.88563944     31.38103386
 H     40.89551863    -17.16545535     33.59875721
 H     39.19201214    -16.94460346     34.06518699
 H     38.61741279    -15.30196506     32.59829513
 H     40.25390422    -15.25854158     31.89952702
 H     41.01099439    -14.52049000     34.21956349
 H     39.31790163    -14.61932360     34.75987404
 H     38.38975638    -13.03214160     33.44319344
 H     39.95026220    -12.65223810     32.67588543
 H     41.33751361    -11.96112779     33.85254209
 H     40.30966859    -11.99858180     35.30526315
 H     38.78474930    -10.36356954     34.30437869
 H     39.79618076    -10.30758056     32.84077413
 H     41.71242534     -9.50825654     33.63434340
 H     40.47633513     -8.79452079     35.11641782
 H     39.51456155     -8.07397489     35.38566830
 H     39.59544492     -7.66441017     33.65535582
 H     41.53822862     -6.29361025     34.34488209
 H     41.97316747     -7.45690903     35.61996281
 H     40.62014096     -6.32759277     35.86942363
1502
Final Conformation Chain 5 (Simulation Frame 6)
 C      0.00000000      0.00000000      0.00000000
 C      1.54000000      0.00000000      0.00000000
 C      2.16637443     -1.23484094     -0.67410898
 C      3.66519126     -1.42021553     -0.37280453
 C      4.58498908     -0.47050675     -1.16250397
 C      5.09955504      0.72784755     -0.34349918
 C      5.64859275      1.88314843     -1.20107569
 C      6.32433132      3.00172515     -0.38635887
 C      6.72711959      4.23021619     -1.22312131
 C      7.82242358      5.09754217     -0.57531360
 C      8.39772747      6.17968908     -1.50782820
 C      9.51104147      7.03017603     -0.86845046
 C      9.83998463      8.31821083     -1.64585818
 C     11.06456194      9.08018977     -1.10604477
 C     11.29808364     10.44637944     -1.77730731
 C     12.59408081     11.14940852     -1.33262600
 C     12.57025543     12.67876161     -1.51182276
 C     13.96484822     13.31281016     -1.66896401
 C     13.98562319     14.83907555     -1.46480143
 C     15.39821568     15.42977442     -1.29970351
 C     15.42151530     16.82496021     -0.64815632
 C     16.79141290     17.52521713     -0.71613293
 C     17.10824605     18.40191568      0.50967962
 C     18.55727915     18.92177690      0.55026764
 C     18.77073096     20.10744394      1.50955488
 C     20.23699153     20.31519955      1.93206824
 C     20.46207477     21.54722924      2.82819344
 C     21.94458736     21.91000957      3.03349037
 C     22.19504976     22.88674721      4.19747154
 C     23.67832425     23.03168970      4.58539995
 C     23.90338985     23.59232342      6.00195751
 C     25.36613178     23.96980125      6.30111721
 C     25.65794134     24.21148604      7.79377780
 C     26.98387676     24.94752442      8.06162618
 C     27.43561708     24.90871452      9.53336816
 C     28.95303562     25.08556889      9.72769651
 C     29.37693245     25.29189782     11.19375921
 C     30.83869972     25.74512649     11.36528252
 C     31.23447991     26.04530817     12.82296870
 C     32.66359132     26.59626730     12.98323282
 C     33.14870706     26.66404508     14.44325642
 C     34.57445202     27.22344950     14.60424705
 C     35.09318917     27.20844281     16.05417345
 C     36.62054172     27.36427328     16.17463517
 C     37.16798131     27.09562240     17.58875560
 C     38.70522121     27.11345682     17.67917356
 C     39.24744304     27.16015083     19.11980369
 C     38.75158941     28.36767999     19.93687316
 C     39.45986417     28.53939556     21.29350893
 C     39.16100312     29.87949041     21.99095273
 C     39.72020082     29.97903392     23.42238175
 C     39.36682966     31.29340410     24.14290923
 C     39.81659905     31.34124314     25.61498903
 C     39.26880300     32.54863389     26.39839636
 C     39.97430303     32.79381275     27.74515433
 C     39.37481522     33.95166732     28.56465854
 C     40.09383900     34.21078242     29.90161934
 C     39.48054845     35.35401002     30.73138157
 C     40.38288985     35.85099623     31.87610194
 C     39.70714743     36.87507131     32.80682338
 C     40.08404237     36.71634422     34.29153073
 C     39.28069932     37.62332276     35.24212522
 C     39.54453268     39.12763524     35.04455010
 C     39.08698975     40.00418039     36.22519529
 C     39.56804360     41.46487357     36.14418524
 C     39.04234510     42.36141208     37.28060937
 C     39.95627131     43.55650696     37.60937542
 C     39.43975771     44.44263497     38.75810988
 C     40.02771500     45.86596505     38.76424873
 C     39.76322662     46.64733079     40.06467693
 C     40.17007583     48.13110400     39.99766359
 C     39.47690298     49.01872033     41.04802002
 C     39.64822367     50.52939421     40.80283912
 C     38.89113396     51.41694921     41.80815563
 C     38.40381426     52.75420961     41.22006197
 C     37.42417476     53.51862080     42.12977730
 C     36.85931608     54.80564053     41.50040071
 C     35.81417812     55.52375999     42.37423769
 C     36.31095837     55.86577989     43.79121750
 C     35.57288308     57.04862067     44.44523017
 C     35.92099781     57.26018565     45.93037541
 C     35.42501918     58.59999516     46.50528034
 C     35.65995562     58.75736036     48.01909706
 C     35.31527770     60.15571797     48.56443468
 C     36.01290128     60.49909182     49.89372613
 C     35.54044320     61.82157553     50.52572312
 C     36.54659125     62.43730108     51.51574743
 C     36.27596658     63.91721440     51.84471377
 C     37.00908890     64.42390204     53.10065935
 C     37.11925106     65.95760360     53.18565241
 C     38.22435710     66.45449985     54.13614426
 C     38.24806724     67.98275371     54.32450020
 C     39.56988237     68.52227890     54.90183663
 C     39.40587584     69.78478141     55.76831760
 C     40.67132434     70.17302913     56.55540323
 C     40.48185511     71.38337633     57.48854902
 C     41.75937381     71.80056657     58.24054521
 C     41.64909869     73.15941249     58.95676945
 C     42.78544753     73.43298887     59.95949937
 C     42.84336267     74.88868348     60.45869775
 C     43.52477122     75.05403199     61.82980761
 C     43.37856541     76.46204960     62.43619878
 C     44.03105138     76.61789213     63.82240770
 C     43.89258782     78.02837355     64.42487761
 C     44.46425817     78.16019456     65.84875128
 C     44.26771778     79.55277692     66.47619552
 C     44.71721691     79.64659590     67.94614400
 C     44.60253938     81.05979564     68.54723929
 C     45.26893490     81.20935897     69.92751021
 C     45.29118253     82.65455472     70.45903094
 C     46.15323477     82.84465011     71.72090640
 C     45.96135861     84.20791344     72.41104886
 C     46.52535122     84.27010645     73.84270677
 C     46.67101159     85.69948913     74.39700653
 C     46.84011070     85.76404891     75.92633237
 C     47.40061680     87.10385202     76.43854378
 C     47.82118684     87.08157274     77.91983527
 C     47.68820034     88.44195520     78.62925344
 C     48.03942137     88.40370026     80.12817984
 C     48.14762974     89.79388563     80.78184304
 C     48.82225313     89.78433714     82.16618119
 C     49.06742315     91.18680608     82.75318420
 C     49.79732204     91.17944676     84.10920539
 C     50.22684497     92.57559207     84.59694333
 C     50.66156690     92.61685291     86.07373526
 C     51.41361033     93.90109374     86.46965970
 C     51.98313659     93.87764677     87.90028546
 C     52.83045290     95.11298746     88.25748071
 C     53.71839668     94.92506574     89.50160340
 C     55.02111176     95.74580081     89.47115046
 C     56.00435911     95.40253908     90.60560893
 C     57.23845557     96.32185559     90.66445704
 C     58.51486935     95.62521049     91.17146144
 C     59.73797527     96.55543075     91.27296104
 C     60.89922604     95.97513297     92.10142415
 C     61.98460268     97.00506983     92.46582449
 C     62.80013515     96.63858632     93.71969715
 C     64.18799322     97.30322310     93.78058988
 C     65.12805650     96.69472269     94.83775982
 C     65.68359112     95.30931379     94.45878295
 C     66.44793860     94.60815710     95.59709408
 C     66.68852865     93.10602352     95.35769662
 C     67.35654130     92.38218532     96.54151137
 C     68.87306586     92.62698041     96.65027084
 C     69.57413887     91.75437664     97.70793775
 C     71.02305430     92.17957324     98.01034797
 C     71.72057534     91.31356668     99.07575729
 C     72.90493350     92.00973816     99.77163158
 C     73.43335631     91.25990915    101.00861411
 C     74.59073547     91.97671334    101.72852051
 C     75.28885891     91.11892913    102.80016874
 C     76.58639436     91.73886902    103.35123705
 C     77.23853550     90.92359433    104.48333205
 C     78.75889803     90.73653404    104.32488257
 C     79.38246305     89.77588498    105.35440676
 C     80.89005135     89.99343252    105.58123400
 C     81.51365526     89.03265933    106.61061879
 C     83.00773335     89.28905915    106.88189321
 C     83.61748623     88.36527400    107.95260438
 C     85.15728379     88.36634547    107.97755082
 C     85.77063577     87.24350886    108.83466066
 C     87.27333616     87.01577328    108.58641071
 C     87.83534301     85.75141847    109.26254325
 C     89.31555795     85.47421680    108.94048276
 C     89.94022715     84.34837779    109.78539394
 C     89.67865443     82.93384305    109.23560199
 C     90.51068092     81.83257551    109.91864061
 C     90.13799874     80.40380388    109.48123964
 C     90.87876261     79.29820796    110.25617614
 C     90.37037889     77.87560069    109.95728730
 C     91.11766186     76.76922990    110.72482350
 C     90.72237048     75.34062311    110.30717848
 C     91.49831996     74.23463070    111.04628821
 C     91.27891582     72.82345045    110.47006593
 C     92.21269203     71.75233266    111.06367241
 C     92.18855029     70.41131943    110.30690250
 C     90.79317799     70.00420281    109.79818627
 C     90.77839162     68.69147976    108.99311513
 C     89.40531482     68.34230461    108.38951191
 C     89.40217475     67.05608723    107.54261465
 C     88.00328225     66.62385062    107.06525597
 C     88.01357492     65.42147545    106.10307719
 C     86.62209593     65.03565706    105.56779185
 C     86.51366824     63.57151116    105.10290455
 C     85.26893805     63.27719161    104.24522002
 C     84.91204705     61.78204746    104.15155682
 C     83.81471707     61.46349276    103.11908899
 C     83.54300496     59.95851645    102.93792935
 C     82.52142915     59.63514596    101.83184871
 C     82.28083034     58.12854200    101.62242868
 C     81.01566523     57.80371514    100.80668070
 C     80.83884130     56.30602913    100.49479946
 C     79.54171886     55.97348809     99.73421426
 C     79.45355673     54.51259055     99.25504224
 C     78.05925470     54.10383106     98.74471143
 C     78.04059522     52.77143191     97.97272416
 C     76.71729926     52.49290850     97.23589820
 C     76.75224833     51.24349327     96.33626487
 C     75.54819015     51.12368852     95.38364180
 C     75.46356716     49.77350508     94.64781326
 C     74.32288304     49.69269308     93.61635354
 C     74.20341560     48.32407315     92.92050369
 C     73.48903219     48.37478552     91.55716786
 C     73.56231236     47.05784896     90.76224138
 C     72.65501966     47.02575837     89.51830001
 C     72.60014804     45.65517915     88.81822737
 C     71.59560259     45.58678845     87.65297583
 C     71.71017005     46.75639868     86.65774410
 C     70.58358948     46.79879283     85.60864022
 C     70.31702375     48.20170507     85.03211620
 C     69.08767146     48.27575304     84.10755693
 C     68.65189471     49.71100184     83.75861638
 C     67.28835888     49.79630240     83.04791684
 C     66.80134026     51.23569361     82.79778525
 C     65.39453825     51.32202468     82.17725720
 C     65.02590904     52.72244764     81.65330296
 C     63.85653991     52.72852837     80.65123566
 C     63.35578698     54.13712773     80.28151370
 C     62.15716490     54.14204165     79.31462127
 C     62.51369528     53.73460835     77.87292636
 C     61.29463535     53.59108097     76.94293024
 C     61.61323872     52.92680006     75.59059050
 C     60.52223700     53.12643679     74.52219898
 C     60.77283387     52.34710288     73.21780645
 C     59.84034303     52.74797642     72.05963495
 C     59.94297359     51.83093395     70.82671156
 C     58.87113641     52.10082326     69.75436608
 C     59.01190945     51.22692165     68.49417604
 C     57.92880368     51.48337855     67.42988672
 C     58.14260248     50.70499399     66.11839613
 C     57.03874157     50.93120756     65.06867307
 C     56.94230579     49.81615457     64.01086545
 C     55.96082300     50.12336549     62.86460501
 C     55.89385420     49.02593611     61.78628969
 C     55.57082240     49.55269561     60.37569588
 C     55.42033265     48.44767886     59.31367384
 C     55.02527028     48.96861525     57.91934569
 C     54.82805994     47.85969702     56.86910361
 C     54.48270597     48.38329772     55.46262825
 C     54.00372079     47.29144842     54.48792916
 C     54.12456619     47.68070583     53.00284497
 C     53.35101970     46.75328380     52.04727487
 C     52.74903250     47.47331339     50.82630443
 C     51.68035872     46.65348878     50.07969613
 C     51.26956713     47.25002713     48.72065519
 C     50.26114402     46.38884474     47.93768156
 C     49.84976482     46.98575933     46.57898361
 C     49.03566605     46.02441735     45.69317055
 C     48.66668188     46.60359158     44.31476282
 C     47.64779545     45.75529526     43.53126821
 C     47.45408467     46.20062336     42.06984458
 C     46.46707909     45.32633695     41.27420443
 C     46.28512317     45.76232635     39.80846050
 C     45.18894564     44.98581020     39.05545486
 C     45.40155898     44.92118010     37.53157215
 C     44.25624897     44.23058195     36.76806760
 C     44.58612431     43.91207303     35.29791988
 C     43.75267322     42.76127808     34.70409308
 C     44.38873923     42.10084894     33.46681647
 C     43.52774007     40.98983059     32.83759579
 C     44.10343345     40.41633102     31.52943855
 C     43.31278627     39.21962846     30.96874253
 C     43.82069172     38.71720037     29.60448519
 C     42.97674735     37.57826198     29.00267356
 C     43.38797978     37.18236353     27.57237558
 C     42.88323780     35.79406196     27.13711212
 C     43.52817243     35.27144372     25.83998857
 C     42.96264380     33.92231133     25.35872029
 C     43.85301879     33.20114879     24.32976112
 C     43.22629154     31.92063245     23.74744602
 C     44.15384027     31.14828833     22.79102669
 C     43.53067052     29.86260108     22.21633741
 C     44.38364599     29.18562745     21.12742072
 C     43.75912808     27.90150333     20.55070359
 C     43.45341278     26.82421367     21.60786258
 C     42.45440338     25.75073918     21.13750873
 C     41.97572389     24.80728150     22.25659476
 C     41.29452922     23.52419149     21.74546478
 C     40.46413026     22.78793575     22.81315624
 C     41.24704111     22.45704804     24.09735402
 C     40.43361926     22.64150587     25.39192739
 C     41.24613793     22.41335845     26.68008971
 C     41.75940941     20.97136041     26.84977782
 C     42.48374046     20.71734333     28.18485080
 C     43.10915554     19.31487596     28.30121776
 C     43.66269037     18.99007252     29.70111130
 C     44.40984661     17.64594755     29.78287694
 C     45.06429249     17.37526625     31.15036816
 C     45.51783065     15.91718103     31.35009452
 C     46.34573127     15.68821990     32.62827970
 C     46.36584665     14.22491905     33.10780653
 C     47.28464804     13.97497576     34.31815043
 C     47.29057565     12.51537891     34.80921242
 C     48.40398399     12.20097680     35.82561450
 C     48.39832756     10.74622989     36.33086636
 C     49.57589471     10.40183647     37.26163421
 C     49.73960001      8.89485117     37.53328821
 C     50.87800019      8.55505804     38.51317885
 C     51.11112152      7.04468823     38.70301428
 C     52.48548597      6.69350410     39.30250745
 C     52.63664950      5.21273733     39.69757627
 C     54.05940415      4.82496784     40.14142763
 C     54.17840963      3.38551700     40.67567381
 C     55.45026748      3.12835363     41.50503779
 C     55.49394416      1.74036776     42.17076114
 C     56.47283079      1.64455504     43.35575097
 C     56.76730778      0.20282456     43.80994973
 C     58.02633490      0.06700056     44.68630727
 C     58.45840959     -1.38910667     44.94059682
 C     59.65673983     -1.52883723     45.89771751
 C     60.27055228     -2.94083321     45.93090834
 C     61.64807964     -3.00905869     46.61600953
 C     62.05829264     -4.42606304     47.05807735
 C     63.35401896     -4.47245656     47.88906529
 C     63.58857701     -5.81330641     48.60927651
 C     65.03612862     -6.01994013     49.09249163
 C     65.38282596     -7.48323457     49.42441079
 C     66.68876270     -7.65189338     50.22296163
 C     67.11657768     -9.11787263     50.42165530
 C     68.54713399     -9.28448914     50.96695118
 C     69.21380881    -10.61757386     50.57961435
 C     70.72320575    -10.67357904     50.87992133
 C     71.38980181    -12.00681017     50.49295304
 C     72.88900417    -12.08067856     50.83724328
 C     73.57659702    -13.37593183     50.36699330
 C     75.09491716    -13.40743765     50.62255412
 C     75.80545776    -14.63574173     50.02422215
 C     77.22447720    -14.86866254     50.57534076
 C     78.00795169    -15.97294599     49.84163389
 C     79.09290280    -16.64786522     50.70126469
 C     79.85175114    -17.77679997     49.97928441
 C     79.11758659    -19.13050640     49.98830137
 C     79.78661761    -20.21170861     49.11939442
 C     78.84366215    -21.35838048     48.71003077
 C     79.55362258    -22.53576115     48.01625058
 C     78.63027754    -23.72820918     47.70463920
 C     79.28859795    -24.82174177     46.84301242
 C     78.36177346    -26.00904192     46.52220916
 C     78.68049213    -26.70992099     45.18849744
 C     78.00812844    -28.08603114     45.02772456
 C     78.48323367    -28.87493417     43.79342029
 C     77.65615901    -30.14106595     43.50280400
 C     77.77363425    -30.64688988     42.05299653
 C     76.77724713    -31.76596617     41.69735491
 C     76.57111849    -31.96348426     40.18404807
 C     75.45325612    -32.96149837     39.82915155
 C     75.47001974    -33.42456006     38.36051515
 C     74.33887141    -34.40547077     38.00007427
 C     74.19860325    -34.67216515     36.48984285
 C     73.00600690    -35.57404169     36.12115239
 C     72.93449495    -35.93802208     34.62649379
 C     71.77087243    -36.88025520     34.26624474
 C     71.60513473    -37.12125177     32.75427528
 C     70.61914048    -38.25132681     32.40449573
 C     70.18799093    -38.27117773     30.92621429
 C     69.22879468    -39.42177110     30.56889447
 C     68.74043513    -39.39949876     29.10854900
 C     67.51779434    -40.29745738     28.84318169
 C     66.76716950    -39.96463675     27.54034141
 C     65.49721735    -40.80650595     27.31656077
 C     64.80412086    -40.54775678     25.96590681
 C     63.84295243    -41.66928469     25.53009675
 C     63.06650675    -41.36121089     24.23633378
 C     61.79130220    -42.20535920     24.05504127
 C     60.87589214    -41.72048459     22.91551460
 C     59.59586100    -42.55866079     22.74064058
 C     58.58344934    -41.95644008     21.74869661
 C     57.27976388    -42.76534417     21.61573642
 C     56.50575831    -42.49608742     20.31188974
 C     55.35417435    -43.48484873     20.05149495
 C     54.62217053    -43.25618198     18.71602427
 C     53.31994356    -44.06500334     18.56901090
 C     52.59373140    -43.84482864     17.22895903
 C     51.15226012    -44.38612243     17.20136171
 C     50.44908202    -44.22623361     15.84063539
 C     49.03002960    -44.82272719     15.79496663
 C     48.21459096    -44.40517809     14.55710049
 C     46.83990032    -45.09130772     14.45197315
 C     46.15333207    -44.91220095     13.08517221
 C     44.71784098    -45.46688553     13.02781069
 C     43.72003348    -44.54822412     12.29839900
 C     42.25921194    -45.03090372     12.36637562
 C     41.22419811    -43.89127861     12.40638804
 C     39.77226626    -44.37000205     12.59163858
 C     38.78059164    -43.24359604     12.93716856
 C     37.30465530    -43.68299540     12.92533194
 C     36.32698339    -42.60805930     13.43549860
 C     34.84462318    -43.01510392     13.34317906
 C     33.88064569    -42.03020414     14.03043435
 C     32.39179197    -42.33039646     13.77587754
 C     31.46268765    -41.12207157     13.99568685
 C     29.96281268    -41.46527738     13.93099639
 C     29.03467214    -40.24217544     14.05006268
 C     27.58508163    -40.51015171     13.60455616
 C     26.65439428    -39.29001011     13.73368992
 C     25.15668351    -39.62975878     13.61952651
 C     24.22945941    -38.40164733     13.67950771
 C     22.79193639    -38.67817543     13.20132388
 C     21.93216352    -37.41125470     13.03608930
 C     20.66241891    -37.62183940     12.19051096
 C     19.77786762    -36.36742091     12.06559796
 C     18.64340811    -36.50125348     11.03279088
 C     17.92554150    -35.17623196     10.71563867
 C     16.63066093    -35.34515522      9.89933649
 C     16.00641147    -34.01683241      9.43299847
 C     14.67677746    -34.18204002      8.67380164
 C     14.10748079    -32.86528969      8.11373926
 C     12.78244768    -33.03179243      7.34682069
 C     12.11893913    -31.70097262      6.94647705
 C     10.87821734    -31.86470470      6.04903554
 C      9.95206933    -30.63446369      6.03014348
 C      8.64365246    -30.84741232      5.24637171
 C      7.67205743    -29.65447514      5.31348357
 C      6.27186899    -29.95438062      4.74680107
 C      5.17976195    -28.98100063      5.22787653
 C      3.78402510    -29.26709309      4.64335130
 C      2.77886717    -28.11530738      4.82948891
 C      1.40599363    -28.37099767      4.18030425
 C      0.54932138    -27.10309673      4.00669585
 C     -0.81001495    -27.35371816      3.32773070
 C     -1.55917719    -26.06767818      2.93218412
 C     -2.95549117    -26.31565888      2.33184017
 C     -3.85456568    -25.06576102      2.29989706
 C     -5.09331766    -25.20815923      1.39611816
 C     -5.59963368    -23.87584726      0.81286102
 C     -4.65905614    -23.25342700     -0.23571273
 C     -5.05766453    -21.83023122     -0.66840793
 C     -4.13322313    -21.21855462     -1.73745416
 C     -4.63285352    -19.87651944     -2.30394428
 C     -3.50657732    -18.93441448     -2.76820733
 C     -3.99156620    -17.75855469     -3.63638907
 C     -2.87963220    -16.76647780     -4.02495854
 C     -3.38577359    -15.34209214     -4.31914620
 C     -2.26342838    -14.31783966     -4.56984141
 C     -2.74734968    -12.85650219     -4.61357919
 C     -1.61068456    -11.81857144     -4.56570268
 C     -2.07773112    -10.36760753     -4.78518216
 C     -0.93146938     -9.37393728     -5.05033018
 C     -1.38399183     -8.05624107     -5.70645527
 C     -0.23214482     -7.08084724     -6.01215993
 C     -0.69252874     -5.64215853     -6.31186216
 C      0.41216128     -4.58274989     -6.14182306
 C     -0.11717969     -3.14447272     -5.99096915
 C      0.96206023     -2.11751451     -5.60084349
 C      0.40007404     -0.81674116     -4.99771812
 C      1.47618406      0.22868362     -4.65033610
 C      0.97087078      1.37311158     -3.75225864
 C      2.09420835      2.19101544     -3.08837162
 C      1.59904394      3.18264774     -2.01922356
 C      2.65488071      4.21732563     -1.58765621
 C      2.14226376      5.24458415     -0.56122365
 C      3.08430705      6.44476357     -0.35212131
 C      2.46581506      7.59072671      0.46997123
 C      3.29322282      8.88948932      0.45540794
 C      4.74097034      8.71544093      0.95072025
 C      5.49239097     10.04199495      1.16802528
 C      6.92254173      9.86983421      1.71266228
 C      7.74477189     11.17174880      1.73624151
 C      9.07701237     11.05745112      2.50022536
 C      9.97538943     12.30270993      2.38254294
 C     11.25009840     12.23916059      3.24433093
 C     12.11710072     13.51002348      3.17494436
 C     13.56557299     13.30719820      3.65701280
 C     14.53248511     14.42438889      3.22277103
 C     16.01217543     14.12560510      3.52747548
 C     16.97950303     15.24093419      3.08939065
 C     18.46742027     14.88239876      3.26013792
 C     19.40468195     16.10347532      3.30610069
 C     20.85999364     15.79127047      2.91088427
 C     21.72444757     17.04189404      2.66540498
 C     23.20474704     16.73283466      2.37420782
 C     23.99435552     17.92747137      1.80767313
 C     25.49793760     17.65226660      1.62031445
 C     26.34425301     18.92010039      1.40134480
 C     26.50856878     19.78900708      2.66213878
 C     27.85226726     19.59159391      3.38815699
 C     28.29458606     20.80433781      4.22792262
 C     29.76910113     20.75610458      4.66959996
 C     30.14958813     21.83444434      5.70111001
 C     31.64417006     21.84669504      6.07215556
 C     32.16197849     23.21922189      6.54081797
 C     33.47479518     23.15278768      7.34312641
 C     33.86585432     24.48187146      8.01559133
 C     35.24003603     24.45192936      8.71008979
 C     35.72025781     25.82776581      9.20814714
 C     36.52821925     25.77268986     10.51801925
 C     37.14384215     27.12238475     10.93145868
 C     38.12024948     27.02806853     12.11861207
 C     38.52201817     28.39243545     12.70910750
 C     39.58274476     28.30536191     13.82215616
 C     39.65413677     29.55554346     14.71856525
 C     40.94956096     29.66083891     15.54463368
 C     40.91029132     30.74718509     16.63546359
 C     42.29960111     31.25411783     17.06492547
 C     42.26182993     32.31665551     18.17901120
 C     40.98100569     33.17166473     18.18597554
 C     40.85221755     34.09695932     19.41024819
 C     39.50254230     34.83313919     19.49977989
 C     39.17185761     35.36612800     20.90625440
 C     37.66640049     35.56424144     21.16306158
 H     -0.36333333      0.00000000      1.02766186
 H     -0.36333333     -0.88998127     -0.51383093
 H     -0.36333333      0.88998127     -0.51383093
 H      1.88274777     -0.94207999      0.42791268
 H      1.88274777     -0.12880674     -1.02666099
 H      1.82362666     -1.27165093     -1.70816362
 H      1.82362666     -2.12453518     -0.14583999
 H      3.78832088     -1.51907125      0.70569751
 H      4.08379287     -0.44974985     -0.10621673
 H      4.28616894      0.55504590     -0.94559781
 H      4.42518052     -0.64472730     -2.22655679
 H      6.11036707      0.96235093     -0.67721643
 H      4.24033131      1.31185137     -0.01368993
 H      4.85069555      2.23297892     -1.85611667
 H      6.47235421      1.50101485     -1.80397783
 H      7.15255401      2.56615597      0.17259253
 H      5.59117260      3.40974012      0.30941557
 H      5.82910057      4.63851999     -1.68674817
 H      7.42034332      3.90438139     -1.99860345
 H      8.70725292      4.47838245     -0.42760348
 H      7.45719050      5.44571884      0.39085295
 H      7.58244610      6.83293680     -1.81876822
 H      8.82285148      5.68762204     -2.38260795
 H     10.26235697      7.23970401     -1.62984592
 H      9.07467311      7.61125957     -0.05603150
 H      8.93583538      8.92428187     -1.70323436
 H     10.15561849      8.04043303     -2.65149964
 H     11.92950792      8.41883708     -1.15684906
 H     10.87161249      9.34684144     -0.06692621
 H     10.35501734     10.99293397     -1.77933462
 H     11.61984828     10.27316739     -2.80422751
 H     13.43608053     10.50060665     -1.57385746
 H     12.54925907     11.30063933     -0.25409911
 H     11.74401101     13.07980492     -0.92480963
 H     12.40623372     12.89771126     -2.56693314
 H     14.44492167     12.87274103     -2.54301701
 H     14.15788532     13.93694583     -0.79644391
 H     13.62192995     15.05549199     -0.46031591
 H     13.31853751     15.29209162     -2.19819977
 H     16.04649528     14.98388830     -2.05403707
 H     15.76440472     15.17003551     -0.30645566
 H     14.96379650     16.75027480      0.33825921
 H     14.83684420     17.50325416     -1.26958775
 H     17.07021389     17.63180717     -1.76446903
 H     17.52296771     16.89722022     -0.20765733
 H     17.09027489     17.76946370      1.39725020
 H     16.33610035     19.16675225      0.59284226
 H     18.73487181     19.51227149     -0.34855213
 H     19.22917892     18.06354637      0.55981051
 H     18.49228720     19.78978048      2.51437277
 H     18.12211500     20.92466315      1.19403929
 H     20.83090136     20.48907692      1.03477354
 H     20.27184147     20.40118695      3.01811227
 H     19.85909142     21.43080679      3.72872489
 H     20.13379967     22.43216708      2.28301413
 H     22.38666975     22.11065603      2.05757841
 H     22.44595735     21.05716314      3.49107217
 H     21.82393432     22.42934723      5.11461852
 H     21.64175486     23.80480091      3.99962772
 H     24.22715871     23.38894182      3.71404947
 H     24.05447178     22.05033961      4.87447612
 H     23.63091786     22.82155556      6.72291238
 H     23.25578052     24.45901034      6.13445635
 H     25.67969132     24.72459204      5.57995753
 H     25.98120387     23.07758815      6.18389050
 H     25.33404578     23.33363329      8.35285402
 H     25.08579148     25.08055353      8.11853345
 H     26.94711649     25.91387897      7.55872702
 H     27.79654425     24.35208459      7.64554569
 H     27.55691276     23.86612240      9.82728824
 H     26.65841064     25.36993607     10.14273245
 H     29.24205350     26.04979231      9.30955554
 H     29.46301724     24.28780667      9.18770188
 H     29.05673284     24.42295955     11.76866659
 H     28.87666002     26.18295092     11.57303728
 H     31.02585253     26.56745359     10.67473783
 H     31.48900843     24.90652335     11.11639833
 H     31.08481125     25.14048929     13.41203753
 H     30.58433581     26.83529550     13.19891107
 H     32.74110088     27.52002645     12.40985572
 H     33.36139275     25.86066711     12.58315093
 H     33.12054076     25.65760839     14.86085893
 H     32.46859105     27.30794959     15.00086667
 H     34.59631057     28.23089065     14.18869376
 H     35.25834993     26.58487705     14.04513267
 H     35.00855001     26.19176456     16.43797228
 H     34.46796971     27.87449898     16.64879082
 H     36.90536973     28.31238656     15.71850554
 H     37.09248038     26.54433956     15.63326412
 H     36.90418019     26.07623935     17.87047741
 H     36.69655128     27.79651602     18.27766914
 H     39.05620795     28.09357011     17.35623976
 H     39.09688411     26.34829417     17.00893011
 H     38.88298055     26.28140577     19.65185088
 H     38.40171074     27.24943053     19.80161453
 H     37.66887523     28.29212338     20.03747735
 H     39.00321225     29.27721203     19.39140326
 H     40.52689095     28.66485987     21.10962704
 H     39.29629791     27.63675773     21.88222876
 H     38.08556422     29.94834258     22.15463092
 H     39.48078552     30.68727613     21.33268117
 H     40.80687473     30.03939480     23.36241194
 H     39.43577640     29.07745847     23.96493539
 H     38.28184217     31.39723123     24.15395806
 H     39.80520979     32.11965571     23.58323868
 H     40.86093630     31.03300691     25.66448795
 H     39.20392468     30.64156680     26.18348102
 H     38.17984979     32.50764899     26.37387794
 H     39.60928038     33.45963333     25.90620212
 H     41.03353225     32.96292573     27.55141676
 H     39.85542497     31.90274978     28.36157529
 H     38.32723372     33.72491273     28.76278817
 H     39.44326111     34.86320477     27.97092911
 H     41.13714274     34.44490515     29.68995018
 H     40.03981776     33.30233322     30.50153747
 H     38.44119153     35.10378973     30.94404796
 H     39.52026663     36.26758213     30.13816283
 H     41.31966132     36.20450727     31.44530133
 H     40.58330080     35.01260865     32.54321641
 H     38.82358697     36.41007148     33.24408312
 H     39.40666768     37.73554722     32.20899973
 H     41.16419655     36.82883687     34.38487071
 H     39.79368461     35.71639217     34.61384776
 H     38.22287579     37.52302544     34.99912349
 H     38.76019773     38.37121850     34.64393623
 H     39.38787375     39.36787473     33.99295942
 H     40.58086428     39.33207773     35.31347403
 H     39.61707444     39.67785151     37.11996882
 H     38.01565463     39.85949389     36.36450387
 H     39.18257542     41.90209573     35.22312549
 H     40.65774327     41.46593914     36.11862193
 H     39.37637629     41.94269689     38.22992531
 H     37.95294513     42.35684061     37.24473732
 H     40.05953176     44.16614589     36.71172423
 H     40.93316484     43.17087562     37.90103875
 H     40.29957340     44.85375371     39.28706957
 H     38.45886055     44.82774194     38.47948219
 H     39.68953446     46.38038487     37.86474544
 H     41.11482883     45.78779325     38.75110756
 H     40.20178868     46.09174928     40.89358736
 H     38.68507245     46.72124486     40.20687500
 H     39.60780314     48.60466699     39.19287324
 H     41.23605480     48.18455907     39.77645916
 H     39.72885920     48.63861147     42.03803786
 H     38.39959749     48.95153122     40.89636750
 H     38.65922017     50.98695938     40.77821826
 H     40.71373962     50.75902925     40.80943435
 H     39.25608387     51.18868674     42.80955855
 H     37.82959543     51.17768406     41.74500403
 H     37.73836560     52.53877617     40.38407961
 H     39.27167203     53.30705811     40.86050472
 H     37.92386925     53.72248206     43.07679684
 H     36.55509151     52.88494936     42.30656757
 H     36.33634429     54.53734273     40.58245910
 H     37.69349896     55.46605280     41.26355782
 H     35.71202494     54.97258890     43.30905059
 H     34.98635970     54.83737260     42.55225173
 H     37.10236074     56.61049913     43.70650895
 H     36.71274359     54.95828344     44.24190455
 H     34.58159147     56.70982753     44.74632841
 H     35.47610480     57.84341862     43.70561528
 H     36.99325851     57.43960926     46.00888765
 H     35.66370819     56.35201141     46.47546402
 H     34.34094477     58.63846627     46.39849723
 H     35.87576825     59.40804873     45.92910788
 H     36.73015068     58.67766949     48.20996846
 H     35.13816795     57.94986032     48.53269352
 H     34.26352411     60.35431238     48.35834093
 H     35.93214521     60.88824326     48.04387615
 H     37.09056952     60.44780074     49.73848313
 H     35.71727443     59.75882596     50.63717163
 H     34.48184117     61.72692286     50.76759626
 H     35.67625652     62.61857781     49.79466764
 H     37.47927316     62.62550796     50.98397433
 H     36.72331120     61.71881179     52.31614933
 H     35.27833406     63.99539370     52.27682181
 H     36.31563335     64.48743733     50.91661230
 H     38.08068860     64.29748403     52.94641091
 H     36.69060307     63.82010641     53.95042262
 H     36.11197383     66.37412788     53.18531653
 H     37.65911972     66.31165042     52.30741971
 H     39.17908624     66.06111206     53.78709081
 H     38.01613682     66.06997003     55.13458361
 H     37.28413045     68.29342106     54.72750352
 H     38.40063000     68.44591655     53.34966443
 H     40.37756146     68.24800565     54.22321401
 H     39.73617466     68.05470656     55.87231228
 H     38.74108995     69.54663410     56.59864619
 H     38.95584605     70.56538042     55.15493486
 H     41.47758706     70.34849270     55.84318630
 H     40.93758528     69.34161000     57.20804966
 H     39.69353483     71.14546028     58.20272483
 H     40.17854700     72.23811567     56.88396251
 H     42.52368207     72.05123614     57.50495181
 H     42.09575025     70.95478935     58.84022161
 H     40.88649689     73.07773439     59.73128038
 H     41.34555804     73.90862146     58.22557250
 H     43.73630884     73.32668260     59.43732915
 H     42.72425353     72.69271303     60.75721296
 H     41.89528409     75.12299144     60.94279152
 H     42.98228977     75.54132177     59.59680302
 H     44.54465191     74.67706793     61.75337799
 H     42.97269919     74.46284615     62.56043459
 H     42.31624207     76.67615743     62.55336097
 H     43.81992762     77.18031950     61.74526626
 H     45.09362532     76.39392053     63.72820925
 H     43.56773789     75.90235365     64.50170534
 H     42.83126442     78.25872911     64.51776973
 H     44.36045982     78.73937668     63.74394417
 H     45.52303127     77.90296914     65.81817981
 H     43.93830032     77.45803790     66.49562403
 H     43.19897858     79.76345367     66.51507771
 H     44.76006654     80.28805253     65.83975034
 H     45.77627498     79.39389388     67.99750234
 H     44.14288389     78.92483253     68.52691868
 H     43.56072749     81.37452838     68.48664809
 H     45.22104811     81.73499757     67.95592777
 H     46.32629237     80.96486994     69.82592137
 H     44.79761848     80.50573847     70.61371646
 H     44.27735086     83.05223397     70.41324262
 H     45.94292111     83.24619581     69.81614865
 H     47.19649424     82.68036000     71.45124285
 H     45.84781938     82.10349576     72.45949403
 H     44.91321560     84.30418028     72.69429598
 H     46.21873652     84.99187744     71.69882905
 H     47.59301508     84.05474002     73.80014864
 H     46.02481758     83.50927658     74.44162578
 H     45.68761998     86.16963594     74.39529815
 H     47.34052748     86.25514813     73.74043091
 H     47.73216550     85.19903073     76.19668897
 H     45.96564204     85.30503708     76.38754025
 H     46.71935107     87.89880079     76.13517360
 H     48.37555617     87.26572150     75.97877047
 H     48.58862729     86.31801689     78.04679045
 H     46.94875201     86.82315479     78.51998328
 H     46.64626824     88.75718187     78.57348919
 H     48.31479758     89.16414308     78.10587923
 H     49.06984734     88.06323434     80.23018604
 H     47.37229751     87.69476506     80.61854362
 H     47.70703568     89.73977515     81.77735745
 H     48.92271251     90.35744674     80.26247269
 H     49.82784889     89.37883595     82.05461973
 H     48.24163998     89.13961452     82.82596988
 H     48.10648503     91.69327284     82.84367926
 H     49.70614133     91.73977951     82.06444661
 H     50.76215537     90.68998162     83.97646310
 H     49.19618198     90.61111424     84.81894392
 H     49.33499437     93.19513675     84.69110752
 H     50.89332275     93.00910041     83.85130408
 H     51.50220335     91.93509983     86.20274340
 H     49.82483125     92.28203279     86.68681679
 H     50.76029703     94.75291403     86.28075782
 H     52.30501075     93.98188442     85.84758401
 H     52.67319133     93.03773739     87.98076348
 H     51.15613877     93.73639473     88.59614641
 H     52.20525018     95.99960181     88.15195083
 H     53.66408217     95.17084462     87.55761302
 H     54.39254570     94.08838383     89.31833726
 H     53.07473057     94.69387033     90.35033340
 H     54.75961910     96.80107381     89.39291697
 H     55.59380835     95.44732550     88.59306670
 H     56.26268945     94.34648241     90.52744398
 H     55.50633136     95.58524605     91.55780981
 H     56.89585075     97.34684951     90.80626470
 H     57.76927308     96.24417727     89.71561624
 H     58.73904871     94.79281415     90.50440827
 H     58.32244078     95.24514683     92.17476741
 H     59.58841014     97.22729316     92.11814219
 H     59.80338525     97.13717714     90.35350866
 H     61.21678483     95.04063486     91.63885557
 H     60.53525718     95.77628565     93.10943527
 H     61.51877053     97.80469673     93.04175611
 H     62.39350628     97.41360599     91.54170542
 H     63.28424632     95.67775283     93.54495337
 H     62.11355922     96.55168212     94.56181421
 H     64.05120318     98.38448802     93.76463206
 H     64.75420058     96.99561030     92.90145190
 H     64.81508945     95.66736471     95.02400485
 H     64.65621700     96.79628654     95.81507874
 H     66.23569723     95.40544982     93.52388365
 H     64.84297219     94.63026139     94.31613773
 H     65.76931080     94.48609908     96.44128965
 H     67.28323920     95.24361124     95.89132346
 H     67.26338270     92.99320054     94.43850470
 H     65.72069810     92.61787155     95.24319037
 H     66.71523878     92.49147573     97.41608937
 H     68.04112296     93.07802053     97.02654879
 H     69.04000704     93.69798689     96.76505656
 H     69.34276527     92.28274189     95.72886849
 H     69.41356157     90.70762237     97.44982838
 H     69.12288085     91.96274375     98.67801473
 H     71.01047544     93.20886247     98.36882453
 H     71.59674117     92.12402685     97.08520043
 H     71.73235445     90.28170299     98.72473227
 H     71.14502317     91.37663744     99.99926245
 H     72.53534339     92.91473690    100.25379383
 H     73.63979871     92.27684550     99.01220626
 H     73.75536487     90.26668544    100.69569695
 H     72.61919783     91.16819510    101.72752613
 H     74.24071942     92.95875211    102.04662207
 H     75.41265905     92.09509310    101.02245545
 H     75.74716165     90.26130804    102.30768049
 H     74.53456648     90.77205005    103.50643911
 H     76.34418502     92.70639657    103.79092453
 H     77.27834402     91.88008155    102.52095716
 H     77.46926505     89.92938714    104.10068869
 H     76.52356500     90.84095644    105.30192118
 H     79.22466774     91.72168829    104.29978943
 H     78.94455698     90.22273060    103.38167698
 H     78.90439247     88.80211232    105.24803322
 H     79.18766424     90.16923207    106.35211989
 H     81.04018168     91.01490412    105.93074317
 H     81.40320588     89.85596476    104.62945932
 H     81.36353863     88.01123112    106.26097698
 H     81.00051621     89.16999058    107.56242153
 H     83.11881109     90.30796428    107.25282996
 H     83.54977454     89.18340196    105.94214436
 H     83.50144319     87.33333796    107.62133105
 H     83.07001788     88.51171432    108.88369709
 H     85.49266980     89.31620992    108.39393257
 H     85.51674311     88.27165586    106.95289337
 H     85.43496207     86.28602126    108.43636346
 H     85.41119504     87.35772543    109.85733214
 H     87.80166079     87.94319489    108.80745873
 H     87.41229185     86.75994819    107.53600848
 H     87.22885083     84.89968863    108.95460897
 H     87.76134690     85.87861351    110.34256455
 H     89.90428441     86.33001722    109.27079597
 H     89.41576531     85.35907985    107.86122285
 H     89.18602181     83.57665574    109.93940494
 H     89.86442120     84.62639370    110.83661257
 H     90.09138937     82.87583126    108.22843542
 H     88.60096999     82.77524572    109.19631935
 H     90.27534373     81.83558201    110.98292787
 H     91.56654831     82.06461419    109.77934919
 H     90.28480438     80.32586849    108.40398657
 H     89.08729721     80.23601212    109.71782411
 H     90.64300614     79.40498589    111.31500443
 H     91.94994042     79.43390958    110.10696765
 H     90.49035826     77.68578969    108.89066799
 H     89.31316097     77.82755729    110.21821278
 H     91.00435757     76.95640438    111.79263802
 H     92.17309600     76.81932844    110.45715035
 H     90.93396479     75.22330907    109.24436840
 H     89.65349978     75.21616268    110.48074413
 H     91.31422672     74.34255283    112.11519536
 H     92.56119813     74.36876694    110.84529703
 H     91.59574723     72.82601293    109.42713194
 H     90.21526811     72.59190478    110.52610303
 H     92.04767035     71.71238201    112.14036725
 H     93.24294780     72.04743301    110.86470300
 H     92.48915509     70.59446026    109.27530365
 H     91.73441719     70.57718474    109.32999318
 H     90.43243259     70.78328408    109.12662455
 H     90.12508570     69.92582650    110.65586327
 H     91.15663618     67.89337076    109.63190545
 H     91.43600410     68.81010999    108.13196898
 H     89.10576299     69.15420080    107.72679533
 H     88.68573798     68.25336081    109.20339039
 H     89.71866703     66.22765570    108.17636053
 H     90.11354939     67.18145363    106.72632463
 H     87.58150746     67.43026536    106.46533824
 H     87.37782054     66.45817978    107.94243943
 H     88.65579555     64.64919476    106.52643896
 H     88.42236614     65.75050141    105.14770728
 H     86.15039932     65.93089445    105.16263468
 H     86.02799461     64.65657422    106.39932046
 H     86.74674190     62.92509109    105.94902379
 H     87.24327117     63.40885941    104.30960512
 H     85.30229495     63.91555386    103.36233783
 H     84.38301055     63.51655298    104.83338547
 H     84.72967633     61.40940537    105.15951455
 H     85.76056572     61.25370787    103.71684619
 H     84.15880030     61.79574791    102.13964361
 H     82.91508063     62.01403560    103.39414692
 H     83.23815614     59.54700692    103.90012844
 H     84.46731693     59.47985088    102.61446890
 H     82.89984734     60.03099524    100.88940348
 H     81.58038634     60.12585846    102.08032342
 H     81.91709875     57.70608634    102.55908792
 H     83.23053091     57.66321467    101.35853612
 H     81.00941595     58.43484323     99.91800850
 H     80.14420236     58.03174748    101.42040190
 H     80.78688490     55.76319593    101.43858579
 H     81.70738278     55.96886320     99.92906558
 H     79.54676092     56.52152829     98.79202186
 H     78.69611405     56.29965905    100.33974296
 H     79.51612231     53.86151284    100.12698453
 H     80.29807706     54.31705958     98.59424495
 H     77.79505014     54.75450662     97.91109446
 H     77.34345925     54.24257728     99.55494989
 H     78.40697806     51.98668225     98.63456371
 H     78.70636042     52.86317245     97.11456312
 H     76.54282049     53.30226310     96.52695370
 H     75.91290603     52.47427949     97.97122430
 H     76.98655965     50.37965802     96.95834755
 H     77.53703164     51.37886596     95.59202741
 H     75.52802030     52.00610085     94.74407815
 H     74.63872977     51.08882575     95.98344710
 H     75.39138555     48.98109853     95.39278418
 H     76.37566378     49.64275544     94.06550382
 H     74.54560450     50.38460903     92.80410514
 H     73.39637005     49.99302452     94.10571507
 H     74.25526605     47.54643802     93.68253724
 H     75.04177180     48.21503625     92.23248491
 H     74.04681408     49.04454453     90.90264342
 H     72.48488337     48.76995508     91.71087590
 H     73.10372034     46.27045991     91.36041514
 H     74.61189033     46.81908760     90.59054658
 H     72.94961408     47.84148235     88.85806632
 H     71.62469896     47.17405754     89.84163670
 H     72.31323059     44.90510282     89.55522389
 H     73.59443816     45.42610231     88.43480729
 H     71.11043443     46.55853587     87.56122175
 H     70.60295459     45.81268807     88.04248747
 H     72.64230772     46.64505043     86.10382992
 H     71.73309669     47.68739901     87.22414746
 H     69.63125834     46.88585935     86.13169358
 H     70.60468417     45.86597327     85.04516645
 H     71.23420566     48.56017996     84.56481213
 H     70.04511311     48.86403030     85.85399813
 H     68.20413259     48.01605535     84.69066599
 H     69.21881304     47.55080274     83.30422080
 H     69.48408546     50.21094923     83.26302463
 H     68.41512567     50.23236683     84.68609629
 H     66.53352752     49.35809270     83.70083481
 H     67.34709028     49.22164259     82.12357019
 H     67.54161974     51.74576116     82.18141086
 H     66.71871382     51.74160364     83.75972491
 H     64.69144927     50.83482877     82.85283549
 H     65.40751146     50.79401621     81.22376952
 H     65.80144295     53.04328629     80.95781053
 H     64.99171809     53.40734848     82.50055842
 H     62.98099514     52.30538382     81.14364814
 H     64.13128753     52.10549448     79.80009378
 H     64.18551627     54.69181165     79.84336411
 H     63.02772209     54.63475704     81.19411356
 H     61.33663716     53.59859822     79.78313323
 H     62.13713131     53.18752319     78.78870001
 H     62.93237816     52.72846178     77.89469187
 H     63.26184715     54.43136977     77.49491538
 H     60.77420021     54.54823962     76.90984579
 H     60.63290118     52.83193159     77.35994355
 H     62.01605539     51.93251971     75.78358093
 H     62.36413464     53.53035775     75.08071459
 H     60.39585843     54.19643007     74.35714491
 H     59.59098538     52.70464306     74.90030010
 H     60.81670711     51.28445879     73.45647502
 H     61.73007761     52.66682627     72.80602814
 H     60.05744495     53.78063091     71.78652059
 H     58.81005757     52.67306939     72.40748667
 H     59.69198785     50.81541972     71.13303984
 H     60.97061349     51.85761253     70.46429675
 H     58.97117700     53.13415366     69.42222129
 H     57.88988976     51.95805071     70.20699287
 H     58.91283697     50.18217045     68.78875975
 H     60.00263961     51.39272547     68.07101788
 H     57.86188921     52.55813677     67.26101633
 H     56.97714395     51.11597894     67.81389359
 H     58.15067481     49.63979553     66.34945256
 H     59.10760087     50.99374834     65.70186399
 H     57.00193233     51.99496244     64.83378875
 H     56.08690745     50.62120516     65.49996221
 H     56.74113020     48.87490389     64.52240775
 H     57.89935497     49.75104962     63.49325727
 H     56.28732248     51.03800172     62.36969222
 H     54.97027054     50.27585742     63.29315144
 H     55.58411956     48.09576841     62.26268500
 H     56.88975095     48.90219871     61.36087376
 H     56.43207875     50.11442872     60.01404216
 H     54.70841707     50.21552365     60.44651978
 H     54.61496431     47.78179130     59.62363448
 H     56.35515971     47.88924064     59.26524747
 H     55.78578588     49.67650262     57.58978313
 H     54.06582939     49.47902694     58.00332840
 H     54.04239650     47.19077245     57.22034837
 H     55.76217225     47.30573761     56.77602747
 H     55.29370032     49.03079264     55.12925384
 H     53.56055908     48.96068582     55.52871994
 H     53.11312801     46.82386976     54.90782759
 H     54.79404974     46.54695094     54.39199354
 H     55.17152178     47.89575845     52.78898439
 H     53.52766497     48.57693125     52.83376233
 H     52.29692545     46.77866171     52.32357413
 H     53.73404949     45.73999804     52.16827135
 H     53.56117443     47.93968198     50.26860754
 H     52.06561194     48.24303184     51.18487079
 H     50.87327034     46.42717961     50.77646905
 H     52.13729100     45.72444151     49.73883829
 H     52.15700670     47.31075876     48.09068481
 H     50.87573820     48.25199616     48.89111585
 H     49.36430771     46.27282528     48.54622417
 H     50.70957592     45.41113270     47.76136367
 H     50.74638038     47.10225101     45.97020594
 H     49.40111281     47.96328145     46.75579388
 H     48.13083356     45.74451478     46.23264505
 H     49.63833702     45.13515614     45.50850277
 H     49.58874704     46.85482112     43.79056862
 H     48.07858731     47.50821519     44.46936200
 H     46.73725583     45.67793882     44.12543450
 H     48.07071179     44.76161700     43.38346672
 H     48.41622875     46.13661127     41.56163081
 H     47.11107195     47.23524507     42.06940652
 H     45.54205327     45.24716531     41.84530781
 H     46.90611051     44.33586526     41.15454974
 H     47.25114350     45.69427700     39.30818657
 H     45.94297496     46.79718782     39.79864498
 H     44.24357516     45.13466127     39.57720003
 H     45.44837337     43.92721319     39.06847901
 H     46.35864611     44.43629380     37.33929762
 H     45.42646089     45.94019628     37.14545569
 H     43.33479146     44.77937342     36.96260289
 H     44.15885323     43.21212510     37.14404594
 H     45.45670444     43.25654217     35.27625115
 H     44.82237941     44.84678336     34.78939247
 H     42.69897103     43.03283929     34.76785982
 H     43.93352871     41.86525059     35.29783210
 H     45.39278184     41.77031880     33.73280190
 H     44.44973762     42.84612442     32.67375679
 H     42.57214280     41.42279776     32.54183695
 H     43.36008562     40.21878522     33.58958051
 H     45.09119944     40.00651102     31.74030799
 H     44.19362144     41.22945268     30.80916133
 H     42.30649989     39.55867557     30.72270438
 H     43.25898529     38.45227551     31.74099567
 H     44.86276836     38.41758989     29.71588468
 H     43.75292236     39.53772672     28.89017166
 H     41.95553355     37.93798928     28.87690140
 H     42.98366488     36.74095942     29.70051063
 H     44.43015932     36.86360504     27.59121253
 H     43.28756250     38.05862674     26.93192327
 H     41.79471492     35.79184300     27.19379551
 H     43.28450281     35.05167838     27.82700561
 H     44.60576423     35.21195032     25.99281676
 H     43.31318585     35.98046148     25.04050462
 H     41.96033309     34.09158275     24.96524803
 H     42.90826660     33.24877165     26.21399067
 H     44.82687798     33.02167416     24.78526867
 H     43.97152768     33.85179075     23.46331973
 H     42.19364465     32.13796901     23.47448961
 H     43.24393153     31.14954613     24.51765036
 H     45.05526808     30.87082969     23.33741904
 H     44.41858957     31.80702984     21.96394301
 H     42.62612638     30.13381661     21.67196434
 H     43.27170674     29.20622293     23.04712347
 H     45.35270451     28.93387742     21.55828904
 H     44.52214289     29.89409680     20.31072630
 H     42.79082691     28.15515333     20.11924731
 H     42.87568449     27.65550970     21.13986788
 H     42.76015449     27.24543599     22.33591802
 H     44.38586944     26.55817975     22.10570846
 H     42.86862522     25.25927304     20.25717851
 H     41.52000125     26.24506787     20.87174226
 H     41.49516480     25.40778681     23.02896535
 H     42.84668782     24.30432811     22.67678487
 H     42.00647970     22.98312960     21.12218431
 H     40.43063109     23.81042641     21.14559013
 H     39.69082473     23.46619613     23.17379653
 H     40.61346533     23.28931461     23.76940845
 H     41.60900746     23.39055063     24.52822902
 H     42.09554512     21.82769408     23.82892424
 H     39.56148631     21.98939977     25.34458023
 H     40.10801983     23.68027700     25.44705937
 H     42.07504297     23.12107738     26.69235136
 H     42.20480198     21.97232379     26.40704819
 H     42.39427867     20.73094492     25.99699332
 H     40.90001423     20.30102077     26.86336835
 H     41.78980350     20.93201600     28.99754209
 H     43.33603595     21.39401572     28.24655066
 H     43.82904765     19.19240041     27.49198660
 H     42.31504651     18.57566641     28.19605078
 H     42.84476402     19.06117528     30.41807775
 H     44.42668478     19.72754367     29.94717802
 H     45.24451122     17.67460674     29.08243876
 H     43.72045664     16.85248889     29.49432050
 H     44.28355756     17.38024524     31.91097856
 H     45.77546660     18.17569471     31.35444085
 H     46.23931410     15.67280150     30.57045339
 H     44.64560565     15.27064843     31.25355877
 H     45.73938676     15.97911976     33.48608132
 H     47.23296086     16.31953492     32.57964843
 H     46.78601457     13.60933672     32.31243409
 H     45.33959545     13.91437320     33.30394361
 H     46.98504530     14.64879760     35.12083487
 H     48.30992566     14.19631402     34.02164549
 H     47.76071109     11.89810530     34.04367603
 H     46.25765880     12.19665211     34.94919813
 H     48.27347006     12.85271813     36.68950069
 H     49.36544347     12.40847792     35.35589228
 H     48.52063816     10.08498151     35.47302564
 H     47.43637988     10.55187473     36.80518981
 H     49.53505136     11.06495058     38.12575891
 H     50.50451365     10.57182333     36.71677521
 H     49.89699957      8.38988986     36.58021977
 H     48.82149740      8.52751692     37.99182189
 H     50.67498481      9.05407116     39.46073922
 H     51.81233155      8.93179209     38.09701018
 H     51.35296099      6.61060768     37.73286597
 H     50.19004908      6.60048219     39.08038221
 H     52.56906694      7.17813939     40.27525760
 H     53.25818255      7.07860870     38.63712452
 H     52.48542507      4.60315790     38.80670923
 H     51.87010323      4.97478811     40.43506321
 H     54.29586406      5.37437472     41.05265690
 H     54.75479720      5.11265471     39.35290701
 H     53.86665576      2.70044077     39.88727030
 H     53.51195725      3.28151410     41.53190078
 H     55.50292790      3.87911973     42.29350285
 H     56.31416166      3.23007563     40.84819727
 H     55.43573260      0.98320869     41.38882665
 H     54.63064835      1.64906790     42.82991565
 H     56.17424745      2.37574693     44.10695428
 H     57.47310447      1.88288388     42.99415459
 H     57.19446560     -0.34139208     42.96765261
 H     55.82663570     -0.26280424     44.10393250
 H     57.89451981      0.68580813     45.57388937
 H     58.88185436      0.42801788     44.11547196
 H     58.65817382     -1.86038422     43.97826022
 H     57.63818090     -1.90844093     45.43619426
 H     59.43401494     -0.97391393     46.80906473
 H     60.53337894     -1.09729121     45.41463169
 H     60.83380162     -3.09144942     45.00994963
 H     59.45874402     -3.66632941     45.98308697
 H     61.53814627     -2.65890282     47.64236499
 H     62.33103022     -2.35098021     46.07878404
 H     62.08179587     -5.06676335     46.17657256
 H     61.30901104     -4.79735487     47.75723360
 H     63.23635347     -3.80769163     48.74483537
 H     64.17453199     -4.11906500     47.26458730
 H     63.63445637     -6.60219466     47.85850995
 H     62.74650047     -5.99565197     49.27692702
 H     65.28616478     -5.21274041     49.78097586
 H     65.69620453     -5.97613466     48.22618864
 H     65.23212226     -8.08322218     48.52696817
 H     64.70755598     -7.82612262     50.20833568
 H     66.59161590     -7.10187697     51.15898751
 H     67.50562920     -7.23054145     49.63705066
 H     67.25426665     -9.57081816     49.43982941
 H     66.32003179     -9.63830984     50.95340688
 H     68.60853838     -8.77609959     51.92917234
 H     69.23808891     -8.81796361     50.26478651
 H     69.25235459    -10.67822683     49.49198600
 H     68.60212085    -11.43212489     50.96748607
 H     70.86599356    -10.51688259     51.94910694
 H     71.21271446     -9.87207952     50.32667657
 H     71.24699404    -12.16379976     49.42381311
 H     70.90025398    -12.80812638     51.04642865
 H     73.00105983    -11.94081354     51.91240899
 H     73.40165508    -11.27564059     50.31074265
 H     73.46957428    -13.44729149     49.28460985
 H     73.07466712    -14.22098028     50.83822520
 H     75.27148620    -13.16031740     51.66938503
 H     75.56500721    -12.65642256     49.98765911
 H     75.63910830    -14.63695310     48.94699126
 H     75.36572821    -15.53249108     50.46077517
 H     77.15494208    -15.00487204     51.65455892
 H     77.82558575    -13.98561450     50.35855822
 H     78.08972377    -15.69478793     48.79090013
 H     77.44932866    -16.90488962     49.92835988
 H     78.61264322    -17.09044421     51.57394709
 H     79.79936105    -15.88313318     51.02406752
 H     80.32822592    -17.35739118     49.09318732
 H     79.16729267    -18.25737028     49.28023593
 H     78.15182385    -18.99990566     49.50009468
 H     78.96313805    -19.42975390     51.02497711
 H     80.80021079    -20.36904527     49.48814099
 H     79.82584555    -19.84991135     48.09193935
 H     78.01145553    -20.93386964     48.14849476
 H     78.46639130    -21.83201338     49.61636326
 H     80.30252077    -22.93540122     48.70001904
 H     80.04491129    -22.15916196     47.11908368
 H     77.99353559    -23.45769544     46.86233165
 H     78.01128634    -23.92055570     48.58096831
 H     80.16403936    -25.19570883     47.37390881
 H     79.59988404    -24.37355823     45.89943811
 H     77.49097777    -25.62942641     45.98769357
 H     78.04323101    -26.45901146     47.46250599
 H     79.70587437    -27.07721210     45.23078810
 H     78.58964401    -25.97766694     44.38621905
 H     76.92869177    -27.94993346     45.09401094
 H     78.34395356    -28.72875639     45.84149709
 H     79.48422879    -29.25639896     43.99489830
 H     78.51842360    -28.19323738     42.94362552
 H     76.61985974    -29.84403158     43.34170032
 H     77.71542947    -30.79616624     44.37195912
 H     78.82164555    -30.86824944     41.85107508
 H     77.43432110    -29.85506946     41.38517394
 H     75.76680834    -31.38546631     41.84679826
 H     76.95195221    -32.60659079     42.36886692
 H     77.53438770    -32.20703738     39.73583574
 H     76.20078218    -31.02848373     39.76366131
 H     74.51961148    -32.59695214     40.25753657
 H     75.70282467    -33.92665877     40.26992466
 H     76.43025729    -33.90070705     38.16220257
 H     75.36109488    -32.54703692     37.72318594
 H     73.40251366    -34.00751892     38.39118612
 H     74.55234680    -35.36374797     38.47360681
 H     75.13937625    -35.08519132     36.12589842
 H     74.00129009    -33.72326069     35.99109657
 H     72.09211601    -35.09372040     36.47071628
 H     73.13033333    -36.53094173     36.62808952
 H     73.71056465    -36.67371514     34.41537403
 H     73.12147076    -35.03549203     34.04461790
 H     70.86738494    -36.50987038     34.75062626
 H     72.00504428    -37.87479972     34.64590871
 H     72.52903758    -37.55636619     32.37325171
 H     71.42994735    -36.15999781     32.27116015
 H     69.68157195    -38.06217881     32.92726553
 H     71.04304511    -39.19474770     32.74853335
 H     71.07952566    -38.39147059     30.31075068
 H     69.71275756    -37.31788094     30.69496013
 H     68.33491502    -39.32678418     31.18538182
 H     69.72647958    -40.36515688     30.79346742
 H     69.61055796    -39.46321870     28.45515324
 H     68.22358225    -38.45577476     28.93434188
 H     66.70123194    -39.96247947     29.48280318
 H     67.78342369    -41.32288686     29.10015528
 H     67.48841939    -39.95073543     26.72320902
 H     66.31868018    -38.97680828     27.64594557
 H     64.82958105    -40.65165560     28.16413563
 H     65.78605141    -41.85644826     27.26864372
 H     65.51184102    -40.77445179     25.16851007
 H     64.52844892    -39.49426380     25.91839362
 H     63.07381520    -41.77789990     26.29477358
 H     64.41095462    -42.59629481     25.45182959
 H     63.78699588    -41.19670794     23.43512582
 H     62.48461555    -40.45308011     24.39381753
 H     61.13262528    -42.01772980     24.90300349
 H     62.07575910    -43.25750373     24.04176841
 H     61.46065350    -41.68840781     21.99620767
 H     60.52711708    -40.71702004     23.15947127
 H     59.03189623    -42.52158736     23.67266488
 H     59.88624966    -43.58842254     22.53239756
 H     59.06863975    -41.86492226     20.77693802
 H     58.29905448    -40.96722451     22.10740558
 H     56.80799571    -42.81881102     22.59689700
 H     57.53298861    -43.77064777     21.27907350
 H     57.15241873    -42.74758612     19.47124790
 H     56.25651801    -41.43564195     20.27401252
 H     54.65414957    -43.42280566     20.88469119
 H     55.77090112    -44.49078588     20.00120326
 H     55.34645511    -43.35290481     17.90722483
 H     54.21269797    -42.24601985     18.71819160
 H     52.64850746    -43.78404243     19.38038907
 H     53.56353980    -45.12439414     18.64933519
 H     53.26834949    -44.13177572     16.42232912
 H     52.35129865    -42.78582327     17.14044920
 H     50.49727425    -43.59807281     16.82978225
 H     51.18438986    -45.45703723     17.40188396
 H     51.03042729    -44.76093608     15.08948230
 H     50.42167995    -43.16543210     15.59153847
 H     48.42505345    -44.32648418     16.55381228
 H     49.09788347    -45.88648580     16.02281193
 H     48.75218195    -44.73103609     13.66664415
 H     48.12989289    -43.31848134     14.55304817
 H     46.24299013    -44.79691998     15.31518465
 H     46.99333156    -46.17034654     14.46727316
 H     46.80444717    -45.32978373     12.31720492
 H     46.01851692    -43.84542916     12.90650266
 H     44.04011914    -44.70424155     13.41143455
 H     44.75253205    -46.53195355     13.25699759
 H     44.07207629    -44.40209815     11.27721681
 H     43.69638577    -43.58889493     12.81534028
 H     41.96653964    -45.09105370     13.41462411
 H     42.20448365    -46.02218337     11.91640956
 H     41.34418469    -43.28755963     11.50681780
 H     41.42369612    -43.27777834     13.28497666
 H     39.71044968    -44.92223023     13.52936069
 H     39.52126820    -45.03202480     11.76288901
 H     38.79959289    -42.51081085     12.13046860
 H     39.10692255    -42.77204861     13.86412658
 H     37.17987398    -44.48472067     13.65318235
 H     37.06609383    -44.05609779     11.92934849
 H     36.33505627    -41.77569860     12.73178666
 H     36.67411681    -42.26363427     14.40964941
 H     34.69982673    -43.91879976     13.93518227
 H     34.61075075    -43.22334189     12.29912895
 H     33.99755493    -41.05297137     13.56198121
 H     34.15268029    -41.96305757     15.08380442
 H     32.12481431    -43.23203366     14.32712456
 H     32.25460893    -42.50315631     12.70843441
 H     31.77192370    -40.32456251     13.32007427
 H     31.57343297    -40.78773643     15.02721751
 H     29.74756706    -42.20745425     14.69972444
 H     29.74980767    -41.88721784     12.94880745
 H     29.26487497    -39.55655020     13.23457222
 H     29.23344308    -39.75259609     15.00342629
 H     27.17873179    -41.31028560     14.22323666
 H     27.60018625    -40.82877750     12.56227527
 H     27.05813870    -38.48452590     13.12026867
 H     26.63998419    -38.97895577     14.77826522
 H     24.90476631    -40.33804603     14.40880903
 H     24.98316162    -40.09186109     12.64769750
 H     24.49270067    -37.73307730     12.85986257
 H     24.39425572    -37.89384801     14.62981399
 H     22.36607462    -39.46019516     13.82996281
 H     22.83491961    -39.02509049     12.16889840
 H     22.41653571    -36.76091615     12.30770522
 H     20.90974602    -37.65031303     13.32868728
 H     20.05426339    -38.38858263     12.67046062
 H     20.96297162    -37.96367217     11.20009770
 H     20.36889690    -35.57573005     11.60515255
 H     19.47584984    -36.05991623     13.06676035
 H     17.96265206    -37.28257846     11.37072944
 H     19.08189254    -36.78962696     10.07745212
 H     18.67262311    -34.44950777     10.39651328
 H     17.44041888    -34.82291269     11.62554060
 H     15.94787915    -35.97762915     10.46668625
 H     16.88050771    -35.83359175      8.95747326
 H     16.73577288    -33.49386532      8.81442159
 H     15.78022625    -33.41641207     10.31415433
 H     13.96624947    -34.68231226      9.33181202
 H     14.85805366    -34.80236737      7.79605855
 H     14.84137588    -32.43768765      7.43061811
 H     13.94406872    -32.18097500      8.94627148
 H     12.04580403    -33.46274461      8.02485930
 H     12.95206039    -33.71372873      6.51357738
 H     12.81374732    -31.14812780      6.31425544
 H     11.92047445    -31.13037261      7.85374074
 H     10.14414077    -32.46595019      6.58544533
 H     11.17920939    -32.38482522      5.13965200
 H     10.52488229    -29.77971616      5.67043252
 H      9.61528185    -30.44330975      7.04903227
 H      8.10250561    -31.67685328      5.70166039
 H      8.89798203    -31.10080012      4.21719190
 H      8.17662131    -28.77817209      4.90653364
 H      7.42021181    -29.47593859      6.35885359
 H      5.88954778    -30.85105115      5.23456378
 H      6.36701643    -30.13565440      3.67619994
 H      5.46265806    -27.97240347      4.92654356
 H      5.12802007    -29.03424853      6.31534489
 H      3.49293500    -30.27763311      4.93001387
 H      3.84730100    -29.20153839      3.55716589
 H      3.18007496    -27.22781558      4.34011112
 H      2.67071171    -27.92395560      5.89709693
 H      0.98044608    -29.27203368      4.62205462
 H      1.55564324    -28.52599440      3.11180951
 H      1.09932320    -26.40097532      3.38009907
 H      0.38662666    -26.66206387      4.99011866
 H     -1.37008730    -28.06538325      3.93432098
 H     -0.62709270    -27.78140417      2.34197002
 H     -0.93086466    -25.50312096      2.24327302
 H     -1.72967460    -25.47927453      3.83374487
 H     -3.62249436    -26.63094542      3.13421237
 H     -2.87417628    -27.11262444      1.59269621
 H     -3.35653538    -24.30043177      1.70463497
 H     -3.97951598    -24.70722827      3.32163170
 H     -5.68664649    -26.04801169      1.75765480
 H     -4.75484967    -25.41294998      0.38044096
 H     -4.81532614    -23.12863903      0.93386329
 H     -5.85360317    -23.21378686      1.64067472
 H     -4.54099720    -23.96318413     -1.05449653
 H     -3.69150725    -23.07630338      0.23394285
 H     -5.25983616    -21.24353300      0.22770134
 H     -5.96327704    -21.89632494     -1.27139849
 H     -4.15314458    -21.86235560     -2.61678541
 H     -3.12061415    -21.18363851     -1.33557868
 H     -4.72008961    -19.16799534     -1.48024321
 H     -5.61410203    -20.03705369     -2.75057625
 H     -2.93332547    -19.44182091     -3.54410747
 H     -2.85990743    -18.72707669     -1.91560596
 H     -4.70777059    -17.17670330     -3.05621648
 H     -4.48429800    -18.16501925     -4.51962287
 H     -2.12303389    -17.30569264     -4.59496410
 H     -2.43476001    -16.37477019     -3.11021601
 H     -4.04975647    -15.04017307     -3.50916372
 H     -3.94196710    -15.36272587     -5.25633510
 H     -1.67540643    -14.65570423     -5.42317471
 H     -1.62959278    -14.28019601     -3.68387561
 H     -3.21785553    -12.62252999     -3.65860210
 H     -3.48202958    -12.76252845     -5.41327562
 H     -1.09832308    -11.82675386     -5.52774153
 H     -0.91338962    -12.10988799     -3.78020002
 H     -2.80147877    -10.11936370     -4.00886757
 H     -2.55725232    -10.30595156     -5.76209462
 H     -0.39468303     -9.69970552     -5.94130463
 H     -0.25778651     -9.39127762     -4.19362095
 H     -2.10807457     -7.57645076     -5.04796803
 H     -1.85948084     -8.29291390     -6.65829358
 H      0.50858993     -7.60398115     -6.61692678
 H      0.21912058     -6.77660955     -5.06775591
 H     -1.23677483     -5.26873327     -5.44442353
 H     -1.35794353     -5.66797248     -7.17479715
 H      1.23021676     -4.82888033     -6.81880537
 H      0.76838468     -4.62119425     -5.11239267
 H     -0.88903843     -3.14228016     -5.22133984
 H     -0.55181625     -2.83766472     -6.94231552
 H      1.73237531     -2.12011328     -6.37201656
 H      1.39866738     -2.42352939     -4.65014422
 H     -0.25103152     -1.07892287     -4.16379827
 H     -0.18086913     -0.30590501     -5.76560578
 H      2.01732920      0.47969157     -5.56261728
 H      2.16410657     -0.21391301     -3.92993979
 H      0.59996076      0.94115561     -2.82277502
 H      0.15523496      1.87934988     -4.26855409
 H      2.71556265      2.62073724     -3.87409296
 H      2.69483483      1.51630180     -2.47836397
 H      1.08064219      2.61943257     -1.24324141
 H      0.90307964      3.87621178     -2.49113733
 H      2.95812192      4.78496387     -2.46739004
 H      3.51535955      3.68198461     -1.18630079
 H      1.80800427      4.70574358      0.32535485
 H      1.29970853      5.77785794     -1.00147329
 H      3.03483590      7.07775083     -1.23811214
 H      4.09955722      6.06672330     -0.23190216
 H      2.18724533      7.19913477      1.44831405
 H      1.57351130      7.94164003     -0.04844350
 H      3.39020737      9.22252712     -0.57792638
 H      4.22799215      8.69448935     -0.07021675
 H      5.23690229      7.98590518      0.31046320
 H      4.71048086      8.33992294      1.97353823
 H      4.94572023     10.62860260      1.90636298
 H      5.51660591     10.58129302      0.22109802
 H      7.48932063      9.26713897      1.00300031
 H      6.86501575      9.34804005      2.66792225
 H      7.22377007     11.89485198      2.36375957
 H      7.80964935     11.55464801      0.71777251
 H      9.67802936     10.28102135      2.02690158
 H      8.85865741     10.77129329      3.52907657
 H      9.42735170     13.15908886      2.77544211
 H     10.19789836     12.46640961      1.32812737
 H     11.82903586     11.36850794      2.93627998
 H     10.95352370     12.12781123      4.28728096
 H     11.51606825     14.35388579      3.51370145
 H     12.41222988     13.66737397      2.13752467
 H     14.02959255     12.54136968      3.03548843
 H     13.53783178     12.96731482      4.69229523
 H     14.16677611     15.36944172      3.62430817
 H     14.53687832     14.46974733      2.13372405
 H     16.29108324     13.20943157      3.00695987
 H     16.11800637     13.97936944      4.60242429
 H     16.63766805     16.18086652      3.52272201
 H     16.95201177     15.31091305      2.00198677
 H     18.69771648     14.04953524      2.59575699
 H     18.63019878     14.57813738      4.29407611
 H     19.10568770     16.73371509      4.14365681
 H     19.29051796     16.65842234      2.37491844
 H     20.86199725     15.39569679      1.89519857
 H     21.24668424     15.03641930      3.59555214
 H     21.73730363     17.63460025      3.58008201
 H     21.26826948     17.62178187      1.86307610
 H     23.25502029     16.10185147      1.48683370
 H     23.61654422     16.19358384      3.22727971
 H     23.95006660     18.74163041      2.53105654
 H     23.52041729     18.24153926      0.87770329
 H     25.60979666     16.81170924      0.93544155
 H     26.05097813     18.28042591      2.31864248
 H     25.78486267     19.77532345      1.78052281
 H     25.97534784     19.42886364      0.51074447
 H     26.77849964     19.13841253      3.49398256
 H     25.51793661     20.09244332      3.00077482
 H     28.65609348     19.83847162      2.69460468
 H     27.93333481     18.54465377      3.68046570
 H     27.52665177     21.00175362      4.97585573
 H     28.38621293     21.66496635      3.56533450
 H     30.39300013     20.71144366      3.77693236
 H     29.80099180     20.76439721      5.75910178
 H     29.52307902     21.70132527      6.58307693
 H     29.95524528     22.81283395      5.26169604
 H     32.22129172     22.02204703      5.16425564
 H     31.90295658     20.87145375      6.48450733
 H     31.68413273     23.45978923      7.49049728
 H     31.88324034     23.96362274      5.79498125
 H     34.23817999     22.69504407      6.71398858
 H     33.30790704     22.53087523      8.22259969
 H     33.06367526     24.77163793      8.69429902
 H     33.97643642     25.23916560      7.23946171
 H     36.00549619     24.30059706      7.94899238
 H     35.25256070     23.61582040      9.40927857
 H     34.98625476     26.21099939      9.91699942
 H     35.78352050     26.49929136      8.35190462
 H     37.40273455     25.14279117     10.35507559
 H     35.89960784     25.32897142     11.29006954
 H     36.33610312     27.84341578     11.05704491
 H     37.80726909     27.45535676     10.13327679
 H     38.92980683     26.35195786     11.84367341
 H     37.58138960     26.62073409     12.97407024
 H     37.61821850     28.89874732     13.04806832
 H     38.99466505     28.98057715     11.92247273
 H     40.52919774     28.00725132     13.37109428
 H     39.26666350     27.54681852     14.53825989
 H     38.64728250     29.78521364     15.06727155
 H     40.02948125     30.38553171     14.11995350
 H     41.79421260     29.68411789     14.85606873
 H     41.02330370     28.77854905     16.18042186
 H     40.08812881     30.52143400     17.31456981
 H     40.73102974     31.70902097     16.15500858
 H     42.80002945     31.66621522     16.18865656
 H     42.87103945     30.40728511     17.44496831
 H     41.77100663     31.88261857     19.05010501
 H     41.33457684     32.19368413     18.73863586
 H     40.12642257     32.50775656     18.31641188
 H     40.90292300     33.67986378     17.22486326
 H     41.71174809     34.76709361     19.42532431
 H     40.85706255     33.47956032     20.30852154
 H     38.70832552     34.08816840     19.54813527
 H     39.38072444     35.43621673     18.60002554
 H     39.95986008     36.05751575     21.20480939
 H     39.14840628     34.52228550     21.59580488
 H     37.26842476     34.69204657     21.68170541
 H     37.14887147     35.68884084     20.21188404
 H     37.51635442     36.45206006     21.77736141
1502
Final Conformation Chain 6 (Simulation Frame 7)
 C      0.00000000      0.00000000      0.00000000
 C      1.54000000      0.00000000      0.00000000
 C      2.16637443     -0.93384196     -1.05223299
 C      3.62100867     -1.33615968     -0.74599830
 C      4.35808920     -1.97564087     -1.93737402
 C      4.89662721     -0.95798523     -2.96009285
 C      5.81147597     -1.57423889     -4.03474776
 C      6.30681171     -0.56644130     -5.08859144
 C      6.98038970     -1.21814193     -6.31054847
 C      7.75010104     -0.22766379     -7.20391151
 C      7.84399000     -0.65777559     -8.67964478
 C      8.58124208      0.35063051     -9.58029816
 C      8.84719707     -0.16222800    -11.00782893
 C      9.88941767      0.66256918    -11.78570155
 C     10.17967337      0.13023862    -13.20132007
 C     11.16094330      1.00022428    -14.00868262
 C     11.22077805      0.65075342    -15.50731197
 C     12.28700885      1.43762788    -16.29190134
 C     11.86753023      1.79907920    -17.72890887
 C     12.92726476      2.59999866    -18.50806916
 C     12.62760350      2.73745253    -20.01236619
 C     13.67824378      3.55329714    -20.78835110
 C     13.12547084      4.25359858    -22.04358812
 C     14.20774372      4.66603093    -23.05856840
 C     13.67132858      5.48209570    -24.24932324
 C     14.61245463      5.50440088    -25.46808664
 C     15.82714734      6.43679818    -25.30451132
 C     16.87897136      6.29688013    -26.42061578
 C     18.03090124      7.31465882    -26.32689221
 C     18.80048919      7.26863726    -24.99376941
 C     19.92673537      8.31323504    -24.88429326
 C     21.07960945      7.89601920    -23.95240684
 C     22.15716019      8.98015816    -23.76498458
 C     23.44917114      8.47071753    -23.09956896
 C     24.59337607      9.50130282    -23.08256704
 C     25.84197606      9.03827703    -22.30912979
 C     27.07698802      9.93386192    -22.51954170
 C     28.28923378      9.54258037    -21.65411755
 C     29.43491412     10.57136052    -21.67917673
 C     30.68819820     10.13229198    -20.89937044
 C     31.98296447     10.83549293    -21.34735339
 C     33.21756852     10.47310618    -20.50116860
 C     34.55555181     10.62467150    -21.24844946
 C     35.78354037     10.18477929    -20.42982933
 C     37.10154066     10.18891243    -21.22635814
 C     38.36504809     10.14772024    -20.34689684
 C     39.68324361     10.17325766    -21.14270361
 C     40.08933931      8.80707660    -21.72600077
 C     40.97433456      8.90068167    -22.98283071
 C     41.24666928      7.54441897    -23.65957682
 C     41.71907797      6.44458094    -22.69066695
 C     41.93308857      5.07266812    -23.35674104
 C     42.54917740      4.01301902    -22.42444369
 C     42.54267170      2.58712440    -23.00614998
 C     43.27418123      1.55096639    -22.13272548
 C     43.64507654      0.25465772    -22.87678227
 C     44.59021092     -0.67132335    -22.08882285
 C     44.89253839     -2.00579869    -22.79548660
 C     45.83305010     -2.93422808    -22.00488141
 C     46.58201890     -3.95804621    -22.87806077
 C     46.86185226     -5.29771767    -22.17196329
 C     47.44421487     -6.38322378    -23.09615497
 C     47.45392036     -7.79343007    -22.47742722
 C     48.05581870     -8.87521074    -23.39343430
 C     47.63089959    -10.31033674    -23.03086415
 C     48.17975404    -11.38633683    -23.98615604
 C     47.37887955    -12.70165616    -23.97453281
 C     48.16372999    -13.91756071    -24.50101731
 C     47.40282789    -15.25155918    -24.38666665
 C     48.16645064    -16.45943218    -24.96070769
 C     47.43729484    -17.80402681    -24.78183029
 C     48.14495364    -18.99472815    -25.45491969
 C     47.67282534    -20.37086809    -24.95001009
 C     48.26148025    -21.56037855    -25.73113125
 C     47.40232720    -22.83695882    -25.66949640
 C     47.92913509    -23.98938791    -26.54469959
 C     46.98266886    -25.20187688    -26.62001346
 C     47.67531603    -26.51213345    -27.03842426
 C     46.70086916    -27.65786461    -27.36911053
 C     47.39149007    -29.00333508    -27.65954463
 C     46.46108308    -30.06497773    -28.27505883
 C     47.14710160    -31.41639541    -28.54827822
 C     46.24438111    -32.44593122    -29.25308437
 C     46.88446915    -33.83800149    -29.40809298
 C     45.88214365    -35.00291205    -29.30845872
 C     45.53557876    -35.40923555    -27.86402320
 C     45.07040655    -36.87009612    -27.71876072
 C     44.55963263    -37.22774281    -26.31064181
 C     44.09550864    -38.68890658    -26.16507611
 C     43.71202892    -39.08398904    -24.72686432
 C     43.23025589    -40.53974752    -24.58451965
 C     42.67859609    -40.88328411    -23.18836275
 C     42.19534782    -42.33859982    -23.04649204
 C     41.79638720    -42.72902852    -21.61122347
 C     41.94962053    -44.23047232    -21.30497838
 C     41.54293634    -44.62220428    -19.87223485
 C     41.23142636    -46.12014849    -19.69695030
 C     40.71137015    -46.49201602    -18.29593064
 C     40.29178482    -47.96700543    -18.15467067
 C     39.70629448    -48.32233672    -16.77534448
 C     39.33554368    -49.80855065    -16.61624701
 C     38.73982512    -50.16174094    -15.24075582
 C     38.36497059    -51.64709093    -15.08321383
 C     38.12975012    -52.08247361    -13.62488833
 C     37.85080792    -53.58775830    -13.45782766
 C     37.49424594    -54.00274108    -12.01829550
 C     36.44330868    -55.12510250    -11.93206493
 C     36.02959695    -55.48663966    -10.49340810
 C     34.81291904    -56.42695092    -10.40908969
 C     34.10892667    -56.41907929     -9.03944274
 C     32.70062540    -57.04200109     -9.05544199
 C     31.82333613    -56.63796900     -7.85597477
 C     30.42897483    -57.29167820     -7.85140781
 C     29.52684974    -56.83493633     -6.68987556
 C     28.04553045    -57.22092447     -6.85812034
 C     27.20061987    -57.03264228     -5.58443437
 C     25.76869687    -57.58853519     -5.69479558
 C     24.96588639    -57.51634583     -4.38258980
 C     23.45993711    -57.78910605     -4.55381664
 C     22.60842211    -57.38978572     -3.33436370
 C     21.09067650    -57.51957426     -3.56064494
 C     20.24779295    -57.31319493     -2.28842056
 C     18.74878247    -57.08768886     -2.55992490
 C     17.85487351    -57.25610667     -1.31728167
 C     16.35627689    -57.02692280     -1.58798984
 C     15.46853503    -57.14273822     -0.33495306
 C     13.98331497    -57.40995242     -0.64206529
 C     13.13855038    -57.75140976      0.59945784
 C     11.62287206    -57.57157091      0.39457447
 C     10.75955414    -58.26317068      1.46600899
 C      9.35289270    -57.65668308      1.62436423
 C      8.70618392    -57.92430640      2.99613153
 C      7.33851820    -57.24278954      3.18750874
 C      6.90875340    -57.10325876      4.65972930
 C      5.70396957    -56.16842908      4.87464644
 C      5.40405219    -55.86319378      6.35399798
 C      4.20578310    -54.91993258      6.56849621
 C      3.91903683    -54.59774156      8.04686339
 C      2.67553369    -53.71611216      8.26601982
 C      1.40274499    -54.24678225      7.58045569
 C      0.11345475    -54.02011060      8.39159727
 C     -1.12552553    -54.72463550      7.80835416
 C     -2.46298295    -54.07898187      8.21571033
 C     -2.88089102    -54.36787693      9.66949590
 C     -4.31965524    -53.93368918     10.00570789
 C     -4.76722081    -54.30027383     11.43290821
 C     -6.10919114    -53.67024541     11.84977727
 C     -6.56812756    -54.05540674     13.26844853
 C     -7.94122956    -53.47893125     13.66070725
 C     -8.45333159    -53.95827490     15.03168543
 C     -9.39018935    -52.95856288     15.73487347
 C     -9.68285255    -53.30338475     17.20696251
 C    -10.85736894    -52.51350022     17.81375214
 C    -11.03369729    -52.71906917     19.32975007
 C    -12.26907903    -52.01252390     19.91815956
 C    -12.28829836    -51.96260556     21.45723032
 C    -13.40389780    -51.07609433     22.04129858
 C    -13.40629629    -51.00452304     23.57963268
 C    -14.05993376    -49.73049718     24.14639201
 C    -13.80364128    -49.51024872     25.64885824
 C    -14.42937342    -48.21911399     26.20834944
 C    -14.23786430    -48.03660654     27.72545698
 C    -14.95819472    -46.80452738     28.30399397
 C    -14.90089197    -46.70934844     29.83998140
 C    -15.76722501    -45.58131561     30.43041261
 C    -17.08154102    -46.06916631     31.06773130
 C    -17.84349368    -44.97920916     31.84427593
 C    -19.31550228    -45.32835469     32.13217879
 C    -20.00317054    -44.37306229     33.12521896
 C    -21.49772662    -44.67040799     33.34767718
 C    -22.04687871    -44.15058866     34.68925082
 C    -23.58358205    -44.17219738     34.78761695
 C    -24.13098070    -43.69776563     36.14661262
 C    -25.66510595    -43.76609907     36.26232902
 C    -26.21613029    -43.24313989     37.60191323
 C    -27.75086975    -43.30306097     37.71409288
 C    -28.49122991    -42.70691222     36.50245205
 C    -30.02581550    -42.78328701     36.60644217
 C    -30.76129936    -42.40358585     35.30779267
 C    -32.18243926    -42.98684985     35.19932832
 C    -32.81389035    -42.84231361     33.80219597
 C    -34.35375995    -42.82371338     33.80965706
 C    -34.98365301    -42.55715345     32.42988153
 C    -36.32737913    -41.80715778     32.48909836
 C    -37.06100211    -41.72865765     31.13734578
 C    -38.34165942    -40.87393459     31.16841573
 C    -39.13897502    -40.89211556     29.85101022
 C    -40.55236358    -40.29150843     29.96591827
 C    -41.30990185    -40.21205832     28.62747759
 C    -42.56994744    -39.32782743     28.67243168
 C    -43.09888139    -38.92010966     27.28477355
 C    -44.34479872    -38.01610154     27.33015325
 C    -44.69157828    -37.35927424     25.98110847
 C    -46.08076485    -36.69553376     25.94633406
 C    -46.27465803    -35.70916464     24.77968012
 C    -47.67635095    -35.07383801     24.72296120
 C    -47.79050240    -33.89529278     23.73827822
 C    -49.23921722    -33.46733906     23.43881037
 C    -49.35283280    -32.27716949     22.46814673
 C    -50.74806416    -32.11474737     21.83683974
 C    -50.83723244    -30.98197687     20.79737833
 C    -52.23476941    -30.81358985     20.17276948
 C    -52.36193213    -29.59338822     19.24188945
 C    -53.75547664    -29.43290504     18.60637481
 C    -53.91075369    -28.16255901     17.74980608
 C    -54.93560675    -28.29814719     16.60836311
 C    -55.00857329    -27.06945617     15.68283932
 C    -53.65800424    -26.67646408     15.05584613
 C    -53.78171748    -25.75276555     13.82984610
 C    -52.54195882    -24.87402853     13.58000672
 C    -52.60416496    -24.05974768     12.27437388
 C    -51.50068197    -22.99296161     12.14830737
 C    -51.84176164    -21.85120427     11.17277939
 C    -50.82949614    -20.69073916     11.18824769
 C    -50.99979097    -19.69546048     10.02548373
 C    -50.06757665    -18.47233210     10.10631329
 C    -50.23773143    -17.47715316      8.94344346
 C    -49.28944960    -16.26567939      9.01194801
 C    -49.40956436    -15.30758781      7.81226765
 C    -48.77353213    -15.84379756      6.51629616
 C    -48.72870002    -14.81722943      5.36923559
 C    -48.41373086    -15.43018195      3.99203421
 C    -48.11282710    -14.38966395      2.89732913
 C    -47.34483611    -14.95626142      1.68871126
 C    -47.21796823    -13.97301456      0.51026730
 C    -46.74029994    -14.62480492     -0.80068743
 C    -46.34563024    -13.61527671     -1.89462007
 C    -45.65523357    -14.25211320     -3.11502645
 C    -45.43072787    -13.27819468     -4.28664069
 C    -45.09501508    -13.97015927     -5.62083779
 C    -44.98428599    -13.00559683     -6.81622826
 C    -44.59460944    -13.69021645     -8.13950003
 C    -43.73625773    -12.81287198     -9.06960702
 C    -43.96890879    -13.07546834    -10.56911249
 C    -43.23875434    -12.08825794    -11.49856938
 C    -43.57339614    -12.26867035    -12.99090521
 C    -43.39797943    -10.99009749    -13.83119113
 C    -43.86664626    -11.13098380    -15.29136319
 C    -44.18920710     -9.79068549    -15.97777047
 C    -44.34402748     -9.89123559    -17.50666561
 C    -43.98394187     -8.59676585    -18.25918567
 C    -44.38442922     -8.60461904    -19.74617868
 C    -43.98652040     -7.32724498    -20.50879528
 C    -44.30250986     -7.37308695    -22.01533076
 C    -43.61411062     -6.26496462    -22.83372638
 C    -43.96017851     -6.28762005    -24.33416756
 C    -43.19474663     -5.24445887    -25.16934944
 C    -43.53386872     -5.27339359    -26.67126788
 C    -42.81428685     -4.19071083    -27.49685856
 C    -43.32306528     -4.06589346    -28.94501778
 C    -42.74816619     -2.85868413    -29.70904440
 C    -42.65056087     -3.06960190    -31.23140667
 C    -42.26812047     -1.80101272    -32.01627662
 C    -42.48587454     -1.91553381    -33.53649637
 C    -42.25259360     -0.60065590    -34.30348795
 C    -42.21384477     -0.76670007    -35.83401984
 C    -41.68853450      0.47077565    -36.58522085
 C    -41.18582176      0.17204976    -38.00987615
 C    -41.23344980      1.38462631    -38.95802681
 C    -41.17108402      1.01468998    -40.45163239
 C    -40.98052935      2.22196810    -41.38852536
 C    -41.01730812      1.86464287    -42.88604531
 C    -40.84106118      3.07398352    -43.82307904
 C    -40.73590872      2.70138148    -45.31361944
 C    -40.87031805      3.90083341    -46.27009692
 C    -41.08974701      3.50635778    -47.74245555
 C    -41.52467857      4.67518230    -48.64593980
 C    -41.59742456      4.31701276    -50.14194200
 C    -42.08588405      5.46958245    -51.03893166
 C    -42.31382821      5.06680077    -52.50774356
 C    -42.87158481      6.20012387    -53.38870118
 C    -42.94482374      5.85074710    -54.88675723
 C    -43.59637216      6.94405669    -55.75379748
 C    -43.41932978      6.73054162    -57.26861341
 C    -41.96878099      6.89485616    -57.75903051
 C    -41.67249302      6.17842387    -59.08964624
 C    -40.27698860      6.48063401    -59.66656603
 C    -39.94980150      5.70263490    -60.95469102
 C    -38.47273941      5.79058192    -61.38148475
 C    -38.11076598      7.09217773    -62.12068945
 C    -36.60079012      7.39256509    -62.15729983
 C    -36.25019653      8.76890400    -62.75259416
 C    -34.88112374      8.81672787    -63.45612282
 C    -34.69201872     10.03703374    -64.37628198
 C    -33.28832205     10.13851790    -65.00153122
 C    -33.12578557     11.30861438    -65.98948676
 C    -31.72740888     11.39951942    -66.62814073
 C    -31.58438901     12.52958516    -67.66452712
 C    -30.17883850     12.63655253    -68.28467691
 C    -29.73274245     14.08064081    -68.57998582
 C    -28.29922241     14.19303717    -69.13133631
 C    -27.87141483     15.63188918    -69.47526300
 C    -26.40334906     15.75883436    -69.92277593
 C    -26.07392956     17.09217835    -70.61939390
 C    -24.57053890     17.42364115    -70.65875047
 C    -24.21590906     18.61785423    -71.56411934
 C    -22.70757125     18.91858755    -71.64207138
 C    -22.33913328     20.01455710    -72.65927549
 C    -20.83414477     20.33609970    -72.71602006
 C    -20.48221538     21.52845818    -73.62488031
 C    -18.97011291     21.73116029    -73.83478029
 C    -18.61499204     22.52433896    -75.10614049
 C    -17.10354695     22.61196210    -75.38801978
 C    -16.75389825     23.29637774    -76.72253131
 C    -15.25483336     23.60419967    -76.89472345
 C    -14.82622268     23.83313776    -78.35605169
 C    -13.37362399     24.31959989    -78.51388590
 C    -12.73229951     23.94939517    -79.86416416
 C    -11.19409844     24.02369229    -79.86833795
 C    -10.55159688     23.62953148    -81.21125604
 C     -9.03911074     23.90900102    -81.28795309
 C     -8.39537844     23.50882966    -82.62850208
 C     -6.89576162     23.84469693    -82.72821444
 C     -6.32743103     23.75508089    -84.15669941
 C     -4.82346496     24.07181326    -84.25348098
 C     -4.20222701     23.74838060    -85.62499646
 C     -2.69092384     24.03164913    -85.71056314
 C     -2.07769381     23.74725529    -87.09427882
 C     -0.56077655     24.00145405    -87.17138278
 C     -0.03267555     24.21059256    -88.60280530
 C      1.49279715     24.40473173    -88.68552790
 C      2.00809168     24.72091302    -90.10189683
 C      3.46500486     25.21831283    -90.14186432
 C      3.87131092     25.85988517    -91.48160322
 C      5.31284689     26.40119557    -91.50520636
 C      5.79772998     26.83101452    -92.90225470
 C      7.28595763     27.22337360    -92.95547893
 C      7.85794354     27.31879406    -94.38212782
 C      9.34951831     27.69829766    -94.43486992
 C      9.78425163     28.34696769    -95.76221093
 C     11.29991836     28.59737340    -95.87015238
 C     11.86941678     29.48593706    -94.74866846
 C     13.31647322     29.95267626    -94.99317240
 C     14.11964687     30.20480710    -93.70362127
 C     15.55072389     29.63684709    -93.73587009
 C     16.51955682     30.32394936    -92.75563887
 C     17.80813238     29.52516318    -92.48524350
 C     18.71814578     30.14921021    -91.41098052
 C     20.13279156     29.54283477    -91.35915262
 C     21.03145125     30.14238209    -90.26163097
 C     21.97285418     29.12152611    -89.59588808
 C     22.98465252     29.74736385    -88.61803776
 C     23.81126541     28.71647682    -87.82709967
 C     24.98801696     29.32611599    -87.04275543
 C     25.76434477     28.30834427    -86.18656863
 C     27.02325962     28.88661671    -85.51401054
 C     27.84171200     27.85074028    -84.72110719
 C     28.93650345     28.46652513    -83.83012980
 C     29.60672400     27.46067571    -82.87583878
 C     30.59841219     28.10085589    -81.88673622
 C     31.13907249     27.12703136    -80.82327385
 C     31.63308271     27.81520479    -79.53720571
 C     32.25454878     26.85086978    -78.50986064
 C     32.99998054     27.55500953    -77.36089646
 C     33.07763573     26.72738248    -76.06451567
 C     34.00061593     27.33159956    -74.98997890
 C     34.09382430     26.49375204    -73.70121060
 C     34.77997414     27.22071335    -72.52974756
 C     34.78760219     26.42032857    -71.21410094
 C     35.04263110     27.27792120    -69.96066760
 C     34.66105538     26.58499969    -68.63935773
 C     34.87653983     27.45809912    -67.38921220
 C     34.89286910     26.66709176    -66.06798523
 C     35.56565420     27.41215219    -64.90014741
 C     35.67153321     26.58344469    -63.60645753
 C     36.43970223     27.28764007    -62.47260338
 C     36.46515268     26.49965511    -61.14971565
 C     36.94164837     27.32348424    -59.93898966
 C     37.32416158     26.47252259    -58.71377624
 C     37.66762119     27.29835339    -57.46012598
 C     38.47732918     26.52481688    -56.40295322
 C     38.35333622     27.09548591    -54.97797511
 C     38.98197809     26.20532051    -53.88985060
 C     38.64258095     26.63972641    -52.45190029
 C     39.05490094     25.61868864    -51.37529725
 C     38.54244012     25.95631156    -49.96285444
 C     38.83816296     24.86933436    -48.91279322
 C     38.25825433     25.17113312    -47.51843908
 C     38.23933471     23.95670544    -46.57165111
 C     37.50871941     24.21180161    -45.24021308
 C     37.00751289     22.93201982    -44.54555446
 C     36.12579301     23.19401447    -43.31043145
 C     35.52266226     21.92018365    -42.68979601
 C     34.41183897     22.19146484    -41.65825439
 C     33.94334174     20.93698892    -40.89772791
 C     32.84112732     21.21030572    -39.85752538
 C     32.35773987     19.95253200    -39.11191031
 C     31.27080939     20.22895660    -38.05655654
 C     30.73954838     18.96338661    -37.35820539
 C     29.62915861     19.23650874    -36.32668279
 C     29.29550059     18.02902215    -35.43099956
 C     28.03222415     18.21743282    -34.57063102
 C     27.58030508     16.94283937    -33.83389451
 C     26.45365269     17.17705740    -32.81047069
 C     25.99598186     15.90105732    -32.07974419
 C     25.08303978     16.16633562    -30.86823101
 C     24.47361264     14.89313417    -30.25247405
 C     23.38510467     15.16652133    -29.19795528
 C     22.71060009     13.89520776    -28.64986278
 C     21.69825976     14.16061575    -27.52011695
 C     20.89976429     12.91621504    -27.08945252
 C     19.73164643     13.22144997    -26.13345445
 C     19.04777802     11.96669427    -25.55942297
 C     18.09139723     12.25535123    -24.38741063
 C     17.52889784     10.99086038    -23.71194240
 C     16.11977112     11.17225412    -23.11775540
 C     15.45310335      9.85693494    -22.67380775
 C     14.44952368     10.02250054    -21.51751372
 C     13.83554479      8.69826721    -21.02655954
 C     13.24791589      8.76937666    -19.60485784
 C     12.47763443      7.50484920    -19.18149418
 C     11.75003146      7.63747829    -17.83071536
 C     11.06499638      6.34163643    -17.35835869
 C     10.62669509      6.36700769    -15.88226646
 C      9.67655120      5.21988848    -15.49118576
 C      8.99459427      5.41009233    -14.12357571
 C      8.09633366      4.23225618    -13.70235144
 C      7.67795226      4.26227590    -12.22057689
 C      6.65304204      3.17874218    -11.83702284
 C      5.75521700      3.55962668    -10.64520188
 C      5.05955406      2.35950130     -9.97635799
 C      4.24117029      2.72761621     -8.72482317
 C      3.32525855      1.59699375     -8.22044382
 C      2.82484800      1.79301401     -6.77726492
 C      1.82934370      0.71592029     -6.30775421
 C      2.38493892     -0.71912867     -6.36732298
 C      1.61808078     -1.72469102     -5.48847546
 C      2.20342064     -3.14895388     -5.50974861
 C      1.56833742     -4.10260231     -4.48075688
 C      2.32974730     -5.42934708     -4.30298363
 C      1.58437664     -6.46933422     -3.44598344
 C      2.39864026     -7.74479065     -3.16000155
 C      2.53313841     -8.68672358     -4.37089898
 C      3.25058280    -10.01261508     -4.05643867
 C      3.33933540    -10.97623737     -5.25441825
 C      4.02121678    -12.31829658     -4.92958776
 C      4.15350739    -13.26254632     -6.13892296
 C      5.07951878    -14.46836538     -5.89376320
 C      5.46707746    -15.23105235     -7.17427359
 C      6.47660691    -16.37081001     -6.94318324
 C      6.74161929    -17.23518327     -8.18986977
 C      7.46392067    -18.56187003     -7.89023171
 C      7.78733165    -19.39598690     -9.14372857
 C      8.18286049    -20.85331192     -8.84146923
 C      8.85283866    -21.57851177    -10.02333827
 C      9.00082340    -23.09825146     -9.82310888
 C     10.03802593    -23.75452386    -10.75322578
 C     10.16493729    -25.27870937    -10.57335908
 C     11.53187949    -25.84773130    -10.99677739
 C     11.53483389    -27.37188157    -11.21713443
 C     12.54580831    -27.84972227    -12.27600128
 C     12.38971219    -29.33089661    -12.66760899
 C     13.33590945    -29.78376934    -13.79509160
 C     13.30691272    -31.29944454    -14.06617808
 C     14.17887485    -32.12500947    -13.10195581
 C     13.71637305    -33.58412091    -12.93258672
 C     14.39021311    -34.32285577    -11.76134363
 C     13.95228283    -35.79173081    -11.61226920
 C     14.34799069    -36.42995976    -10.26776964
 C     13.64835984    -37.77161607     -9.98128226
 C     13.65710163    -38.17796862     -8.49588629
 C     13.16429619    -39.61372200     -8.23635780
 C     13.72107767    -40.24343583     -6.94598774
 C     13.39497410    -41.74021582     -6.78817101
 C     13.91026364    -42.35851103     -5.47524004
 C     14.12644178    -43.88176842     -5.54272300
 C     14.70060048    -44.49081164     -4.25004820
 C     14.44049823    -46.00124717     -4.09994387
 C     15.19855630    -46.65407031     -2.92914504
 C     15.13892328    -48.19290881     -2.92467584
 C     15.99583379    -48.84977380     -1.82657167
 C     16.14103226    -50.37578260     -1.97426916
 C     17.23516404    -50.99019876     -1.08153828
 C     17.24067969    -52.53012598     -1.06761964
 C     17.75971857    -53.16644633     -2.37042241
 C     19.20190216    -52.76538214     -2.73215988
 C     19.66285404    -53.26433839     -4.11424744
 C     21.13027375    -52.93209756     -4.44272184
 C     21.69092297    -53.70164789     -5.65312043
 C     23.19091501    -53.46273162     -5.90717340
 C     23.70431653    -54.05713718     -7.23182464
 C     25.18723379    -53.75764307     -7.51967821
 C     25.72959301    -54.44164757     -8.78837216
 C     27.15585802    -54.00678847     -9.17342501
 C     27.74141539    -54.77252412    -10.37441273
 C     29.22592139    -54.46771434    -10.64815150
 C     29.75450429    -55.06178700    -11.96696832
 C     31.01787710    -54.36525439    -12.50579247
 C     31.24554790    -54.56170256    -14.01614810
 C     32.37032685    -53.68615499    -14.59914789
 C     32.09651965    -52.17331587    -14.50999965
 C     33.21240258    -51.29833653    -15.11067962
 C     33.14553426    -49.81941562    -14.68650800
 C     34.09428438    -48.89799297    -15.47546523
 C     34.26242889    -49.29103053    -16.95494112
 C     35.22018023    -48.37650538    -17.74104296
 C     35.17109964    -48.58160454    -19.26653483
 C     36.30603310    -47.87452295    -20.03044691
 C     36.37704937    -48.23897813    -21.52501344
 C     37.67318188    -47.78246338    -22.22016436
 H     -0.36333333      0.00000000      1.02766186
 H     -0.36333333     -0.88998127     -0.51383093
 H     -0.36333333      0.88998127     -0.51383093
 H      1.88274777      0.11188877     -1.02864225
 H      1.88274777      0.22624131     -1.00967264
 H      1.82362666     -0.61853013     -2.03772901
 H      1.82362666     -1.94981775     -0.85622999
 H      3.64036235     -1.84429816      0.21811825
 H      4.22310039     -0.42921725     -0.69085318
 H      4.02253215     -1.48531935     -2.85120457
 H      3.81156286     -2.86922238     -2.23890520
 H      5.56898736     -0.27428693     -2.44183764
 H      4.05256867     -0.39995349     -3.36538999
 H      5.24451286     -2.33380549     -4.57299623
 H      6.66078597     -2.04059851     -3.53546705
 H      6.86109473      0.22019530     -4.57666059
 H      5.43776704     -0.13454821     -5.58490759
 H      6.25926816     -1.88365875     -6.78507042
 H      7.83524685     -1.79775076     -5.96216238
 H      8.52249977      0.24922751     -6.60052533
 H      7.04983139      0.52757572     -7.56075280
 H      6.83218433     -0.75856634     -9.07231578
 H      8.34872447     -1.62285702     -8.72392762
 H      9.44654788     -0.14830283    -10.01665970
 H      7.98958894      1.26488582     -9.62702916
 H      7.88931652     -0.39900238    -11.47097335
 H      9.45146223     -1.06686224    -10.94000192
 H     10.65678913     -0.01691028    -12.15657714
 H      9.53309676      1.69056985    -11.85165645
 H      9.22827132     -0.03954460    -13.70541113
 H     10.71563360     -0.81439695    -13.10906900
 H     12.10262810      1.05195172    -13.46219016
 H     10.73772820      2.00065818    -14.09879911
 H     10.22362987      0.77750526    -15.92889170
 H     11.52657113     -0.39095967    -15.60439144
 H     13.26159716      1.22683453    -15.85162440
 H     12.06752199      2.50102394    -16.19643231
 H     10.96217074      2.40406600    -17.67976462
 H     11.65815825      0.87489635    -18.26756409
 H     13.89992072      2.13886908    -18.33660522
 H     12.93620072      3.62027306    -18.12458476
 H     11.66670221      3.23931036    -20.12597698
 H     12.56854677      1.73779482    -20.44282731
 H     14.64513543      3.06304902    -20.67487279
 H     13.72448673      4.55254351    -20.35537503
 H     12.32650493      4.92819149    -21.73589041
 H     12.72139183      3.49231335    -22.71086988
 H     14.74181495      3.76951859    -23.37342323
 H     14.90045144      5.34655436    -22.56344835
 H     13.20258412      6.38654944    -23.86158356
 H     12.92556738      4.88048837    -24.76894700
 H     14.76910875      4.47772743    -25.79899617
 H     15.63038058      5.33246195    -25.11828131
 H     16.39807372      6.10685472    -24.43659406
 H     15.46147871      7.44958603    -25.13525641
 H     16.39979323      6.52217965    -27.37336362
 H     17.86851979      6.32384992    -25.96436306
 H     17.91961140      7.87367178    -25.39779637
 H     17.60721848      8.31759432    -26.37898136
 H     19.21618108      6.26836022    -24.87233589
 H     18.09792521      7.47074234    -24.18527860
 H     20.08980952      8.53211630    -23.82902182
 H     20.50609633      8.29061868    -25.80729347
 H     21.50823371      6.96833609    -24.33159717
 H     20.67096416      7.72689991    -22.95616003
 H     21.66781498      9.89617750    -23.43400145
 H     22.64008416      9.15329508    -24.72670599
 H     23.86518555      7.67781811    -23.72113353
 H     23.19406677      8.06795023    -22.11936477
 H     24.25266892     10.38277829    -22.53940994
 H     24.82318399      9.77531261    -24.11223055
 H     26.21446506      8.12564048    -22.77436786
 H     25.54956379      8.82839106    -21.28027463
 H     26.82737262     10.94384542    -22.19438716
 H     27.31640829      9.94324738    -23.58288071
 H     28.43742811      8.46600638    -21.73853849
 H     28.06767722      9.79870305    -20.61806066
 H     29.04823957     11.52386517    -21.31679891
 H     29.77164447     10.68433170    -22.70968640
 H     31.05359410      9.20173124    -21.33370042
 H     30.40353764      9.96152221    -19.86114789
 H     31.85406951     11.90940005    -21.21241055
 H     32.14298363     10.61863343    -22.40350955
 H     33.37274097      9.39609953    -20.56502924
 H     33.01725620     10.75059974    -19.46629069
 H     34.61505229     11.63921570    -21.64247961
 H     34.56967497      9.91291349    -22.07385910
 H     35.65821017      9.13601272    -20.16060631
 H     35.82634127     10.78977380    -19.52415294
 H     37.27785070     11.20049220    -21.59203717
 H     36.99276664      9.51048599    -22.07252939
 H     38.33262017      9.24115167    -19.74259405
 H     38.35658987     11.02028109    -19.69370007
 H     39.70799992     11.08755184    -21.73562289
 H     39.49736572      9.74487700    -22.12760940
 H     39.32595571      8.49880699    -22.44036436
 H     40.13559132      8.08602503    -20.90988473
 H     41.88175547      9.44593070    -22.72323337
 H     40.42623317      9.45071382    -23.74778137
 H     40.29059521      7.10592130    -23.94548268
 H     40.80391173      6.76003621    -23.04572877
 H     40.88079499      6.16786932    -22.05128263
 H     42.52463776      6.85000517    -22.07845406
 H     42.65064260      5.19385021    -24.16824034
 H     40.97906530      4.73612728    -23.76254870
 H     41.98747766      4.01018005    -21.49032092
 H     43.30455829      3.46155460    -22.98425322
 H     43.10838479      2.59445192    -23.93782322
 H     41.50982439      2.30500197    -23.21043745
 H     42.79186516      1.52471409    -21.15559599
 H     44.31023196      1.86963902    -22.01806670
 H     44.29158325      0.51371490    -23.71524423
 H     42.72800007     -0.19959113    -23.25192057
 H     44.10303067     -0.94131943    -21.15188234
 H     45.50824418     -0.12346955    -21.87628778
 H     45.35212568     -1.78683234    -23.75929844
 H     43.95065147     -2.53125931    -22.95309426
 H     45.36956756     -3.15309962    -21.04291510
 H     46.77536388     -2.41069926    -21.84344310
 H     47.17567472     -3.41324565    -23.61213510
 H     45.84464794     -4.57441716    -23.39232814
 H     45.90837684     -5.73382129    -21.87397295
 H     47.46333422     -5.09859959    -21.28501827
 H     48.27370048     -5.94917092    -23.65441274
 H     46.66429086     -6.69732505    -23.78981118
 H     46.44573708     -8.02347009    -22.13282882
 H     48.13646790     -7.79016182    -21.62759302
 H     49.08355571     -8.59537044    -23.62483447
 H     47.47240545     -8.90863248    -24.31354950
 H     46.54456562    -10.37265190    -23.09485896
 H     47.94680987    -10.51313745    -22.00754965
 H     49.26848681    -11.33661034    -23.96917844
 H     47.82164600    -11.16661025    -24.99192881
 H     46.35123886    -12.47978264    -24.26232918
 H     47.39381527    -13.10309151    -22.96125764
 H     48.17882208    -14.67940442    -23.72161601
 H     48.46834804    -13.71080791    -25.52696132
 H     46.52819927    -15.20396415    -25.03540350
 H     47.08175787    -15.37544381    -23.35241976
 H     49.10967833    -16.55567062    -24.42297197
 H     48.36707774    -16.26856149    -26.01494540
 H     46.47146197    -17.73949026    -25.28293097
 H     47.28309227    -17.97114593    -23.71581305
 H     49.14323745    -19.08660214    -25.02703115
 H     48.22471540    -18.78738764    -26.52204104
 H     46.60277604    -20.45666930    -25.13904089
 H     47.85767744    -20.42420193    -23.87712370
 H     48.27840366    -22.42846764    -25.07216622
 H     47.97116133    -21.46096396    -26.77704313
 H     46.41944884    -22.60885142    -26.08182775
 H     47.29891165    -23.13039491    -24.62484312
 H     48.93720864    -24.23835375    -26.21318228
 H     47.96095147    -23.64727113    -27.57912882
 H     46.02971231    -24.86784063    -27.03037136
 H     46.83022417    -25.58097620    -25.60949660
 H     48.45809177    -26.73291349    -26.31273954
 H     48.12237115    -26.36470870    -28.02153548
 H     46.14411728    -27.38619012    -28.26594960
 H     46.01034631    -27.77242944    -26.53355496
 H     47.74504770    -29.41793877    -26.71551032
 H     48.24167523    -28.81756656    -28.31587933
 H     46.06648366    -29.67288040    -29.21242267
 H     45.63942123    -30.24411834    -27.58160338
 H     47.53096337    -31.80298084    -27.60419038
 H     47.97604792    -31.24722891    -29.23554142
 H     45.92407853    -32.02524550    -30.20625266
 H     45.37264885    -32.62510818    -28.62373670
 H     47.12577826    -34.21680541    -28.41492759
 H     47.80073312    -33.73120807    -29.98874391
 H     45.13484084    -34.88006767    -30.09238969
 H     45.06534558    -34.69729767    -28.65459272
 H     45.04962105    -34.56361951    -27.37732141
 H     46.46316877    -35.64478703    -27.34230272
 H     45.86845977    -37.52103487    -28.07581787
 H     44.18336197    -37.01037917    -28.33647633
 H     43.71886493    -36.57528091    -26.07505078
 H     45.36618526    -37.05246059    -25.59870853
 H     44.93680040    -39.34081228    -26.40033579
 H     43.28921842    -38.86497247    -26.87711325
 H     42.90266796    -38.43277850    -24.39677392
 H     44.58189747    -38.93531613    -24.08707916
 H     44.03032515    -41.19986450    -24.91953420
 H     42.35643691    -40.67545838    -25.22179742
 H     41.83756853    -40.22198629    -22.97989731
 H     43.46718743    -40.71007909    -22.45608978
 H     43.03563490    -43.00068501    -23.25544381
 H     41.40639009    -42.51068527    -23.77863430
 H     40.99273664    -42.06787200    -21.28700463
 H     42.66327897    -42.59119765    -20.96500269
 H     42.99288172    -44.50673878    -21.45789316
 H     41.32067185    -44.78780325    -21.99917272
 H     40.49849894    -44.34723942    -19.72511298
 H     42.16726623    -44.06454959    -19.17414213
 H     42.12052866    -46.68919957    -19.96857128
 H     40.41373350    -46.38109121    -20.36880391
 H     39.75592037    -45.99085978    -18.14082381
 H     41.43130387    -46.13809492    -17.55800429
 H     41.13280339    -48.59271651    -18.45345724
 H     39.44875755    -48.14888493    -18.82124765
 H     38.82894536    -47.69853282    -16.60438479
 H     40.45916467    -48.10605835    -16.01738000
 H     40.23496933    -50.40460576    -16.77068732
 H     38.59723764    -50.06099960    -17.37734735
 H     37.83876371    -49.56613515    -15.09432468
 H     39.47209266    -49.90723628    -14.47452372
 H     39.26423000    -52.24507197    -15.23103530
 H     37.63142600    -51.89857214    -15.84922266
 H     37.32050958    -51.47924243    -13.21337661
 H     39.04375845    -51.89791170    -13.06041895
 H     38.70626961    -54.14009190    -13.84668869
 H     36.96254171    -53.83817483    -14.03780585
 H     36.60348358    -53.45323494    -11.71385273
 H     38.32676999    -53.73419101    -11.36799975
 H     36.83180058    -55.99929818    -12.45451681
 H     35.53382528    -54.78165477    -12.42499860
 H     35.61817567    -54.59479601    -10.02070582
 H     36.91913013    -55.80763496     -9.95138159
 H     35.05486005    -57.34877117    -10.93806226
 H     33.96851051    -55.93938633    -10.89628062
 H     33.88681832    -55.38544625     -8.77416811
 H     34.78908482    -56.84532813     -8.30201695
 H     32.79972185    -58.10814694     -9.25943443
 H     32.12663937    -56.57118314     -9.85354630
 H     31.71827708    -55.55304614     -7.85820848
 H     32.32681481    -56.95236580     -6.94177354
 H     30.55784630    -58.37387102     -7.83267732
 H     29.91214294    -57.00311129     -8.76667495
 H     29.39874890    -55.75474418     -6.75969746
 H     30.02427663    -57.08195429     -5.75197971
 H     27.98084701    -58.30621106     -6.93602459
 H     27.67564304    -56.76794030     -7.77795111
 H     27.25043107    -55.98377774     -5.29202709
 H     27.62830772    -57.65063036     -4.79495743
 H     25.83078859    -58.65520556     -5.91033896
 H     25.26616827    -57.08022125     -6.51770624
 H     24.90552962    -56.47247885     -4.07469569
 H     25.49826786    -58.08896113     -3.62312834
 H     23.33810153    -58.78672986     -4.97572046
 H     23.05420592    -57.05029877     -5.24493602
 H     21.87988688    -56.64477480     -3.65419984
 H     22.96248004    -57.95191693     -2.47021586
 H     20.86863628    -58.55749949     -3.80865574
 H     20.81284224    -56.87864073     -4.39737210
 H     20.45232357    -56.31555320     -1.89986141
 H     20.54961301    -58.05860906     -1.55264721
 H     18.36176802    -57.95790834     -3.09005494
 H     18.64350327    -56.20311854     -3.18805836
 H     18.17820494    -56.53901701     -0.56273598
 H     17.98555125    -58.26875840     -0.93575867
 H     16.03116829    -57.74212912     -2.34355871
 H     16.22768684    -56.01339494     -1.96789230
 H     15.80278519    -56.40208563      0.39155267
 H     15.59261073    -58.14224463      0.08181084
 H     13.91132218    -58.34321950     -1.20057187
 H     13.60701837    -56.59028024     -1.25414239
 H     13.19946398    -56.91523882      1.29602635
 H     13.55817213    -58.64328551      1.06483429
 H     11.30819913    -58.22008815     -0.42304790
 H     11.43415673    -56.53192383      0.12695443
 H     11.02523292    -57.85034723      2.43919530
 H     10.98334300    -59.32983668      1.45044717
 H      8.83713906    -57.73265113      0.66711451
 H      9.46097434    -56.60675686      1.89652831
 H      9.35044223    -57.50165202      3.76710138
 H      8.63211999    -59.00280837      3.13558776
 H      6.66298036    -57.60655028      2.41328219
 H      7.47312024    -56.16688658      3.07608567
 H      7.52546126    -56.33456226      5.12542995
 H      7.07922656    -58.05736554      5.15844682
 H      4.86019209    -56.56073403      4.30698774
 H      5.96624834    -55.17940938      4.49894725
 H      6.28465145    -55.39373204      6.79246191
 H      5.20237649    -56.80504176      6.86424233
 H      3.32245160    -55.38232391      6.12801952
 H      4.41507907    -53.97882883      6.05995032
 H      4.80543409    -54.12831326      8.47352132
 H      3.71655743    -55.53316035      8.56848948
 H      2.19978101    -53.54825786      7.29979815
 H      2.82299900    -52.77689340      7.73289496
 H      1.19125113    -55.24138145      7.97306591
 H      1.59226582    -54.31183487      6.50903140
 H     -0.00572111    -52.94881402      8.55352552
 H      0.22024947    -54.52317179      9.35265103
 H     -0.92621052    -55.79569823      7.77373984
 H     -1.28709286    -54.35225186      6.79675818
 H     -2.46312890    -53.04470330      7.87166408
 H     -2.34334197    -53.63799480      9.20531451
 H     -2.10200373    -53.98969332     10.33162259
 H     -2.96983814    -55.44725476      9.79250779
 H     -5.00182060    -54.46391668      9.34117105
 H     -4.40344079    -52.86093083      9.83172651
 H     -4.09019348    -53.81899995     12.13867691
 H     -4.70054932    -55.38236925     11.54571077
 H     -6.87686650    -54.00647365     11.15283745
 H     -6.01258990    -52.58625590     11.78866304
 H     -5.80374423    -53.73279641     13.97537194
 H     -6.66996833    -55.13971646     13.31317978
 H     -8.68218960    -53.84441396     12.94972159
 H     -7.88617022    -52.39193005     13.60157304
 H     -7.72843485    -53.66359242     15.79049170
 H     -8.53221792    -55.04514110     15.00721481
 H    -10.28415587    -52.83795990     15.12300846
 H     -8.87307838    -52.00239111     15.81507190
 H     -8.73704789    -53.32580342     17.74830431
 H    -10.14531642    -54.28977321     17.24252904
 H    -11.75179343    -52.72510093     17.22780848
 H    -10.62460111    -51.45052648     17.75045951
 H    -10.11609235    -52.40504566     19.82723413
 H    -11.20235926    -53.77998392     19.51444725
 H    -13.15606678    -52.39704693     19.41467692
 H    -12.17670167    -50.94363929     19.72567030
 H    -11.39742747    -51.43255306     21.79411812
 H    -12.26667959    -52.98532689     21.83362601
 H    -14.36369921    -51.46293795     21.69890514
 H    -13.26671311    -50.06155298     21.66715127
 H    -12.44564783    -50.60585815     23.90570144
 H    -13.53170731    -52.01463939     23.96955194
 H    -15.09266253    -49.69188098     23.79986627
 H    -13.51583123    -48.86690872     23.76394279
 H    -12.76317033    -49.21264428     25.77905735
 H    -13.97985331    -50.45217465     26.16830493
 H    -15.50651330    -48.26246407     26.04713389
 H    -14.01401881    -47.37227528     25.66204848
 H    -13.16858871    -48.01854068     27.93622542
 H    -14.69396175    -48.88647819     28.23319047
 H    -16.00936574    -46.85760399     28.02058199
 H    -14.50976529    -45.91049947     27.87072137
 H    -13.85439745    -46.66774534     30.14200523
 H    -15.36392640    -47.60397059     30.25633500
 H    -16.79367663    -45.72512976     30.09304848
 H    -15.42507701    -44.63332582     30.01526191
 H    -16.83596392    -46.76733366     31.86795267
 H    -17.66324085    -46.58340039     30.30268972
 H    -18.07724121    -44.16751776     31.15534985
 H    -17.19530654    -44.60706742     32.63766358
 H    -19.34160359    -46.24767826     32.71721118
 H    -19.82215772    -45.48879345     31.18051725
 H    -19.96432548    -43.36456442     32.71348710
 H    -19.45352308    -44.40283712     34.06601710
 H    -21.59184209    -45.68715750     33.72907293
 H    -22.00902109    -44.59351598     32.38811187
 H    -21.90357575    -43.07057317     34.72287831
 H    -21.48084270    -44.61748319     35.49529842
 H    -23.92115049    -45.19998958     34.65423499
 H    -23.98697577    -43.55064000     33.98821722
 H    -23.79107514    -42.67593219     36.31519681
 H    -23.72860851    -44.34741867     36.92388190
 H    -25.97457900    -44.80012074     36.11025790
 H    -26.09597630    -43.13931548     35.48156461
 H    -25.90977925    -42.20331831     37.71601894
 H    -25.78485830    -43.83931314     38.40607858
 H    -28.06284009    -44.34086517     37.59688817
 H    -28.14000319    -43.80427788     36.82783289
 H    -28.19086496    -43.25877059     35.61175949
 H    -28.19557009    -41.66280303     36.39987881
 H    -30.33631753    -42.24016849     37.49902873
 H    -30.31122279    -43.83100161     36.70097679
 H    -30.43699224    -43.08254492     34.51916128
 H    -30.48603847    -41.38243187     35.04402007
 H    -32.76772910    -42.62275674     36.04370501
 H    -32.11159884    -44.07345811     35.24795049
 H    -32.17645444    -43.35675622     33.08308245
 H    -32.85882080    -41.78180068     33.55441871
 H    -34.68438838    -42.12695601     34.57992585
 H    -34.70747897    -43.82620096     34.05049210
 H    -34.54650486    -43.25261668     31.71340935
 H    -34.74518234    -41.53498410     32.13594010
 H    -36.16360473    -40.84887139     32.98201329
 H    -37.02674424    -42.40272115     33.07586298
 H    -37.25048295    -42.74455016     30.79070560
 H    -36.41375938    -41.21658990     30.42533210
 H    -38.07127359    -39.86225614     31.47090245
 H    -39.02248647    -41.30321105     31.90346421
 H    -39.41996192    -41.92280805     29.63463240
 H    -38.49533564    -40.51636514     29.05562354
 H    -40.45931545    -39.25685974     30.29598514
 H    -41.10765278    -40.86187886     30.71051983
 H    -41.39782558    -41.22041585     28.22302179
 H    -40.72989203    -39.59472618     27.94148223
 H    -42.27084230    -38.31914515     28.95738110
 H    -43.24608506    -39.73268070     29.42544679
 H    -43.14086758    -39.81128457     26.65855916
 H    -42.40282997    -38.20287341     26.84982000
 H    -44.09087095    -37.10985720     27.88000948
 H    -45.13668090    -38.54997801     27.85550888
 H    -44.86747526    -38.14890705     25.25060161
 H    -43.84105599    -36.75510181     25.66537517
 H    -46.11338886    -35.92806146     26.71965284
 H    -46.83026140    -37.45781909     26.15911560
 H    -46.13024202    -36.25111151     23.84504778
 H    -45.52224244    -34.92514871     24.86506045
 H    -47.84796722    -34.53830494     25.65669146
 H    -48.41094982    -35.87275913     24.62201795
 H    -47.53700274    -34.25581207     22.74135106
 H    -47.07795651    -33.12719522     24.03895163
 H    -49.71175736    -33.17697895     24.37715829
 H    -49.76800328    -34.32086984     23.01458107
 H    -48.87619712    -32.55489167     21.52804630
 H    -48.82774021    -31.42755485     22.90464729
 H    -51.47274608    -31.97345237     22.63869499
 H    -50.98498174    -33.02716383     21.28960464
 H    -50.22560226    -31.25651267     19.93793746
 H    -50.44264428    -30.07134905     21.24810792
 H    -52.97252959    -30.82608575     20.97504984
 H    -52.41366728    -31.65355903     19.50154125
 H    -51.63666319    -29.70057145     18.43529369
 H    -52.13403610    -28.69702587     19.81868920
 H    -54.48773648    -29.33078329     19.40729096
 H    -53.97338620    -30.33013619     18.02707205
 H    -53.17105161    -28.19599083     16.94991662
 H    -53.72138063    -27.29639434     18.38383810
 H    -55.88393833    -28.62349283     17.03605157
 H    -54.57361187    -29.05326971     15.91061696
 H    -54.21074505    -26.38158003     15.96283310
 H    -55.27913168    -26.20222239     16.28517123
 H    -53.38333584    -27.43940906     14.32744224
 H    -52.90931776    -26.64351646     15.84735293
 H    -54.29480919    -24.84163873     14.13755505
 H    -54.37478342    -26.26570203     13.07270083
 H    -51.68270266    -25.52795509     13.43114800
 H    -52.37819862    -24.25383671     14.46128119
 H    -53.45105298    -23.37637197     12.33665007
 H    -52.75572958    -24.75159777     11.44583805
 H    -50.53339321    -23.49328398     12.19445920
 H    -51.59335127    -22.30318395     12.98718709
 H    -52.75205490    -21.36321987     11.52111459
 H    -52.01532734    -22.28293755     10.18709114
 H    -49.84950209    -21.08719615     10.92266622
 H    -50.79407194    -20.28024567     12.19737614
 H    -52.00403875    -19.27501379     10.07850246
 H    -50.88282115    -20.23984696      9.08843442
 H    -49.04127027    -18.82880296     10.19419806
 H    -50.33050556    -17.89915007     10.99537502
 H    -51.26859808    -17.12301482      8.94344892
 H    -50.03397507    -18.00232253      8.01028727
 H    -48.26316089    -16.63272662      9.00156503
 H    -49.47657254    -15.73634560      9.94623423
 H    -50.43435558    -14.93870680      7.76949190
 H    -49.81107005    -15.86591767      6.96659576
 H    -49.26415813    -16.78177041      6.25630949
 H    -47.71556717    -16.02700272      6.70403536
 H    -48.15133014    -13.95512644      5.70318535
 H    -49.74964881    -14.50677630      5.14701405
 H    -49.18196246    -16.16829760      3.76158789
 H    -47.44281476    -15.92220272      4.04980530
 H    -47.25382061    -13.79795548      3.21369747
 H    -48.98238690    -13.74076938      2.79291846
 H    -47.94569716    -15.74807111      1.24138206
 H    -46.40286658    -15.37259939      2.04572120
 H    -46.60491782    -13.13078714      0.83108214
 H    -48.21548370    -13.61835202      0.25088848
 H    -47.45370833    -15.40110128     -1.07729626
 H    -45.76368513    -15.07528106     -0.62350178
 H    -45.54023005    -12.98991842     -1.50944798
 H    -47.21330447    -12.99414356     -2.11695995
 H    -46.34760792    -14.96082185     -3.56939394
 H    -44.76784764    -14.78210275     -2.76896680
 H    -44.96866865    -12.37188236     -3.89523393
 H    -46.40064062    -13.03364611     -4.71972873
 H    -45.92008852    -14.63364487     -5.87995298
 H    -44.18650268    -14.55658992     -5.48370894
 H    -44.20026541    -12.27998577     -6.59966346
 H    -45.93711240    -12.48831155     -6.92864610
 H    -45.35044989    -14.44006747     -8.37301377
 H    -43.62947403    -14.17775082     -8.00193595
 H    -42.82196026    -12.54459304     -8.54028052
 H    -44.29890706    -11.90920538     -9.30394102
 H    -45.01894493    -12.88551356    -10.79146645
 H    -43.73745474    -14.12072356    -10.77397961
 H    -42.16908685    -12.28939922    -11.43980155
 H    -43.43789003    -11.07574803    -11.14747301
 H    -44.64691901    -12.13133799    -13.12047551
 H    -43.29879253    -13.28207300    -13.28366438
 H    -42.36438049    -10.65710726    -13.73690033
 H    -44.06408477    -10.22446839    -13.43342770
 H    -44.92380517    -11.39650811    -15.28791668
 H    -43.29274483    -11.93048323    -15.75991181
 H    -43.29074704     -9.17368862    -15.96419213
 H    -44.97804347     -9.29634587    -15.41079118
 H    -45.15121107    -10.59069908    -17.72416383
 H    -43.41098781    -10.27284423    -17.92128812
 H    -42.94671405     -8.34742852    -18.03537918
 H    -44.63483445     -7.79941633    -17.90047603
 H    -45.46288370     -8.74943840    -19.80992269
 H    -43.87663453     -9.43693583    -20.23351155
 H    -42.90428643     -7.21360353    -20.44590453
 H    -44.46971574     -6.47657722    -20.02818459
 H    -45.37519932     -7.52425611    -22.13609998
 H    -43.76546006     -8.21473007    -22.45272575
 H    -42.53613516     -6.36430202    -22.70644328
 H    -43.93849075     -5.29980493    -22.44469642
 H    -45.03886898     -6.17119576    -24.43891614
 H    -43.65765130     -7.25246971    -24.74115948
 H    -42.12703993     -5.43511888    -25.06094663
 H    -43.42849228     -4.25411400    -24.77860655
 H    -44.60175699     -5.08700771    -26.78517558
 H    -43.29473006     -6.26417569    -27.05761427
 H    -41.73933012     -4.33264651    -27.38540320
 H    -43.09489535     -3.21472579    -27.10086351
 H    -44.38561680     -3.82463157    -28.91540404
 H    -43.18215556     -5.02584412    -29.44174624
 H    -41.66265834     -2.95429494    -29.73416961
 H    -43.02058809     -1.95095195    -29.17061279
 H    -43.62120495     -3.40859638    -31.59339123
 H    -41.90231524     -3.83855163    -31.42361693
 H    -41.28823642     -1.46842872    -31.67376364
 H    -43.00847491     -1.02992205    -31.80321678
 H    -43.54016413     -2.12537872    -33.71688085
 H    -41.88191234     -2.74343997    -33.90784667
 H    -41.22619622     -0.27870003    -34.12755376
 H    -42.94057829      0.14986986    -33.91427317
 H    -43.16581772     -1.18781173    -36.15730370
 H    -41.40782973     -1.45672793    -36.08362216
 H    -40.67674708      0.67899614    -36.23732653
 H    -42.33525365      1.31561963    -36.34838126
 H    -42.01067497     -0.25196244    -38.58252861
 H    -40.37792353     -0.55655394    -37.94251813
 H    -40.67342564      2.19997403    -38.50011740
 H    -42.27459923      1.68299516    -39.08084335
 H    -42.01787116      0.36749612    -40.68008733
 H    -40.24176824      0.47452047    -40.63243362
 H    -40.04934923      2.72075043    -41.11978799
 H    -41.81552903      2.90657369    -41.23955988
 H    -42.00442653      1.46535557    -43.11899789
 H    -40.26269427      1.10109330    -43.07485736
 H    -39.87967722      3.53914496    -43.60521274
 H    -41.64261141      3.78429538    -43.62041112
 H    -41.64646002      2.17535219    -45.60048095
 H    -39.87869980      2.04047522    -45.44205535
 H    -40.07938854      4.61420271    -46.03850516
 H    -41.84099137      4.36698012    -46.10097996
 H    -42.00207946      2.91331507    -47.80609392
 H    -40.24120499      2.90347269    -48.06588407
 H    -40.75219851      5.44327223    -48.60835771
 H    -42.45885077      5.08004035    -48.25669403
 H    -42.46717926      3.67927411    -50.29979059
 H    -40.69282159      3.77011021    -50.40781993
 H    -41.40158035      6.30970567    -50.92051963
 H    -43.08209861      5.76297062    -50.70790309
 H    -42.86910012      4.12897528    -52.52375762
 H    -41.34136849      4.92134362    -52.97813096
 H    -42.16575569      7.03043430    -53.36656893
 H    -43.82487303      6.52235667    -52.96976490
 H    -43.58690336      4.97778661    -55.00411881
 H    -41.93920930      5.61123419    -55.23240614
 H    -43.01609921      7.86014157    -55.64347169
 H    -44.61055217      7.11042297    -55.39067054
 H    -43.86484754      5.77179887    -57.53399289
 H    -42.59433399      6.03500634    -57.42260247
 H    -41.34576439      6.16965246    -57.23555185
 H    -41.63628256      7.90354636    -57.51390019
 H    -42.33965594      6.58117823    -59.85173714
 H    -41.87137485      5.11484296    -58.95795844
 H    -39.52964584      6.17022624    -58.93634290
 H    -40.19958652      7.55533173    -59.83128923
 H    -40.69486808      5.95826550    -61.70810246
 H    -40.00629607      4.63652062    -60.73489861
 H    -37.85842895      5.39123792    -60.57448597
 H    -38.08487146      6.76224230    -61.07565056
 H    -38.32760445      7.93252964    -61.46122774
 H    -38.73058132      7.16242953    -63.01455389
 H    -36.09847726      6.56389924    -62.65639370
 H    -36.24175389      7.47002175    -61.13104769
 H    -36.73789695      9.53651798    -62.15174720
 H    -36.63238351      8.80857913    -63.77262308
 H    -34.88510112      8.08486756    -64.26387568
 H    -34.11297888      8.55180004    -62.72957845
 H    -34.80009882     10.93972750    -63.77498116
 H    -35.46927137     10.01405614    -65.14012119
 H    -33.10773040      9.23678684    -65.58665322
 H    -32.55760256     10.20079425    -64.19513759
 H    -33.33206649     12.23742528    -65.45764234
 H    -33.85075023     11.18158595    -66.79347060
 H    -31.53386011     10.46979376    -67.16316322
 H    -30.99370366     11.51952508    -65.83103641
 H    -31.79756987     13.47723325    -67.16993940
 H    -32.31310549     12.36162191    -68.45753446
 H    -29.94753843     11.69078904    -68.77470925
 H    -29.46285871     12.81468277    -67.48234123
 H    -29.73778442     14.63912568    -67.64394671
 H    -30.44758152     14.52540108    -69.27229601
 H    -28.24221712     13.62058881    -70.05716203
 H    -27.61536103     13.76631379    -68.39761922
 H    -28.00168492     16.24982159    -68.58684347
 H    -28.51750026     16.00037041    -70.27206610
 H    -26.29414743     15.25970170    -70.88560592
 H    -25.77535856     15.26249690    -69.18292658
 H    -26.29231258     17.90430026    -69.92594826
 H    -26.70987567     17.18522046    -71.49974367
 H    -24.05682788     16.62290453    -71.19074846
 H    -24.20341644     17.47266381    -69.63360761
 H    -24.75083486     19.49490492    -71.19978917
 H    -24.54290135     18.38812722    -72.57822068
 H    -22.20115138     18.03379116    -72.02778407
 H    -22.34836115     19.13300385    -70.63554579
 H    -22.85733446     20.93134771    -72.37809492
 H    -22.67620177     19.69443422    -73.64517922
 H    -20.29895732     19.42530553    -72.98458734
 H    -20.51657552     20.66583940    -71.72681761
 H    -21.00703884     22.40881734    -73.25389771
 H    -20.82253503     21.30147435    -74.63520742
 H    -18.56200380     20.82570304    -74.28388397
 H    -18.50774129     21.89407590    -72.86124499
 H    -19.01224171     23.53405005    -75.00233192
 H    -19.08586216     22.03448630    -75.95844660
 H    -16.71583181     21.59904049    -75.49649456
 H    -16.62366916     23.09550365    -74.53713502
 H    -17.24733356     24.26793185    -76.74906818
 H    -17.13049062     22.67528572    -77.53525691
 H    -14.70329419     22.66587850    -76.83591928
 H    -14.94396272     24.25996164    -76.08143649
 H    -15.39639210     24.67309266    -78.75289244
 H    -15.05921770     22.93399611    -78.92645296
 H    -12.71230122     23.57202709    -78.07583669
 H    -13.26664600     25.26039363    -77.97392029
 H    -13.33047693     24.39214412    -80.66056678
 H    -12.74282314     22.86388694    -79.96245527
 H    -10.81578917     23.33835749    -79.10985373
 H    -10.89947898     25.04253794    -79.61683662
 H    -11.01935994     24.21774968    -82.00074769
 H    -10.74305535     22.57065607    -81.38511380
 H     -8.52179461     23.16383191    -80.68362948
 H     -8.85281926     24.90185122    -80.87850958
 H     -8.88779586     24.06646213    -83.42516457
 H     -8.55478920     22.44126093    -82.78011085
 H     -6.37333226     23.32139489    -81.92738828
 H     -6.77601869     24.92025059    -82.59803779
 H     -6.92282331     24.39947521    -84.80351005
 H     -6.41221920     22.72243413    -84.49515419
 H     -4.28304104     23.36433309    -83.62458211
 H     -4.66187926     25.08417765    -83.88319947
 H     -4.72468612     24.33084510    -86.38385850
 H     -4.34208100     22.68559870    -85.82257046
 H     -2.18605544     23.42963502    -84.95505873
 H     -2.52797409     25.08887264    -85.50121696
 H     -2.58561384     24.37177038    -87.82919252
 H     -2.24360029     22.69682173    -87.33336953
 H     -0.06826236     23.36071057    -86.43996117
 H     -0.37525196     25.04630490    -86.92245038
 H     -0.54647600     25.06890863    -89.03570554
 H     -0.26078640     23.31846767    -89.18605363
 H      1.97400947     23.52007250    -88.26849942
 H      1.75991530     25.27813692    -88.09062348
 H      1.52691290     25.63673157    -90.44518003
 H      1.73133127     23.89666297    -90.75925178
 H      4.10245842     24.44710182    -89.70944492
 H      3.53405012     26.12549255    -89.54156631
 H      3.21396961     26.70909556    -91.66826901
 H      3.74037909     25.11884779    -92.27015915
 H      5.99289782     25.57418970    -91.30102010
 H      5.40953153     27.15297465    -90.72189270
 H      5.05732679     27.50770710    -93.32885788
 H      5.87835057     25.94075928    -93.52599016
 H      7.87813309     26.36585839    -92.63595445
 H      7.44659409     28.05278258    -92.26672884
 H      7.28636289     28.06705072    -94.93122484
 H      7.74206574     26.34774361    -94.86351474
 H      9.91483972     26.94314343    -93.88874376
 H      9.47416670     28.66660018    -93.95015041
 H      9.19490746     29.25180098    -95.91070395
 H      9.58064504     27.64409064    -96.57005262
 H     11.81320220     27.64083034    -95.77184128
 H     11.75333238     28.37746782    -94.90363426
 H     11.66921733     29.00184905    -93.79280290
 H     11.35970380     30.44883657    -94.78209312
 H     13.34142637     30.51826168    -95.92461777
 H     13.94995403     29.07059490    -95.08663111
 H     14.15065871     29.27709058    -93.13223670
 H     13.60552818     30.97150243    -93.12400050
 H     16.08380339     30.09790144    -94.56734777
 H     15.48876186     28.56047654    -93.89614220
 H     16.27971889     29.99012382    -91.74611508
 H     16.37196378     31.40157308    -92.82665594
 H     18.32604147     29.37897611    -93.43313564
 H     17.53012699     28.55648446    -92.06994295
 H     18.15432000     30.21543578    -90.48048890
 H     18.99793541     31.15053992    -91.73832829
 H     20.60297573     29.68612916    -92.33203162
 H     20.04123433     28.47635134    -91.15340918
 H     20.55173589     29.97613908    -89.29709148
 H     21.12402096     31.21343196    -90.44158386
 H     22.77785888     28.89162932    -90.29389589
 H     21.40354607     28.21584051    -89.38679036
 H     22.42985240     30.26367944    -87.83463809
 H     23.59227048     30.46656664    -89.16726244
 H     24.35921657     28.09825461    -88.53819096
 H     23.12436915     28.09165433    -87.25624909
 H     24.58915473     30.05756100    -86.33990615
 H     25.64958909     29.82556187    -87.75055211
 H     26.15645691     27.53407767    -86.84600725
 H     25.07179370     27.86156043    -85.47322634
 H     26.71973853     29.71366183    -84.87216062
 H     27.68886695     29.25708750    -86.29363754
 H     28.15100549     27.06126728    -85.40606698
 H     27.20193843     27.42911338    -83.94585206
 H     28.49918647     29.29503036    -83.27296471
 H     29.73189871     28.84149765    -84.47421209
 H     30.05697214     26.66845318    -83.47396928
 H     28.83791927     27.03618201    -82.23020391
 H     30.05937804     28.83479835    -81.28767809
 H     31.37864430     28.60193354    -82.45967518
 H     31.85896517     26.46268155    -81.30128415
 H     30.30404032     26.54151377    -80.43857861
 H     30.88672500     28.54890925    -79.23269309
 H     32.57198875     28.32254940    -79.75891924
 H     33.10223152     26.35076551    -78.97829385
 H     31.50249647     26.11109286    -78.23554797
 H     32.33226892     28.29697767    -76.92301008
 H     33.87577379     28.05412851    -77.77558481
 H     33.59270850     25.79242656    -76.28510003
 H     32.06152854     26.51304997    -75.73332427
 H     33.63066551     28.32599293    -74.74014193
 H     35.00481581     27.41152241    -75.40626600
 H     34.47223140     25.50527581    -73.96163873
 H     33.09283735     26.40024363    -73.28004403
 H     34.21437980     28.12614806    -72.30976792
 H     35.79045392     27.48935859    -72.83774162
 H     35.19617564     25.43047379    -71.41746083
 H     33.75937670     26.32435644    -70.86532925
 H     34.27107268     28.04606021    -69.90813117
 H     36.01960531     27.75058150    -70.06173008
 H     35.24349566     25.66774558    -68.55270771
 H     33.59968393     26.33942347    -68.67517602
 H     34.27079831     28.35850419    -67.49142727
 H     35.93025707     27.73268345    -67.34039191
 H     35.69822594     25.93423503    -66.11719282
 H     33.93808565     26.15136502    -65.96544506
 H     35.02808957     28.34571945    -64.73408583
 H     36.59575926     27.63110042    -65.18129727
 H     36.19585040     25.65572355    -63.83564081
 H     34.66285690     26.35519567    -63.26211106
 H     35.92795370     28.22161764    -62.24044104
 H     37.44836859     27.50380335    -62.82469088
 H     36.93620727     25.53428054    -61.33480893
 H     35.43683451     26.34544305    -60.82278999
 H     36.27127878     28.17443600    -59.81821838
 H     37.95043832     27.68188060    -60.14391618
 H     38.12675044     25.79464562    -59.00435140
 H     36.45105743     25.89379988    -58.41233113
 H     36.79911172     27.90328051    -57.19963703
 H     38.50682864     27.95152782    -57.69927869
 H     39.40922410     26.19263853    -56.86047852
 H     37.89526158     25.65698597    -56.09284548
 H     37.30244383     27.07195586    -54.68958038
 H     38.70367047     28.12757671    -54.99040457
 H     40.04046801     26.08068608    -54.11824797
 H     38.48819197     25.23388724    -53.91419532
 H     38.07336845     25.84023571    -51.97765167
 H     38.99939452     27.65967156    -52.30873618
 H     40.13213106     25.46632416    -51.44208308
 H     38.54168606     24.67903012    -51.57963116
 H     37.45378534     26.00015118    -49.99461688
 H     38.93722956     26.93187844    -49.67911060
 H     39.91765340     24.72752017    -48.86093646
 H     38.36505474     23.94226755    -49.23654579
 H     37.17242061     25.21759752    -47.60154256
 H     38.63929304     26.13836696    -47.19076821
 H     39.26275757     23.60259353    -46.44791588
 H     37.63682331     23.17318889    -47.03119634
 H     36.47830889     24.48929095    -45.46237031
 H     38.00514288     25.03689967    -44.72945194
 H     37.86631663     22.29056695    -44.34783158
 H     36.32083511     22.42184994    -45.22105452
 H     35.25896734     23.77510746    -43.62514432
 H     36.70711856     23.76972017    -42.59020679
 H     36.34026509     21.26279984    -42.39403912
 H     34.91408555     21.42523379    -43.44660446
 H     33.61244700     22.74348572    -42.15256749
 H     34.83030794     22.79874535    -40.85563736
 H     34.80062928     20.51311105    -40.37476937
 H     33.56799305     20.21608744    -41.62402979
 H     31.98197039     21.63930352    -40.37319024
 H     33.22480467     21.92761458    -39.13201887
 H     33.17886627     19.58055269    -38.49914377
 H     32.08582619     19.19912615    -39.85119549
 H     30.41445732     20.68116114    -38.55682865
 H     31.67432163     20.92786489    -37.32388671
 H     31.57595364     18.46640041    -36.86674741
 H     30.32006329     18.30341044    -38.11752331
 H     28.72392382     19.51887933    -36.86419263
 H     29.94728546     20.06313706    -35.69140259
 H     30.19902883     17.74073373    -34.89375985
 H     28.97475612     17.20640616    -36.07015989
 H     27.18740240     18.39423185    -35.23630235
 H     28.17955087     19.08797898    -33.93145638
 H     28.39217636     16.61658703    -33.18387571
 H     27.37719726     16.17139607    -34.57667473
 H     25.59380105     17.59211133    -33.33628946
 H     26.80725025     17.89406847    -32.06954971
 H     26.85368883     15.48027617    -31.55497569
 H     25.64021341     15.18871808    -32.82412420
 H     24.19759517     16.69827921    -31.21625955
 H     25.62689323     16.79081703    -30.15946702
 H     25.28820457     14.24360095    -29.93208897
 H     23.88674874     14.38834220    -31.01985651
 H     22.58470689     15.73538681    -29.67108893
 H     23.82604691     15.75806515    -28.39561753
 H     23.47816736     13.26860529    -28.19564935
 H     21.63076394     14.04119410    -28.67709990
 H     20.92177752     14.82221700    -27.90412100
 H     22.22126300     14.65202051    -26.69969694
 H     21.60443904     12.15833650    -26.74717542
 H     20.35553787     12.54128036    -27.95625214
 H     19.00762000     13.84021348    -26.66356523
 H     20.12348321     13.77240169    -25.27845963
 H     19.80814189     11.35203666    -25.07761097
 H     18.60130190     11.41186178    -26.38460173
 H     17.31700979     12.93809027    -24.73711265
 H     18.66131794     12.73063855    -23.58904208
 H     18.36553172     10.40275164    -23.33475296
 H     16.98779417     10.41363845    -24.46169013
 H     15.44318963     11.46098571    -23.92210082
 H     16.16112601     11.96837334    -22.37439548
 H     16.08576085      9.38969599    -21.91913414
 H     15.37751464      9.20118645    -23.54120632
 H     13.66818392     10.71169418    -21.83785775
 H     14.97807762     10.44441844    -20.66269442
 H     14.64408188      8.05013417    -20.68848951
 H     13.31932614      8.22860040    -21.86383571
 H     12.47009919      9.53289940    -19.59327292
 H     14.04550305      9.05278308    -18.91810059
 H     13.15997106      6.65612805    -19.22828230
 H     11.65825314      7.35143866    -19.88376158
 H     11.04132491      8.46249467    -17.90270834
 H     12.49075979      7.86075193    -17.06288046
 H     11.82572793      5.56681658    -17.26327087
 H     10.33620361      6.04467099    -18.11252886
 H     10.02233006      7.25938737    -15.71947392
 H     11.52041809      6.41499407    -15.26012781
 H     10.18416339      4.27432059    -15.68179325
 H      8.78490223      5.28573387    -16.11466511
 H      8.42021259      6.33601395    -14.15281347
 H      9.77019728      5.48756753    -13.36164556
 H      8.70979096      3.33240265    -13.65725415
 H      7.32058318      4.10566590    -14.45752432
 H      7.13585601      5.18976803    -12.03621313
 H      8.58010308      4.24104103    -11.60920713
 H      7.08976069      2.20306411    -12.05016391
 H      5.76124331      3.31891834    -12.44787934
 H      5.21241010      4.46931861    -10.90195322
 H      6.39337622      3.74869137     -9.78200588
 H      5.82759535      1.67247881     -9.62109376
 H      4.44319549      1.86028814    -10.72401322
 H      3.34303395      3.25539382     -9.04560645
 H      4.84608797      3.38574759     -8.10109431
 H      3.94619931      0.73342541     -7.98215348
 H      2.63114231      1.33605571     -9.01932678
 H      2.26984478      2.73000518     -6.73123262
 H      3.69160279      1.85140617     -6.11891358
 H      1.74158436     -0.03520211     -7.09274685
 H      0.96727072      0.73196182     -6.97459215
 H      3.26996352     -0.77062047     -5.73314631
 H      2.66370813     -0.93621158     -7.39846930
 H      0.55136966     -1.59720943     -5.67280079
 H      1.83540416     -1.50228124     -4.44377243
 H      3.23366395     -3.10141588     -5.15698966
 H      2.18773486     -3.51064393     -6.53787033
 H      0.50014012     -4.16791783     -4.68761050
 H      1.72084824     -3.68418362     -3.48588692
 H      3.34480326     -5.20109751     -3.97792437
 H      2.36248358     -5.93753175     -5.26671423
 H      0.62798657     -6.68423355     -3.92267654
 H      1.41022553     -6.03927993     -2.45966468
 H      3.30205925     -7.46085728     -2.62026460
 H      3.18991402     -7.82069502     -3.90580605
 H      2.83837892     -8.09450413     -5.23357178
 H      1.55942892     -9.13647382     -4.56510133
 H      2.68808766    -10.53089703     -3.27985445
 H      4.25046394     -9.78241820     -3.68854318
 H      3.88043503    -10.47580839     -6.05746372
 H      2.32652677    -11.20485485     -5.58616019
 H      3.33829140    -12.91135588     -4.32131678
 H      4.92869426    -12.11307484     -4.36172452
 H      4.74001829    -12.75691688     -6.90602388
 H      3.15463717    -13.46969833     -6.52291036
 H      4.68317627    -15.03983130     -5.05445437
 H      6.07139197    -14.09315557     -5.64176086
 H      5.97615445    -14.53869161     -7.84477879
 H      4.55399805    -15.59092998     -7.64848250
 H      6.07401523    -17.03554676     -6.17888946
 H      7.41097286    -15.93467305     -6.58984936
 H      7.12805109    -16.58972154     -8.97863439
 H      5.79657448    -17.67402341     -8.50988483
 H      6.84966687    -19.13782719     -7.19808604
 H      8.42127954    -18.33278783     -7.42216618
 H      8.28113732    -18.74847439     -9.86828602
 H      6.85016206    -19.76207255     -9.56300707
 H      7.35595662    -21.33092693     -8.31590867
 H      9.06387457    -20.84329154     -8.19974204
 H      9.69594294    -20.97614873    -10.36161914
 H      8.12367056    -21.66762535    -10.82861626
 H      8.00753348    -23.52327475     -9.67878170
 H      9.60246035    -23.26937338     -8.93044418
 H     11.00624774    -23.28874187    -10.56966747
 H      9.73698644    -23.57244421    -11.78488571
 H      9.19260059    -25.72943188    -10.77213172
 H     10.45428027    -25.47918423     -9.54176300
 H     12.30422542    -25.36632918    -10.39691594
 H     11.68993178    -25.61247181    -12.04928509
 H     10.80954091    -27.60697979    -11.99609458
 H     11.23672344    -27.85341852    -10.28581691
 H     13.54366134    -27.54742453    -11.95818781
 H     12.30427520    -27.36697135    -13.22295075
 H     11.48393389    -29.43381172    -13.26516581
 H     12.29140691    -29.91826528    -11.75468286
 H     14.36258685    -29.62250585    -13.46641607
 H     13.13628551    -29.17349557    -14.67589590
 H     12.28951714    -31.57936086    -14.33940524
 H     13.08055837    -31.81071127    -13.13051252
 H     13.82460487    -31.95172762    -12.08580318
 H     15.20913652    -31.78049986    -13.19125323
 H     13.73623939    -34.06565126    -13.91025428
 H     12.69525511    -33.57794208    -12.55129948
 H     14.16589711    -33.78320388    -10.84125767
 H     15.46712923    -34.32200731    -11.92972103
 H     14.19667293    -36.31760603    -12.53521489
 H     12.87372868    -35.81368158    -11.45625922
 H     13.88856403    -35.85224393     -9.46572752
 H     15.43289812    -36.38443977    -10.17288129
 H     13.90332134    -38.46847749    -10.77970496
 H     12.57156297    -37.60253795     -9.97668875
 H     13.15202974    -37.39916509     -7.92451299
 H     14.69366727    -38.25501141     -8.16771549
 H     13.80887420    -40.30153050     -8.78365904
 H     12.14340605    -39.69827550     -8.60882796
 H     13.42093191    -39.62047556     -6.10341250
 H     14.80873109    -40.26162262     -7.01511999
 H     13.81631609    -42.27444564     -7.63973981
 H     12.31120126    -41.85654790     -6.78635978
 H     13.45874413    -41.81966516     -4.64224829
 H     14.99308248    -42.23822760     -5.44154671
 H     14.76896185    -44.09929988     -6.39592170
 H     13.15730564    -44.35944813     -5.68658835
 H     13.96838134    -44.35750553     -3.45369111
 H     15.61541716    -43.95547733     -3.99582855
 H     14.89201938    -46.51292374     -4.94989431
 H     13.36302900    -46.16588750     -4.10726690
 H     14.89434345    -46.16050044     -2.00613728
 H     16.26669739    -46.50417147     -3.08632318
 H     15.57105705    -48.55537021     -3.85740417
 H     14.09327385    -48.49522694     -2.86704753
 H     15.64674409    -48.49042796     -0.85852882
 H     17.03260836    -48.54737273     -1.97405748
 H     16.60223621    -50.58435720     -2.93961239
 H     15.14582900    -50.81932876     -1.94365401
 H     16.99426841    -50.76784251     -0.04200617
 H     17.79345415    -51.71536109     -1.67361238
 H     16.73199418    -52.88282117     -1.96480699
 H     16.27108102    -52.87309959     -0.70658291
 H     18.13655079    -52.37134932     -3.01378717
 H     17.12461368    -52.83337648     -3.19127944
 H     19.85741039    -53.07088632     -1.91663787
 H     19.23903171    -51.68152577     -2.84159826
 H     18.99290386    -52.85170059     -4.86856620
 H     19.59658364    -54.35226377     -4.12549989
 H     21.76380031    -53.39118028     -3.68378366
 H     21.19926741    -52.69851942     -5.50516296
 H     21.08171829    -53.46102292     -6.52436625
 H     21.61977550    -54.76894950     -5.44358452
 H     23.74241177    -53.77170213     -5.01920463
 H     23.34420949    -52.39710611     -6.07759368
 H     23.23922135    -53.51379786     -8.05436269
 H     23.40778912    -55.10514073     -7.27495301
 H     25.78420079    -54.16850350     -6.70547669
 H     25.31769686    -52.67608750     -7.55596787
 H     25.13977917    -54.10191093     -9.63972322
 H     25.61370383    -55.51930567     -8.67294806
 H     27.83641957    -54.32630176     -8.38421830
 H     27.17367777    -52.91966125     -9.25047603
 H     27.09037080    -54.61191150    -11.23374069
 H     27.76167494    -55.83394595    -10.12728273
 H     29.79964269    -54.73262280     -9.76002573
 H     29.32668350    -53.39957299    -10.84056008
 H     29.16395848    -54.65421957    -12.78748306
 H     29.62781861    -56.14378815    -11.93057823
 H     31.80236745    -54.44851070    -11.75363339
 H     30.78470145    -53.31365373    -12.67272111
 H     30.38137608    -54.16327103    -14.54771125
 H     31.33262992    -55.63013979    -14.21352743
 H     33.32277736    -54.05060614    -14.21429286
 H     32.62208822    -52.91908321    -13.86681116
 H     31.82110303    -51.93479871    -13.48269480
 H     31.26503808    -51.93580086    -15.17356956
 H     33.32841558    -51.56432763    -16.16134119
 H     34.13907756    -51.51093321    -14.57759788
 H     33.21920087    -49.77077941    -13.60008830
 H     32.18444645    -49.41491298    -15.00397899
 H     34.84732313    -49.51753579    -15.96249638
 H     35.11514497    -49.25077930    -15.32888602
 H     33.28222050    -49.26205300    -17.43081064
 H     34.65694696    -50.30625083    -16.99716945
 H     36.19911256    -48.41373814    -17.26312538
 H     34.83369187    -47.35820506    -17.69872028
 H     34.15407639    -48.38561740    -19.60617103
 H     36.14007516    -48.95929095    -19.59293859
 H     37.25766419    -48.25891510    -19.66337616
 H     36.24277068    -46.80571931    -19.82610247
 H     35.42944930    -47.96647261    -21.98965829
 H     36.52638974    -49.31546037    -21.60858044
 H     38.38089196    -48.61094397    -22.24959813
 H     38.10944988    -46.95145940    -21.66590574
 H     37.44659629    -47.46186918    -23.23701161
1502
Final Conformation Chain 7 (Simulation Frame 8)
 C      0.00000000      0.00000000      0.00000000
 C      1.54000000      0.00000000      0.00000000
 C      2.16637443      1.40188573     -0.11820101
 C      3.66555511      1.39044234     -0.47023273
 C      3.95944154      1.07448476     -1.94854311
 C      5.42491096      0.69258464     -2.22809930
 C      5.73341215      0.43934720     -3.71547881
 C      5.22495019      1.54609725     -4.65790694
 C      5.96543596      2.88774449     -4.50538318
 C      5.30258375      4.05787039     -5.25573799
 C      4.92317023      3.73313872     -6.71251344
 C      6.03775920      4.03339464     -7.73189453
 C      7.09478599      2.91973409     -7.85044627
 C      6.52481190      1.55989385     -8.29492805
 C      7.46972394      0.37098693     -8.03950374
 C      8.72625598      0.36701713     -8.92984720
 C      9.71045257     -0.77598178     -8.61918572
 C     10.91111686     -0.84745594     -9.58090123
 C     11.71965721     -2.15403407     -9.47738261
 C     13.00561685     -2.16365573    -10.32462237
 C     14.11062345     -3.08507806     -9.77549459
 C     15.38596110     -3.11660627    -10.63811840
 C     16.40944354     -4.18236264    -10.20424392
 C     17.69973789     -4.19057707    -11.04488237
 C     18.61571372     -5.39869590    -10.77462845
 C     19.81305648     -5.50468334    -11.73730025
 C     20.96610324     -6.37818671    -11.20902472
 C     20.53785196     -7.79917003    -10.79791984
 C     21.59685081     -8.56018056     -9.97878345
 C     21.24595638    -10.03711380     -9.71966704
 C     22.44683632    -10.90015561     -9.28996229
 C     22.10329193    -12.38462629     -9.06652534
 C     23.31767114    -13.26169742     -8.70927280
 C     23.01076591    -14.77028423     -8.66958656
 C     24.26291699    -15.66200512     -8.57711210
 C     24.10338480    -16.87011992     -7.63551340
 C     25.40151646    -17.66911161     -7.41627273
 C     25.23309876    -18.90051851     -6.50694742
 C     26.48162102    -19.79890554     -6.43149601
 C     26.38348584    -20.92078976     -5.38109357
 C     27.34556671    -22.09734907     -5.62950571
 C     27.20215230    -23.24836433     -4.61649230
 C     28.29296697    -24.32869683     -4.73734363
 C     28.41666100    -25.23526123     -3.49861817
 C     29.62076226    -26.19435132     -3.54205028
 C     30.97494121    -25.51218181     -3.27289577
 C     32.17925660    -26.47091066     -3.31832078
 C     32.13209753    -27.58654007     -2.25777985
 C     32.63901937    -28.95090140     -2.76091841
 C     32.52677865    -30.08256011     -1.72248181
 C     32.72880361    -31.49243556     -2.30817553
 C     32.81651522    -32.60492439     -1.24691435
 C     32.83828561    -34.02902743     -1.83262467
 C     33.63140174    -35.04225361     -0.98649257
 C     33.53774643    -36.49267314     -1.49552288
 C     34.36936497    -37.49838860     -0.67787562
 C     34.22661201    -38.95787247     -1.14811856
 C     35.24840288    -39.92200715     -0.51725588
 C     34.81604964    -41.39978301     -0.54639653
 C     35.97994731    -42.39612430     -0.39068443
 C     35.56319976    -43.87239660     -0.52685186
 C     36.69023520    -44.79841927     -1.02068701
 C     36.44041214    -46.29238226     -0.74272476
 C     37.46657726    -47.23236993     -1.40227637
 C     37.03531672    -48.71050785     -1.42915787
 C     38.18977370    -49.69513148     -1.69249297
 C     37.81256578    -51.17333279     -1.48217162
 C     38.64847623    -52.15844751     -2.32026630
 C     38.02120286    -53.55883421     -2.45082367
 C     38.50060152    -54.34745678     -3.68364619
 C     37.79210891    -55.70126582     -3.87558189
 C     38.27832526    -56.49423156     -5.10293636
 C     37.83107314    -57.96781330     -5.11399926
 C     38.01412697    -58.66777325     -6.47346509
 C     37.35407172    -60.05665170     -6.55679413
 C     37.30957351    -60.64468008     -7.97941232
 C     36.13062476    -61.60489081     -8.22369736
 C     36.18459867    -62.33044087     -9.58099760
 C     34.95261200    -63.20749057     -9.87184578
 C     35.01920664    -63.95490880    -11.21666218
 C     33.70648889    -64.65876198    -11.60776679
 C     33.39913529    -65.91803647    -10.77628526
 C     32.01299349    -66.52894782    -11.05377083
 C     31.26097056    -66.97708833     -9.78679348
 C     29.85149405    -67.53454548    -10.05922233
 C     29.22220515    -68.26167443     -8.85635950
 C     27.73014178    -68.59701509     -9.03772531
 C     27.24902933    -69.79046403     -8.19166950
 C     25.78736325    -70.19693328     -8.45608400
 C     25.44305362    -71.62752756     -8.00171533
 C     24.10502096    -72.15470324     -8.55249149
 C     23.66162361    -73.49711348     -7.94180864
 C     22.29055550    -73.98982625     -8.44081401
 C     21.94795742    -75.42865987     -8.01188000
 C     20.74388689    -76.03443523     -8.75676279
 C     20.54427399    -77.54043491     -8.50433531
 C     21.67847120    -78.42382396     -9.05644082
 C     21.34878651    -79.92801667     -9.07411263
 C     22.48843542    -80.81275993     -9.61265673
 C     22.27689705    -82.31966861     -9.37584936
 C     23.51607915    -83.18167142     -9.68077374
 C     23.41604054    -84.62812053     -9.16175809
 C     24.77880649    -85.31424058     -8.95269291
 C     24.68679907    -86.70033669     -8.28795822
 C     26.05286959    -87.36106240     -8.02548370
 C     25.96390356    -88.71726791     -7.30133477
 C     27.24620412    -89.10784397     -6.54320839
 C     27.14856302    -90.45212571     -5.79824342
 C     28.30226385    -90.70597352     -4.81024763
 C     28.42862877    -92.17273905     -4.35832861
 C     29.49509800    -92.40369256     -3.27163461
 C     29.84322200    -93.88593744     -3.04063726
 C     30.25031799    -94.21541306     -1.59242502
 C     30.49511707    -95.71407236     -1.33611715
 C     30.56514870    -96.09120882      0.15534645
 C     31.17001203    -97.48212228      0.42199249
 C     30.73494472    -98.10833480      1.75996645
 C     31.38600155    -99.47259501      2.05410771
 C     31.35879392    -99.87202607      3.54115665
 C     31.75400285   -101.33714464      3.80352560
 C     31.95965025   -101.67347048      5.29221431
 C     32.48427589   -103.09900149      5.54564930
 C     32.09769635   -103.67338709      6.92123552
 C     32.68710647   -105.06732612      7.20606826
 C     32.76489819   -105.42056499      8.70298868
 C     33.14984866   -106.88539360      8.98171844
 C     32.75798245   -107.37955972     10.38665286
 C     33.25039501   -108.80240812     10.71012204
 C     33.43101122   -109.07576156     12.21486643
 C     34.17561457   -110.38682215     12.52837235
 C     34.57172229   -110.54373241     14.00826351
 C     35.55598341   -111.69788858     14.27425892
 C     35.75458122   -112.02027721     15.76698276
 C     36.70920943   -113.19938662     16.03153142
 C     37.42116114   -113.13502844     17.39556323
 C     38.64526529   -114.06272308     17.50759751
 C     39.46811369   -113.86144899     18.79368042
 C     40.74632406   -114.71782998     18.85993631
 C     41.46026474   -114.67309753     20.22371332
 C     40.52102878   -114.40292109     21.41385637
 C     41.03292408   -114.96063359     22.75494547
 C     40.04395884   -114.78935854     23.92294059
 C     40.71947609   -114.63746481     25.29851492
 C     41.41401675   -115.91720248     25.79999749
 C     41.97581372   -115.80587906     27.22953982
 C     42.66378525   -117.08807311     27.73379529
 C     43.38484498   -116.92233015     29.08442556
 C     44.23798998   -118.13780211     29.49231220
 C     45.05353063   -117.92638838     30.78141952
 C     45.77537930   -119.19184719     31.28056730
 C     47.06699285   -118.90631155     32.06911270
 C     47.88093657   -120.16687318     32.41563829
 C     49.13062841   -119.88980430     33.27185271
 C     49.92938682   -121.15349185     33.64155363
 C     51.08093825   -120.89920292     34.63194065
 C     51.97965552   -122.12574337     34.87587875
 C     53.19829075   -121.84079343     35.77328151
 C     54.14414524   -123.04379750     35.94573580
 C     55.55366509   -122.66678644     36.43839841
 C     56.56988225   -123.82204689     36.37300747
 C     57.96411664   -123.46147912     36.91862762
 C     58.91074538   -124.66738451     37.06452564
 C     60.25887727   -124.32881111     37.72747997
 C     61.16579004   -125.55105558     37.96248568
 C     62.43242856   -125.24277929     38.78235921
 C     62.33345595   -125.64895097     40.26452957
 C     63.61237415   -125.37225522     41.07656879
 C     63.39083624   -125.33315151     42.60004897
 C     64.69221570   -125.26621612     43.42073841
 C     64.46954802   -125.17781276     44.94198920
 C     65.68241293   -125.62398185     45.77954030
 C     65.51694797   -125.39417670     47.29328102
 C     66.71730817   -125.86798681     48.13366151
 C     66.38514413   -126.11421819     49.61711598
 C     67.60695526   -126.48003191     50.48022540
 C     67.26592372   -126.78796841     51.95008002
 C     66.39649764   -125.71378961     52.62966680
 C     66.08000944   -126.00719881     54.10795846
 C     65.05790539   -125.04001327     54.73362247
 C     64.32553054   -125.61125594     55.96199900
 C     63.02385057   -124.86861259     56.31655521
 C     62.63902237   -124.95494434     57.80519690
 C     61.41111409   -124.10663571     58.18495172
 C     61.49398317   -123.47778653     59.58826260
 C     60.18933036   -122.80229680     60.04999267
 C     60.26518055   -122.19321504     61.46238999
 C     58.93597383   -121.59426875     61.95844725
 C     58.92417289   -121.25378652     63.46029032
 C     57.71758203   -120.40408877     63.90046330
 C     57.85768802   -119.80015909     65.31015803
 C     56.81517802   -118.71348080     65.63249820
 C     56.95823703   -118.10620319     67.04045702
 C     56.08940299   -116.85648418     67.27482807
 C     56.01009904   -116.41610095     68.74838618
 C     55.35565038   -115.03759680     68.95580668
 C     55.18785244   -114.63993677     70.43408620
 C     54.87111664   -113.14832265     70.64941333
 C     54.37758936   -112.81131753     72.06872949
 C     54.11987300   -111.31114704     72.30254733
 C     53.23445946   -111.01098222     73.52628911
 C     52.95523281   -109.51237281     73.74492652
 C     52.06375546   -109.21271248     74.96438206
 C     51.88054255   -107.71103108     75.25245498
 C     50.98668725   -107.41132453     76.47015719
 C     50.86530156   -105.91294926     76.80442816
 C     49.52287650   -105.52191579     77.44986427
 C     49.35730995   -104.00873823     77.68327678
 C     49.51334369   -103.15767720     76.40932679
 C     48.85251662   -101.76953222     76.49855177
 C     49.46211723   -100.72327690     75.54705984
 C     48.89991829    -99.30204861     75.73585199
 C     49.68431308    -98.21277087     74.98100180
 C     49.52923576    -96.80174551     75.57812696
 C     50.53677158    -95.77484564     75.02862880
 C     50.17911201    -94.31206230     75.35103310
 C     51.22086842    -93.28968632     74.86002297
 C     50.85273697    -91.82541331     75.16331128
 C     51.88449105    -90.80178690     74.65412322
 C     51.46710156    -89.33435456     74.86395252
 C     50.41092932    -88.83401514     73.86107632
 C     50.19845585    -87.30891337     73.88387124
 C     48.96369230    -86.83663836     73.09398815
 C     48.95188561    -85.32610956     72.79438287
 C     47.98119368    -84.91798954     71.67064125
 C     47.86038050    -83.39598715     71.46936312
 C     46.68705332    -82.97492055     70.56514730
 C     46.67280114    -81.47528065     70.21518010
 C     45.67068042    -81.10002486     69.10768871
 C     45.42230621    -79.58603935     68.97442912
 C     44.11924022    -79.22766467     68.23606160
 C     43.85833032    -77.71401394     68.12476240
 C     42.58897433    -77.35393037     67.33061178
 C     42.61282431    -75.94101559     66.71848189
 C     41.21766273    -75.31785398     66.52666486
 C     41.24485016    -73.82437256     66.15199956
 C     39.85199387    -73.17157202     66.07849576
 C     39.86232513    -71.64723160     66.29730975
 C     38.46015005    -71.02294938     66.42291526
 C     38.45437250    -69.61735769     67.05210412
 C     37.08676224    -68.91159877     66.99601017
 C     37.17610254    -67.37463762     66.95901364
 C     35.83220258    -66.66305102     67.20227770
 C     35.91151658    -65.12761089     67.11434071
 C     34.53923523    -64.43281543     67.03882158
 C     34.60848712    -62.95366715     66.61582686
 C     33.28693262    -62.18579493     66.80415094
 C     33.33852315    -60.72321554     66.32477641
 C     32.01323855    -59.95901952     66.50148291
 C     32.08386926    -58.47802004     66.08524759
 C     30.81820739    -57.67016685     66.42740727
 C     30.98349267    -56.14783723     66.26372066
 C     29.68472362    -55.41438310     65.88051837
 C     29.78917489    -53.87938014     65.94727047
 C     28.43819212    -53.15305844     65.80978463
 C     28.52015560    -51.63097951     66.02923327
 C     27.16718881    -50.90623524     65.90342942
 C     27.28602708    -49.37670123     65.76925348
 C     26.13838956    -48.72660782     64.97432791
 C     25.87641421    -47.25450850     65.34296391
 C     24.51612624    -46.71983781     64.85784136
 C     24.33243282    -45.20366835     65.05554540
 C     22.92820471    -44.68958673     64.68749173
 C     22.74140712    -43.17507061     64.89472972
 C     21.30234247    -42.68263671     64.65347929
 C     21.03808569    -41.25057776     65.15445387
 C     19.55775180    -40.82999453     65.09682295
 C     19.24831125    -39.52249976     65.84935465
 C     17.81526079    -39.00076998     65.63542844
 C     17.53359586    -37.64731759     66.31397946
 C     16.04820250    -37.24090071     66.30833142
 C     15.74876602    -35.95090698     67.09436828
 C     14.26579390    -35.53611481     67.07589760
 C     13.94399316    -34.32143617     67.96617850
 C     12.47057180    -33.87697141     67.91067544
 C     12.04211619    -33.29695731     66.54993688
 C     10.52485203    -33.35696073     66.29320930
 C     10.07385730    -32.60707960     65.02597529
 C      8.54955168    -32.60806428     64.80667781
 C      8.11730499    -32.12335167     63.41031952
 C      8.10440913    -30.59122360     63.25534451
 C      8.22123346    -30.10808160     61.79776917
 C      8.28266470    -28.57655947     61.64855061
 C      7.66997665    -28.04987847     60.33751267
 C      7.34929678    -26.54375837     60.35666157
 C      6.62418548    -26.04163252     59.09424990
 C      6.20728695    -24.56053822     59.15871140
 C      5.59930910    -24.02341431     57.84971910
 C      5.12652360    -22.56014153     57.93282523
 C      4.58865546    -21.99919884     56.60329856
 C      4.89920899    -20.50721624     56.38161309
 C      4.40192366    -19.95775743     55.03164927
 C      4.67628506    -18.45625333     54.82717130
 C      4.39115763    -17.95624079     53.39878416
 C      4.31301084    -16.42315565     53.27572716
 C      4.38118314    -15.90680914     51.82647259
 C      3.96424528    -14.43299529     51.66636158
 C      4.04712069    -13.91223428     50.21945466
 C      3.52579375    -12.47425599     50.04046680
 C      3.53569070    -11.98145666     48.58147712
 C      3.11672397    -10.50894113     48.41484917
 C      3.11274431    -10.02024949     46.95445037
 C      2.22781581     -8.78380608     46.71009564
 C      2.00426051     -8.45780016     45.22169275
 C      1.03187227     -7.28925370     44.97560278
 C      0.96228396     -6.83095108     43.50702654
 C     -0.28563520     -5.99361227     43.17063170
 C     -0.24453817     -5.34038625     41.77664217
 C     -1.63272255     -5.11679228     41.14851014
 C     -1.60340916     -4.90500964     39.62342364
 C     -2.99302961     -4.69708738     38.99308773
 C     -2.95249361     -4.27535757     37.51251325
 C     -4.34226577     -4.11082586     36.86981374
 C     -4.30310993     -3.62962488     35.40744838
 C     -5.66289388     -3.14529007     34.87078515
 C     -5.63021106     -2.69243843     33.39923589
 C     -7.01745665     -2.37539282     32.81048149
 C     -6.99103268     -1.98145704     31.32195324
 C     -8.37806587     -1.66258136     30.73368694
 C     -8.35413111     -1.28939769     29.23977895
 C     -9.58738965     -0.49389268     28.77304011
 C     -9.56553621     -0.12450815     27.27815633
 C    -10.76456619      0.72982986     26.82645545
 C    -10.59167535      1.36562081     25.43452204
 C    -11.61965282      2.46749525     25.11713423
 C    -11.46971437      3.07784656     23.71122180
 C    -12.60869409      4.03783789     23.32039979
 C    -12.51571156      4.56514052     21.87647937
 C    -13.82209679      5.18993587     21.35246753
 C    -13.73872501      5.68797040     19.89760989
 C    -14.75332955      6.79477535     19.55532285
 C    -14.84009722      7.12217418     18.05303080
 C    -13.50443060      7.57096652     17.43159689
 C    -13.64452657      8.20147428     16.03358649
 C    -12.45032038      7.92786392     15.10052222
 C    -12.84692042      7.66779854     13.63536885
 C    -11.71745294      7.93645741     12.62357557
 C    -11.95881676      7.31445289     11.23560803
 C    -10.77368040      7.47036845     10.26465892
 C    -11.11022212      7.11790293      8.80380037
 C     -9.91766716      7.24593293      7.83787025
 C     -9.88920197      6.17422591      6.73232342
 C     -8.77042547      6.37560600      5.69338877
 C     -8.63149199      5.21587276      4.68973729
 C     -7.66281114      5.50545905      3.52810173
 C     -7.48132592      4.32577344      2.55495991
 C     -6.67970407      4.67674839      1.28775078
 C     -6.54443625      3.51193820      0.28949237
 C     -5.48532286      3.74404687     -0.80412748
 C     -5.07009336      2.46546648     -1.55540417
 C     -3.84679217      2.64747512     -2.47301358
 C     -3.33261276      1.33756204     -3.09859112
 C     -1.84336845      1.37226341     -3.48916404
 C     -1.35314409      0.09871276     -4.20285082
 C      0.05090464      0.22871284     -4.82200117
 C      0.78319067     -1.11412185     -5.00131136
 C      2.09443893     -1.01045590     -5.80223670
 C      2.82219353     -2.35471651     -5.98915016
 C      4.18962950     -2.23492655     -6.68726851
 C      4.96297467     -3.56328426     -6.78215291
 C      6.35041262     -3.43486949     -7.43799250
 C      7.28628602     -4.62638457     -7.16225204
 C      8.67395633     -4.49765939     -7.81753895
 C      9.45549729     -5.82235821     -7.89478378
 C     10.65858368     -5.78472955     -8.85539151
 C     11.40048426     -7.12819337     -8.98301789
 C     12.76841289     -7.02431955     -9.68271888
 C     13.53138550     -8.35931704     -9.76789217
 C     14.91780135     -8.24734696    -10.42888672
 C     15.52467805     -9.60032729    -10.84451263
 C     16.93675828     -9.49397225    -11.44975475
 C     17.35743511    -10.72230868    -12.27789763
 C     18.87917399    -10.95372814    -12.32643439
 C     19.28998118    -12.28159386    -12.98946537
 C     20.79352403    -12.59674549    -12.88158410
 C     21.16367396    -14.03322180    -13.29525648
 C     22.64315492    -14.39091494    -13.06118021
 C     22.97839398    -15.87130399    -13.32130141
 C     24.41214828    -16.26816542    -12.92324413
 C     24.66119772    -17.78785296    -12.91210112
 C     25.99516391    -18.19921818    -12.26178362
 C     26.07367437    -19.68967133    -11.88232938
 C     27.26704338    -20.04310724    -10.97538204
 C     27.23689632    -21.48442139    -10.43380595
 C     28.56400785    -21.94406105     -9.80205727
 C     28.55667746    -23.40832420     -9.32510896
 C     29.94137697    -23.93850285     -8.90903462
 C     29.92510205    -25.38419936     -8.37866047
 C     31.32493359    -25.99667143     -8.18643762
 C     31.31009704    -27.42455970     -7.60979652
 C     32.70622534    -28.06057497     -7.47596699
 C     32.68050455    -29.55995973     -7.12556185
 C     34.06928882    -30.15973855     -6.83721550
 C     34.02673967    -31.52049016     -6.11739286
 C     35.39915649    -32.20868815     -5.99716149
 C     35.35373316    -33.57810858     -5.29415053
 C     36.70470766    -34.31707389     -5.27419608
 C     36.78459657    -35.44824626     -4.23224270
 C     38.09592384    -36.25419201     -4.28196417
 C     38.13215908    -37.45179762     -3.31447886
 C     39.18145533    -38.51888983     -3.67764768
 C     38.93683796    -39.88826630     -3.01691293
 C     40.09965872    -40.88324124     -3.18858923
 C     39.75345756    -42.32756377     -2.78155461
 C     40.95750305    -43.28762250     -2.79427066
 C     40.58184134    -44.76628117     -2.58439736
 C     41.75682667    -45.74384725     -2.77247723
 C     41.36114639    -47.22787339     -2.65976734
 C     42.51240646    -48.20723700     -2.95480496
 C     42.06923735    -49.67728509     -3.07379971
 C     42.45200567    -50.34071109     -4.40982155
 C     41.84827945    -51.74347630     -4.60822623
 C     41.93151923    -52.26220674     -6.05584146
 C     41.09351835    -53.52758326     -6.31694835
 C     41.14421231    -54.02275367     -7.77428715
 C     40.34187715    -55.31296376     -8.02571551
 C     40.48210822    -55.86931122     -9.45484558
 C     39.75663337    -57.20902549     -9.67946062
 C     39.68104199    -57.64058313    -11.15582234
 C     39.02818378    -59.01833269    -11.37303728
 C     38.71497726    -59.33773035    -12.84663384
 C     38.13610391    -60.74675729    -13.07279465
 C     37.83761408    -61.07191308    -14.54818529
 C     36.93658795    -62.30472432    -14.74800612
 C     36.43505231    -62.48646127    -16.19266306
 C     35.46537393    -63.66886571    -16.37499132
 C     33.97842075    -63.26883120    -16.35169737
 C     33.01979906    -64.43783737    -16.05832215
 C     31.56664703    -64.00410747    -15.79031550
 C     30.87041419    -64.80314124    -14.67299510
 C     29.52702010    -64.20336304    -14.21784851
 C     29.08031869    -64.65916974    -12.81631432
 C     27.61000858    -64.33612198    -12.49161702
 C     27.18523207    -64.72028800    -11.06207815
 C     25.66942009    -64.61793460    -10.81020952
 C     25.22857372    -65.12877498     -9.42590588
 C     23.72131170    -65.42588359     -9.31872523
 C     23.36203329    -66.45875245     -8.23442779
 C     22.01837567    -67.17318946     -8.47057174
 C     21.49914930    -67.95121475     -7.24718275
 C     20.43712373    -69.01393889     -7.58529379
 C     19.72378517    -69.60078795     -6.35307778
 C     19.36080295    -71.09110820     -6.49015248
 C     18.51875440    -71.64056169     -5.32368126
 C     18.61006149    -73.16804628     -5.15032089
 C     17.78083740    -73.71559366     -3.97380940
 C     17.79233700    -75.25138107     -3.86056274
 C     16.79854712    -75.81059419     -2.82554469
 C     16.73393754    -77.34874668     -2.78665337
 C     15.54528222    -77.90558085     -1.98127505
 C     15.52554740    -79.44176849     -1.87479473
 C     14.46403198    -79.98865396     -0.90232298
 C     14.19944503    -81.49870387     -1.04841550
 C     13.08337559    -82.03076957     -0.13032232
 C     12.83903914    -83.54615175     -0.25488779
 C     12.19804289    -83.96963714     -1.58957274
 C     12.46406730    -85.43682281     -1.97453668
 C     13.22216345    -85.60798844     -3.30404507
 C     13.73254509    -87.03924056     -3.55430081
 C     14.80177173    -87.13891951     -4.65812077
 C     15.65767801    -88.41721375     -4.58749314
 C     16.87821138    -88.40647767     -5.52652617
 C     17.53407467    -89.78674367     -5.71707563
 C     18.33936294    -89.92271305     -7.02268780
 C     19.28278823    -91.13952705     -7.05289421
 C     20.24168661    -91.15889937     -8.25777537
 C     21.34788617    -92.22591738     -8.16084718
 C     22.55479900    -91.96224175     -9.08032344
 C     23.58544863    -93.10625656     -9.10464292
 C     24.79166663    -92.84318387    -10.02520302
 C     25.97369961    -92.14709152     -9.32530769
 C     27.32786697    -92.35317806    -10.02912522
 C     28.48266585    -91.53940676     -9.41608703
 C     29.87033929    -91.89964264     -9.97839702
 C     31.00057130    -90.96897154     -9.50087537
 C     31.29381875    -91.06283503     -7.99196995
 C     32.04476836    -92.34208310     -7.57820785
 C     32.29597326    -92.45869016     -6.06331548
 C     33.01822152    -93.75320929     -5.64596949
 C     33.33760891    -93.83519556     -4.14168563
 C     34.14850511    -95.08143856     -3.74053010
 C     34.52744187    -95.12866274     -2.24862635
 C     34.78782559    -96.54889725     -1.71315063
 C     35.21880515    -96.59188277     -0.23531137
 C     35.66006371    -97.98584354      0.24818037
 C     35.50927777    -98.19916796      1.76586160
 C     35.68542996    -99.66216481      2.21331059
 C     35.75019157    -99.84651678      3.74086429
 C     35.93929202   -101.30800883      4.18794594
 C     36.02700996   -101.48964142      5.71467944
 C     36.31896719   -102.93534805      6.15772946
 C     37.56898464   -103.07797316      7.04582542
 C     37.68837609   -104.44522882      7.74436506
 C     37.79288237   -105.63703258      6.77468355
 C     38.26868263   -106.94345222      7.43686316
 C     37.63248532   -108.21423217      6.84359147
 C     38.38061035   -109.51299131      7.19733381
 C     38.04075475   -110.07173164      8.59157461
 C     38.93425603   -111.24678511      9.03032829
 C     38.65247186   -111.74860776     10.45874409
 C     39.65744719   -112.80113914     10.96253204
 H     -0.36333333      0.00000000      1.02766186
 H     -0.36333333     -0.88998127     -0.51383093
 H     -0.36333333      0.88998127     -0.51383093
 H      1.88274777      0.72780492      0.73547533
 H      1.88274777      0.67337689      0.78561283
 H      1.82362666      2.00257900      0.72429028
 H      1.82362666      1.85303081     -1.04937880
 H      3.89707525      0.44089605     -0.95278870
 H      4.19626840      0.84244380      0.30831786
 H      4.89026109      1.56901272     -2.22624270
 H      3.54601464      0.09235118     -2.17787220
 H      5.67654835     -0.17276040     -1.61494631
 H      6.05807511      1.53393641     -1.94644287
 H      4.80303775      0.52177886     -4.27735824
 H      5.09511936     -0.37233865     -4.06454669
 H      5.04644371      2.44434151     -4.06681245
 H      4.14422102      1.62620499     -4.54082919
 H      7.02271495      2.72105880     -4.71148270
 H      5.84524555      3.23067414     -3.47773853
 H      4.28927013      4.18023426     -4.87321663
 H      4.38065286      3.69521447     -5.71029723
 H      4.22919039      2.89262779     -6.70673747
 H      5.70970427      3.11214323     -7.14126607
 H      6.99979750      3.89813918     -7.23763928
 H      6.20097369      5.11088176     -7.75386139
 H      6.73759292      2.04832570     -7.30166531
 H      7.55414926      2.77764337     -6.87223585
 H      6.05155490      1.68829263     -9.26839688
 H      5.77732607      1.24678584     -7.56600534
 H      7.82421351      0.42984593     -7.01043972
 H      8.48108343      0.75772934     -7.91427480
 H      9.27840232      1.28897476     -8.74756023
 H      8.40791890      0.33412075     -9.97180657
 H      9.18974398     -1.72359584     -8.75699054
 H     10.02682720     -0.68298409     -7.58026391
 H     11.45299173      0.09655917     -9.52339404
 H     10.53165822     -0.98750337    -10.59307605
 H     11.05334388     -2.98785783     -9.69843571
 H     12.09175898     -2.24691188     -8.45708168
 H     13.51423319     -1.20954711    -10.18646973
 H     12.72531668     -2.27769016    -11.37177468
 H     13.71988652     -4.10179050     -9.73401625
 H     14.36559086     -2.75249191     -8.76927489
 H     15.78347755     -2.10352506    -10.69933223
 H     15.11624447     -3.46199771    -11.63614530
 H     15.93169130     -5.16032371    -10.26293752
 H     16.69822818     -3.98038553     -9.17278443
 H     18.16932101     -3.21044734    -10.96159130
 H     17.43034442     -4.37723046    -12.08444366
 H     18.05719124     -6.30838585    -10.99512070
 H     18.89338409     -5.38929720     -9.72063091
 H     20.40812393     -4.59607524    -11.64550666
 H     19.42909933     -5.58635951    -12.75416106
 H     20.66782832     -6.79419372    -10.24669929
 H     21.31790902     -5.95032382    -10.27026701
 H     20.10547482     -8.29220971    -11.66858733
 H     19.78377724     -7.71690593    -10.01516576
 H     21.80516984     -7.98965388     -9.07368540
 H     22.50441924     -8.63552800    -10.57773445
 H     21.13299696    -10.53648340    -10.68194048
 H     20.30106937    -10.07490278     -9.17757799
 H     22.71866973    -10.62598634     -8.27063024
 H     23.28030202    -10.68495284     -9.95863462
 H     21.70671631    -12.78861740     -9.99798600
 H     21.34108214    -12.44689479     -8.28982793
 H     23.81926791    -12.81857761     -7.84895570
 H     23.99713426    -13.26988492     -9.56154203
 H     22.64714429    -15.07203434     -9.65184222
 H     22.23296404    -14.94236192     -7.92560167
 H     24.80502985    -15.39851584     -7.66893423
 H     24.89056795    -15.46265837     -9.44568285
 H     23.27769814    -17.48161115     -7.99940902
 H     23.86831456    -16.49860937     -6.63810582
 H     26.14860034    -16.99915694     -6.99068323
 H     25.74812139    -18.03210018     -8.38384924
 H     24.35878330    -19.45785974     -6.84316645
 H     25.07231677    -18.55345210     -5.48626429
 H     27.31059854    -19.20238899     -6.05062294
 H     26.71577708    -20.14555645     -7.43802672
 H     25.52541734    -21.54639434     -5.62693368
 H     26.23115391    -20.46287568     -4.40374528
 H     28.36545507    -21.71275170     -5.62595556
 H     27.12116110    -22.52296929     -6.60755967
 H     26.18037515    -23.62449355     -4.66746545
 H     27.39447359    -22.85306934     -3.61906842
 H     29.26604658    -23.84264169     -4.66687036
 H     28.19537356    -24.80678689     -5.71202585
 H     27.45911934    -25.73126658     -3.33989619
 H     28.64856964    -24.60887726     -2.63724630
 H     30.35196279    -25.79487881     -4.24480735
 H     29.52187747    -26.82896247     -4.42272643
 H     30.93737351    -25.05375058     -2.28470072
 H     31.12511257    -24.73917190     -4.02655633
 H     32.21630625    -26.92807411     -4.30712253
 H     31.80252653    -27.49147643     -3.38629112
 H     31.25907601    -28.20905737     -2.45375337
 H     32.03455106    -27.12253477     -1.27630964
 H     33.67184357    -28.83312031     -3.08879306
 H     32.02192346    -29.25530667     -3.60627636
 H     31.47861448    -30.18830073     -1.44271262
 H     33.11038361    -29.80222214     -0.84560333
 H     33.77677311    -31.60049331     -2.58778856
 H     32.10413039    -31.58735636     -3.19636098
 H     31.91003961    -32.57416146     -0.64238511
 H     33.68197796    -32.40768722     -0.61432306
 H     33.58587494    -34.06228566     -2.62515485
 H     31.85489969    -34.24239004     -2.25158591
 H     33.18201143    -35.08650167      0.00557116
 H     34.65953468    -34.68972360     -0.90424138
 H     33.92106637    -36.52339879     -2.51543550
 H     32.48907969    -36.78997477     -1.49239197
 H     34.01903112    -37.47399199      0.35400179
 H     35.41393409    -37.18912262     -0.71434356
 H     34.54554714    -39.01541039     -2.18882494
 H     33.17660351    -39.24079811     -1.07371940
 H     35.12082549    -39.89655811      0.56495314
 H     36.24974041    -39.57579447     -0.77330261
 H     34.66502609    -41.69228741     -1.58549858
 H     33.87602526    -41.49266488     -0.00249662
 H     36.47233264    -42.20179104      0.56214886
 H     36.68523301    -42.22923599     -1.20482224
 H     35.12037637    -44.01399746     -1.51273048
 H     34.82006112    -44.09088917      0.24002880
 H     37.58153721    -44.60130408     -0.42501400
 H     36.89271494    -44.56459820     -2.06588061
 H     35.46347440    -46.55753324     -1.14693709
 H     36.44064175    -46.44492397      0.33654860
 H     38.45735513    -46.97506121     -1.02777480
 H     37.43317649    -47.07402957     -2.48019693
 H     36.09846858    -48.78422261     -1.98140935
 H     36.87865475    -49.04056857     -0.40221242
 H     38.93367931    -49.56938759     -0.90579549
 H     38.63563590    -49.45059037     -2.65660217
 H     36.99299129    -51.41743567     -2.15804989
 H     37.48292828    -51.29956247     -0.45090774
 H     38.80259141    -53.06343704     -1.73260784
 H     38.50956525    -51.91582230     -3.37380165
 H     37.08925547    -53.46631385     -3.00851001
 H     37.80975814    -53.93437979     -1.44964604
 H     39.58265895    -54.46132606     -3.61818243
 H     38.24888286    -53.77457937     -4.57614223
 H     36.72305331    -55.51670486     -3.98121039
 H     37.96988674    -56.30988760     -2.98897342
 H     39.34655522    -56.67936800     -4.99020107
 H     38.10648840    -55.88829298     -5.99254894
 H     36.74154525    -57.99544539     -5.09770683
 H     38.22021731    -58.45084909     -4.21770509
 H     39.07031509    -58.62814403     -6.73991618
 H     37.43085898    -58.12695213     -7.21872408
 H     36.28613072    -59.94023228     -6.37227170
 H     37.78942589    -60.68996838     -5.78382793
 H     38.33200940    -60.72844213     -8.34779905
 H     36.74899161    -59.96003825     -8.61589758
 H     35.20291046    -61.06002308     -8.04886796
 H     36.20715800    -62.42900789     -7.51442048
 H     37.10969126    -62.90514872     -9.62588184
 H     36.18457103    -61.57966654    -10.37121143
 H     34.08660443    -62.55531857     -9.98499429
 H     34.79764898    -63.87320813     -9.02278360
 H     35.72828352    -64.77675603    -11.11727853
 H     35.37310757    -63.25975111    -11.97798334
 H     32.92029167    -63.90654322    -11.67227149
 H     33.16091564    -64.89832502    -10.69504592
 H     33.33358121    -65.62865810     -9.72744647
 H     34.21901660    -66.62414883    -10.90781464
 H     31.96048422    -66.79419243    -12.10970078
 H     31.25608530    -65.77723473    -10.82990163
 H     31.12983137    -66.10888893     -9.14093568
 H     31.86789072    -67.72316037     -9.27383693
 H     29.94512814    -68.39327391    -10.72399157
 H     29.26457089    -66.75783761    -10.54947337
 H     29.10008700    -67.54232747     -8.04658972
 H     29.90205793    -69.05280553     -8.54011310
 H     27.62633885    -69.23416450     -9.91599951
 H     27.18660289    -67.66590593     -9.19804129
 H     27.42282994    -69.55798499     -7.14102834
 H     27.83374771    -70.66678385     -8.47143367
 H     25.69040066    -70.46194496     -9.50892162
 H     25.14861402    -69.34144877     -8.23643500
 H     25.63097992    -71.70151827     -6.93059018
 H     26.09348265    -72.32194040     -8.53353568
 H     24.15428836    -72.14342178     -9.64131905
 H     23.31016070    -71.48814749     -8.21782660
 H     23.56128443    -73.36697814     -6.86426660
 H     24.43320988    -74.23892132     -8.14790509
 H     22.34130790    -74.10589047     -9.52342811
 H     21.54376941    -73.23623192     -8.19080174
 H     21.95204033    -75.47179327     -6.92274142
 H     22.71553814    -76.09540329     -8.40478335
 H     20.96769907    -76.03889577     -9.82352810
 H     19.87370979    -75.40492900     -8.57071515
 H     20.39747316    -77.69222438     -7.43498529
 H     21.49090880    -77.95914104     -8.16276875
 H     22.61200375    -78.11791443     -8.58417359
 H     21.74569969    -78.26258717    -10.13235114
 H     20.51547850    -80.08824412     -9.75823610
 H     21.05517613    -80.22639455     -8.06770139
 H     23.38815626    -80.60237549     -9.03443463
 H     22.65913017    -80.55347138    -10.65751689
 H     21.35057037    -82.61713774     -9.86730740
 H     22.18942456    -82.48901176     -8.30264320
 H     24.33292129    -82.84568847     -9.04203718
 H     23.78771620    -83.03377989    -10.72597296
 H     22.54867254    -85.09904093     -9.62436671
 H     23.27858791    -84.59571166     -8.08094523
 H     25.34964033    -84.72986751     -8.23105806
 H     25.30551855    -85.32813686     -9.90688434
 H     24.07272494    -87.34295162     -8.91887741
 H     24.20935311    -86.58291555     -7.31514907
 H     26.63083902    -86.70599982     -7.37360615
 H     26.56889965    -87.47187777     -8.97917806
 H     25.36772653    -89.39412964     -7.91332427
 H     25.46836305    -88.56222640     -6.34294981
 H     27.45446577    -88.33644014     -5.80181564
 H     28.06680721    -89.15473362     -7.25910779
 H     26.92999383    -91.23272266     -6.52693809
 H     26.33175855    -90.38709651     -5.07942380
 H     28.30381274    -89.90421664     -4.07181449
 H     29.23959991    -90.68957512     -5.36633413
 H     28.46179484    -92.80345413     -5.24669706
 H     27.54948293    -92.42575372     -3.76571899
 H     29.16722182    -91.90684122     -2.35854318
 H     30.43135916    -91.96019460     -3.61049242
 H     30.21348138    -94.30115744     -3.97797410
 H     28.93398640    -94.40956448     -2.74533174
 H     29.42192262    -93.95141905     -0.93502996
 H     31.12296018    -93.61448142     -1.33654074
 H     31.29108926    -96.04992450     -2.00074607
 H     29.57737310    -96.25546164     -1.56577702
 H     29.62111805    -95.81307421      0.62390517
 H     31.37805089    -95.52786207      0.61352813
 H     32.18150771    -97.49953512      0.01619293
 H     30.55980191    -98.22534882     -0.09119160
 H     29.64894030    -98.20155116      1.75770429
 H     31.04068658    -97.44136144      2.56604860
 H     32.46761381    -99.33907725      2.07380396
 H     31.11931095   -100.15987178      1.25122119
 H     30.31924609    -99.91105466      3.86660572
 H     31.88943822    -99.10908376      4.11074920
 H     32.66466001   -101.34450515      4.40248250
 H     31.06055442   -101.98128431      3.26286549
 H     31.02882938   -101.46951821      5.82143635
 H     32.74824264   -101.03048677      5.68310303
 H     33.44067315   -103.20820638      5.03429955
 H     31.76720879   -103.80702994      5.13018511
 H     31.01013838   -103.69077077      6.99205548
 H     32.50157482   -103.01738690      7.69236841
 H     33.77370877   -104.99649741      7.15729607
 H     32.33279162   -105.75306781      6.43644541
 H     31.75715414   -105.38347430      9.11672316
 H     33.38877369   -104.67681575      9.19868661
 H     34.12536534   -107.07460681      8.53376133
 H     32.40479396   -107.53020893      8.51566407
 H     31.67775874   -107.28244404     10.49521285
 H     33.25535868   -106.74838493     11.12308702
 H     34.33762387   -108.81455474     10.63340262
 H     32.82664270   -109.48705412      9.97541541
 H     32.47087274   -108.92489726     12.70829735
 H     34.15720812   -108.36415692     12.60774924
 H     35.16238334   -110.33912601     12.06781566
 H     33.61200675   -111.21311255     12.09513985
 H     33.66418453   -110.51239151     14.61116729
 H     35.21778290   -109.70911143     14.28050147
 H     36.46110769   -111.51694573     13.69450920
 H     35.09215211   -112.62706753     13.94321964
 H     34.78735793   -112.29006896     16.19100104
 H     36.13231938   -111.12640821     16.26338188
 H     37.72587247   -112.87310483     15.81235920
 H     36.43788707   -114.01664106     15.36326548
 H     36.66245187   -113.12606569     18.17811030
 H     37.99778962   -112.21101437     17.43796112
 H     39.36016481   -113.78177165     16.73423797
 H     38.31463503   -115.08801420     17.34158019
 H     38.81822078   -114.04673698     19.64890412
 H     39.81694341   -112.82909295     18.81934834
 H     41.37505527   -114.46173088     18.00717004
 H     40.45925208   -115.76749031     18.79746334
 H     41.13294995   -113.77805938     20.75274237
 H     41.72955088   -113.63840558     20.43583959
 H     39.77135046   -115.19355329     21.44521135
 H     40.03032455   -113.44313771     21.25222341
 H     41.99881432   -114.50354013     22.96993761
 H     41.15582124   -116.03889417     22.65320852
 H     39.11897066   -115.30629328     23.66745017
 H     39.84284760   -113.72546264     24.04855818
 H     41.36781223   -113.76180688     25.26715519
 H     41.70142142   -115.10833734     25.25201299
 H     42.17556987   -116.20098062     25.07363201
 H     40.66673695   -116.70758093     25.87052975
 H     41.15158527   -115.57614443     27.90479493
 H     42.70044425   -114.99189709     27.25061025
 H     43.48711854   -117.32322675     27.05931396
 H     41.93512105   -117.89847910     27.71403158
 H     42.65154990   -116.61147064     29.82856580
 H     44.14296621   -116.14679891     28.97532245
 H     44.98967072   -118.30344639     28.72053630
 H     43.58541316   -119.00848683     29.55674521
 H     44.36036020   -117.70621921     31.59329408
 H     45.71848641   -117.07596168     30.63072704
 H     46.45368929   -119.53086877     30.49758586
 H     45.02677200   -119.96092674     31.47084012
 H     46.80291804   -118.35434122     32.97116217
 H     47.72024038   -118.29452134     31.44695485
 H     48.15070237   -120.66709766     31.48552976
 H     47.25277392   -120.82668933     33.01409825
 H     48.81130091   -119.42134876     34.20280886
 H     49.77689881   -119.20457183     32.72331736
 H     50.24675466   -121.64035800     32.71941535
 H     49.27368252   -121.82265908     34.19865961
 H     50.66056374   -120.47981076     35.54599507
 H     51.76601423   -120.17965355     34.18358855
 H     52.40928033   -122.43104325     33.92177472
 H     51.36032860   -122.93151345     35.26992031
 H     52.83760915   -121.48294143     36.73762104
 H     53.79900758   -121.06457042     35.29923813
 H     54.50546678   -123.33965920     34.96084362
 H     53.57815563   -123.86435139     36.38669733
 H     55.45744290   -122.16560852     37.40155052
 H     55.99777655   -121.98247508     35.71549940
 H     56.82145029   -123.99845567     35.32720947
 H     56.10205167   -124.71404669     36.78962589
 H     57.85668726   -123.15802980     37.96001008
 H     58.35517329   -122.62759877     36.33568829
 H     59.03471447   -125.12644036     36.08370996
 H     58.45093664   -125.38365737     37.74542881
 H     60.05876539   -123.83907791     38.68048397
 H     60.79995988   -123.64457293     37.07391458
 H     61.36580238   -126.01976304     36.99894618
 H     60.63472990   -126.25343364     38.60493427
 H     62.13059574   -124.75392076     39.70864981
 H     63.00877658   -124.48544129     38.25098165
 H     62.14563159   -126.72149744     40.31418924
 H     61.49665889   -125.11245659     40.71179286
 H     63.82534006   -124.30439831     41.02730284
 H     64.43324314   -125.92775500     40.62303369
 H     62.98805485   -126.29654912     42.91267046
 H     62.66782167   -124.54801979     42.82122340
 H     65.23483361   -124.36666657     43.13009016
 H     65.29224647   -126.14488349     43.18408102
 H     63.90982494   -126.05805656     45.25818678
 H     63.88577474   -124.28146149     45.15142453
 H     66.53018064   -124.99000022     45.51981508
 H     65.91172887   -126.65905451     45.52628396
 H     64.64336718   -125.95168905     47.63112207
 H     65.35636444   -124.32947921     47.46278670
 H     67.60365248   -125.32842733     47.79994109
 H     66.85574586   -126.93547057     47.96215809
 H     65.60649038   -126.87497615     49.67230359
 H     66.01394113   -125.18270735     50.04442837
 H     68.32554727   -125.66258606     50.42099856
 H     68.05431470   -127.38720068     50.07400581
 H     66.56792612   -127.62488127     51.97190282
 H     66.18285073   -126.74834200     52.06619485
 H     65.46373099   -125.62503278     52.07273896
 H     66.93280855   -124.76554189     52.59365470
 H     67.02165096   -126.08064094     54.65203337
 H     65.55323858   -126.95986136     54.16315383
 H     64.13045761   -125.10643423     54.16482649
 H     65.45592784   -124.02776494     54.66268980
 H     65.06907258   -125.86088102     56.71892209
 H     63.79937305   -126.51591738     55.65729262
 H     62.35234439   -124.92585811     55.45987418
 H     63.26820570   -123.82555513     56.51760669
 H     63.52192982   -124.72441919     58.40137857
 H     62.31367861   -125.97355294     58.01659220
 H     60.60108892   -124.34895603     57.49702725
 H     61.67534245   -123.05447802     58.07889723
 H     62.37663439   -122.83935960     59.62618207
 H     61.59481147   -124.28087442     60.31831978
 H     59.39868588   -123.55258700     60.05676794
 H     59.93891372   -122.01701207     59.33674699
 H     61.05946245   -121.44680223     61.47156496
 H     60.50669349   -122.98945393     62.16650301
 H     58.18547843   -122.38471229     61.96590861
 H     58.63225152   -120.81142987     61.26345369
 H     59.71852528   -120.53313072     63.65460834
 H     59.11827333   -122.16836855     64.02061588
 H     56.80671762   -120.95530070     63.66681521
 H     57.73199261   -119.47081117     63.33753767
 H     58.74574211   -119.16832029     65.32563916
 H     57.98006391   -120.61639828     66.02211149
 H     55.83136818   -119.08750497     65.34908308
 H     57.05052414   -117.82718733     65.04326472
 H     57.95108721   -117.66416096     67.12380679
 H     56.85492223   -118.90794095     67.77164962
 H     55.04546656   -117.13174446     67.12473302
 H     56.37411353   -116.09919851     66.54437730
 H     57.02035950   -116.20144692     69.09680757
 H     55.59222499   -117.23800163     69.32972991
 H     54.34298680   -115.07504567     68.55429694
 H     55.93678143   -114.29627348     68.40733021
 H     56.17363113   -114.62478634     70.89896342
 H     54.56720900   -115.39101696     70.92273766
 H     53.94463715   -112.91541941     70.12454018
 H     55.68584769   -112.56042944     70.22669015
 H     55.15110780   -113.10345863     72.77895678
 H     53.47142382   -113.38548244     72.26185817
 H     53.36606694   -110.97763746     71.58935186
 H     55.05060859   -110.77193076     72.12626046
 H     53.72426658   -111.41665668     74.41151067
 H     52.27368959   -111.50567499     73.38380993
 H     52.33834958   -109.15481747     72.92048170
 H     53.90768220   -108.98234049     73.74249962
 H     52.43648850   -109.78884457     75.81128341
 H     51.04649118   -109.52686519     74.73075534
 H     51.42947488   -107.24637524     74.37568083
 H     52.86302279   -107.27380752     75.43041043
 H     51.43577580   -107.87637638     77.34773697
 H     50.00440195   -107.84811740     76.29008059
 H     50.44674893   -105.40124836     75.93778182
 H     51.86344007   -105.52528605     77.00823384
 H     49.36722062   -106.15194689     78.32561084
 H     48.72863647   -105.70356634     76.72578840
 H     50.19337545   -103.49520537     77.20853634
 H     50.16250927   -103.67258077     78.33653953
 H     48.65146214   -103.34020576     75.76749853
 H     50.42184602   -103.47254647     75.89592554
 H     49.30369774   -101.22794394     77.32994683
 H     47.78844280   -101.90814508     76.68995029
 H     49.35781079   -101.08748105     74.52501507
 H     50.51962872   -100.61559342     75.78825211
 H     49.14145964    -98.96920177     76.74529281
 H     47.81729309    -99.34300415     75.61608009
 H     49.66432299    -98.45079627     73.91749613
 H     50.71465580    -98.22380879     75.33649026
 H     49.88150435    -96.82535741     76.60936375
 H     48.47207890    -96.53672556     75.56128064
 H     50.40254145    -95.70681979     73.94906650
 H     51.54331325    -96.13108180     75.24787678
 H     50.13314064    -94.20124339     76.43441014
 H     49.20077388    -94.09583675     74.92184664
 H     51.37974694    -93.44761011     73.79329072
 H     52.15331826    -93.46599659     75.39626172
 H     50.74652792    -91.71517101     76.24250833
 H     49.90110366    -91.60409918     74.68007832
 H     51.97585802    -90.91555512     73.57393395
 H     52.84346168    -91.01863691     75.12470946
 H     51.31861806    -89.16948792     75.93113181
 H     50.37853062    -89.28891549     74.89633473
 H     49.52363752    -89.45980501     73.95699452
 H     50.81894084    -88.93383751     72.85526217
 H     51.14793867    -86.82705194     73.65065046
 H     49.88200231    -87.02189306     74.88665561
 H     48.08090971    -87.31211046     73.52144713
 H     49.07944810    -87.15110481     72.05677484
 H     49.84267413    -85.08474109     72.21443712
 H     48.97868465    -84.78847361     73.74218528
 H     46.97301502    -85.20814333     71.96642255
 H     48.26209228    -85.45354150     70.76378951
 H     48.82327995    -83.01822365     71.12553267
 H     47.61360471    -82.94186238     72.42903620
 H     45.76169254    -83.33580019     71.01411647
 H     46.82271023    -83.44007578     69.58876223
 H     47.60411411    -81.23403575     69.70277689
 H     46.61114502    -80.90726933     71.14343742
 H     44.66856191    -81.35737032     69.45066365
 H     45.91038077    -81.68122043     68.21726440
 H     46.38817673    -79.08237112     68.93553896
 H     44.87255278    -79.25020015     69.85368062
 H     43.28398706    -79.66519673     68.78288685
 H     44.16315551    -79.65719029     67.23522235
 H     44.69201201    -77.26105051     67.58820024
 H     43.80658093    -77.30017090     69.13181550
 H     41.73333245    -77.81377256     67.82510357
 H     42.68797662    -77.75961249     66.32377486
 H     43.46835158    -75.87300547     66.04650890
 H     42.72759268    -75.21908384     67.52702550
 H     40.73068316    -75.26143726     67.50019865
 H     40.63995441    -75.96682447     65.86849284
 H     41.62910296    -73.73280122     65.13609382
 H     41.91445091    -73.31017849     66.84144810
 H     39.37463796    -73.27176605     67.05327393
 H     39.26388745    -73.70214294     65.32967980
 H     40.50578473    -71.19683428     65.54153068
 H     40.26968357    -71.44594672     67.28808898
 H     37.95278352    -71.48717406     67.26859526
 H     37.90770955    -71.23404061     65.50730072
 H     39.06706039    -68.96214295     66.43290528
 H     38.88940516    -69.68635399     68.04914278
 H     36.36107182    -69.52774509     67.52689351
 H     36.79066620    -68.82053872     65.95095745
 H     37.74736869    -67.08565385     66.07683261
 H     37.69799000    -67.03996830     67.85552349
 H     35.45892047    -66.96119507     68.18200756
 H     35.13012096    -66.98418754     66.43282806
 H     36.26629914    -64.85916090     66.11927089
 H     36.62457501    -64.77792155     67.86090955
 H     33.97213332    -64.69615328     67.93165337
 H     34.01720153    -64.80021536     66.15530695
 H     35.07443977    -62.90000907     65.63190159
 H     35.22412046    -62.41882336     67.33904032
 H     33.01302019    -62.22835799     67.85831428
 H     32.51731956    -62.67690408     66.20866161
 H     33.58930798    -60.71884140     65.26402770
 H     34.11801245    -60.20634916     66.88454920
 H     31.75335064    -59.96379207     67.56003641
 H     31.24005363    -60.47824576     65.93518865
 H     32.36938348    -58.43058209     65.03437592
 H     32.84571377    -57.98763857     66.69123354
 H     30.66318117    -57.71622152     67.50534318
 H     29.97060997    -58.12917550     65.91849700
 H     31.25202789    -55.94167134     65.22762971
 H     31.78860065    -55.81792968     66.92027390
 H     28.90515272    -55.70785886     66.58354126
 H     29.40120976    -55.72254909     64.87416176
 H     30.55956007    -53.55746742     65.24657162
 H     30.07915721    -53.59928766     66.95996907
 H     27.78557670    -53.48758171     66.61618856
 H     27.99879177    -53.42529073     64.85014048
 H     29.20916310    -51.21529471     65.29399534
 H     28.90629124    -51.44960567     67.03228003
 H     26.48488324    -51.32308399     66.64423725
 H     26.77286263    -51.08762868     64.90357779
 H     27.87727380    -49.15549583     64.88066163
 H     27.79907935    -48.99407089     66.65156374
 H     25.19964737    -48.95447157     65.47924495
 H     26.12689181    -49.15859053     63.97364877
 H     26.80764641    -46.70055499     65.22446450
 H     25.55923913    -47.21333355     66.38498339
 H     23.72977069    -47.32970750     65.30259288
 H     24.47841509    -46.81332317     63.77251267
 H     25.11939604    -44.68837881     64.50484985
 H     24.42827143    -44.98253691     66.11856743
 H     22.20511115    -45.16194990     65.35240431
 H     22.71689231    -44.97737292     63.65762466
 H     23.47086936    -42.65197377     64.27638148
 H     22.92538604    -42.94753896     65.94472073
 H     20.64054258    -43.20709037     65.34273197
 H     21.02456327    -42.92505388     63.62772462
 H     21.72207271    -40.57574260     64.63980908
 H     21.23555994    -41.22040991     66.22599193
 H     18.98108498    -41.52034521     65.71242941
 H     19.22199295    -40.89855660     64.06209341
 H     19.84853925    -38.72484007     65.41167285
 H     19.52660743    -39.65470751     66.89490348
 H     17.12951431    -39.64886747     66.18115859
 H     17.58901397    -39.04729872     64.57018318
 H     18.22990081    -36.91110249     65.91242405
 H     17.70117833    -37.75948914     67.38516276
 H     15.45556388    -38.10394679     66.61169742
 H     15.77582093    -36.95177696     65.29328672
 H     16.32789934    -35.13912131     66.65424488
 H     16.05945908    -36.09974274     68.12849484
 H     13.67806986    -36.34555391     67.50889737
 H     13.96550822    -35.38334163     66.03927382
 H     14.54051774    -33.47657905     67.62197670
 H     14.21869834    -34.56613647     68.99221886
 H     11.84830076    -34.71209930     68.23229659
 H     12.01576683    -34.30845273     67.01900492
 H     12.19892059    -34.05992693     65.78744770
 H     12.66935220    -32.43228468     66.33310461
 H     10.02167694    -32.79415212     67.07944165
 H     10.21109135    -34.39997607     66.33531914
 H     10.58418602    -33.04550762     64.16839412
 H     10.36355319    -31.56099318     65.12537096
 H      8.07883363    -32.13689555     65.66953617
 H      8.21496189    -33.64260950     64.73008884
 H      8.57122144    -32.77653930     62.66506400
 H      8.83898068    -31.38255934     63.06606539
 H      9.10969458    -30.21840446     63.45157666
 H      7.41376364    -30.17816430     63.99052533
 H      7.38330468    -30.51676844     61.23301221
 H      9.15649163    -30.48645161     61.38518185
 H      9.14925702    -28.21287900     62.20068669
 H      7.37451078    -28.15363772     62.07807787
 H      6.62456502    -28.35620686     60.30039879
 H      8.20959490    -28.49748486     59.50291058
 H      8.27410505    -25.99879964     60.54600163
 H      6.64358299    -26.35384151     61.16536401
 H      5.68747893    -26.59028199     58.99594114
 H      7.25744610    -26.24628244     58.23100058
 H      7.10426555    -23.95788391     59.30131983
 H      5.54156116    -24.42867006     60.01165921
 H      4.71700669    -24.61781452     57.61237790
 H      6.33824422    -24.13727744     57.05655450
 H      5.98239092    -21.93771981     58.19394271
 H      4.37209144    -22.48767144     58.71620265
 H      3.74593389    -22.61427947     56.28770995
 H      5.38254536    -22.06113871     55.85898527
 H      5.98124953    -20.37652248     56.39601532
 H      4.45374135    -19.93934845     57.19842687
 H      3.32153660    -20.09384787     54.98324278
 H      4.87618722    -20.52884494     54.23350571
 H      5.74489608    -18.28272260     54.95388979
 H      4.12546223    -17.90070865     55.58616032
 H      3.31647241    -18.01020239     53.22488816
 H      4.90617951    -18.61210375     52.69686092
 H      5.26492662    -16.00415733     53.60191232
 H      3.51639314    -16.06703702     53.92893446
 H      3.54949237    -16.33820870     51.26944037
 H      5.32265750    -16.23827112     51.38845547
 H      4.62569317    -13.82110307     52.27969233
 H      2.93881804    -14.32649737     52.02027846
 H      3.39290034    -14.52303533     49.59734711
 H      5.07635218    -14.01651114     49.87607603
 H      4.11551506    -11.81421132     50.67660342
 H      2.48273791    -12.44611025     50.35565299
 H      2.90939836    -12.64921301     47.98990349
 H      4.56056165    -12.02287044     48.21266221
 H      3.80461791     -9.88962524     48.99047906
 H      2.10705255    -10.39317350     48.80888150
 H      2.41851104    -10.64039908     46.38739248
 H      4.11834341    -10.13826543     46.55078878
 H      2.64246240     -7.94859745     47.27453761
 H      1.22357979     -9.00409613     47.07214854
 H      1.52912962     -9.31796301     44.75002495
 H      2.97562136     -8.28074082     44.75994812
 H      1.37616612     -6.42988588     45.55097109
 H      0.04292635     -7.58712715     45.32396666
 H      0.64236042     -7.67696994     42.89874945
 H      1.95958055     -6.51782994     43.19806914
 H     -0.28588325     -5.10821053     43.80637040
 H     -1.16949171     -6.59462221     43.38437151
 H     -0.15017603     -6.12972254     41.03089154
 H      0.62825174     -4.68919024     41.72887688
 H     -2.20943224     -4.47245898     41.81209173
 H     -2.12840626     -6.08347959     41.05955332
 H     -1.15706413     -5.78666704     39.16347110
 H     -0.98620210     -4.03221431     39.41038901
 H     -3.49928580     -3.89841259     39.53523463
 H     -3.55890802     -5.62277662     39.09787829
 H     -2.67848582     -5.14532458     36.91570747
 H     -2.19324786     -3.50183849     37.39712647
 H     -4.89012114     -3.35136621     37.42764483
 H     -4.86757417     -5.06326190     36.94064232
 H     -3.73884078     -4.35601406     34.82259022
 H     -3.79525086     -2.66563795     35.37730922
 H     -6.03596097     -2.36623023     35.53560595
 H     -6.35344281     -3.98862672     34.87583207
 H     -5.30076619     -3.53342055     32.78905957
 H     -4.91488465     -1.87507820     33.30796490
 H     -7.46801739     -1.57987000     33.40397830
 H     -7.63227174     -3.27281125     32.87934787
 H     -6.55927995     -2.80724407     30.75647523
 H     -6.36210562     -1.09797914     31.21232867
 H     -8.80854091     -0.83624296     31.29933354
 H     -9.00811124     -2.54523753     30.84350912
 H     -7.93030929     -2.12598494     28.68426402
 H     -7.71930019     -0.41206303     29.11578866
 H     -9.64240109      0.42594131     29.35525929
 H    -10.47565347     -1.09685790     28.96150848
 H     -9.51235284     -1.04586267     26.69817584
 H     -8.67700594      0.47712712     27.08671713
 H    -10.76649940      1.65210198     27.40741190
 H    -11.67866484      0.17141953     27.02820172
 H    -10.44751874      0.56597337     24.70796658
 H     -9.70647636      2.00129186     25.45561870
 H    -11.52302433      3.25266325     25.86698364
 H    -12.61729580      2.03203085     25.17351904
 H    -11.58459751      2.28022434     22.97725950
 H    -10.47103798      3.50667774     23.62846139
 H    -12.72731643      4.77152742     24.11772558
 H    -13.52638795      3.45821375     23.22053075
 H    -12.53828836      3.71232210     21.19803186
 H    -11.56879042      5.09331154     21.76478452
 H    -14.08998800      6.02138617     22.00440671
 H    -14.60415468      4.43163460     21.39073805
 H    -13.48354641      4.84173957     19.25974058
 H    -12.95116546      6.43909228     19.83706329
 H    -14.57380687      7.64123324     20.21818079
 H    -15.75666660      6.40507943     19.72722939
 H    -15.12900632      6.21585482     17.52084967
 H    -14.04110476      6.58779638     17.53907418
 H    -12.77742365      6.77010282     17.56642356
 H    -13.16418157      8.46291208     17.95768027
 H    -14.29493946      9.07244723     16.11401784
 H    -14.10138203      7.46684287     15.37048787
 H    -12.34854638      6.84918394     14.98139388
 H    -11.55096415      8.32818182     15.56850080
 H    -13.37871833      8.54363022     13.26360300
 H    -13.50870837      6.80212969     13.60790692
 H    -10.99117643      7.12705978     12.69772340
 H    -11.23858234      8.87956543     12.88688186
 H    -12.88478174      7.72460117     10.83253577
 H    -12.06138990      6.23603767     11.35643579
 H     -9.90154766      6.99023441     10.70845592
 H    -10.57550653      8.53417787     10.13375190
 H    -11.91522476      7.77260178      8.46997382
 H    -11.44693832      6.08176448      8.77004663
 H     -9.12734199      6.57701478      8.17850881
 H     -9.56070730      8.27536807      7.86857772
 H    -10.65954209      6.41648003      6.00021070
 H    -10.11000560      5.20797605      7.18587272
 H     -7.81256357      6.35727717      6.21325859
 H     -8.91022410      7.34913527      5.22349824
 H     -9.57704976      5.10720536      4.15850109
 H     -8.42111287      4.30329344      5.24744655
 H     -6.67874217      5.71610121      3.94683570
 H     -8.02431860      6.38224493      2.99083189
 H     -8.45532304      4.07520119      2.13467054
 H     -7.09796364      3.47394734      3.11667662
 H     -5.69267937      5.02500259      1.59205532
 H     -7.20143871      5.47695259      0.76280679
 H     -7.54467730      3.20159337     -0.01267305
 H     -6.04416230      2.68498568      0.79345219
 H     -4.57436092      4.10631081     -0.32766848
 H     -5.86222215      4.50190078     -1.49093486
 H     -5.95766392      2.03904546     -2.02282648
 H     -4.66563049      1.75841375     -0.83112092
 H     -3.00553105      2.97440941     -1.86187227
 H     -4.08175508      3.41642441     -3.20895476
 H     -4.02693376      1.03675191     -3.88314934
 H     -3.30861282      0.57313027     -2.32195216
 H     -1.28163809      1.80327225     -2.66043588
 H     -1.73467060      2.00518822     -4.36989724
 H     -1.94242888     -0.03413185     -5.11015218
 H     -1.51342645     -0.75002737     -3.53798260
 H      0.73184227      0.59459254     -4.05352476
 H      0.00067560      0.95104212     -5.63675111
 H      0.18007337     -1.74948523     -5.64989666
 H      0.88228277     -1.58383006     -4.02271290
 H      2.76107115     -0.32345694     -5.28095567
 H      1.86220349     -0.61214182     -6.78991711
 H      2.15306842     -3.03666415     -6.51385865
 H      3.05352190     -2.75915176     -5.00374704
 H      4.82430197     -1.58197792     -6.08814504
 H      4.03491155     -1.78939441     -7.66995028
 H      4.30625042     -4.31123919     -7.22642388
 H      5.23681403     -3.87325215     -5.77367291
 H      6.93698585     -2.71930579     -6.86179771
 H      6.21641603     -3.06109062     -8.45309558
 H      6.80982602     -5.53103152     -7.54000826
 H      7.42441575     -4.71144404     -6.08439070
 H      9.14959850     -3.59327284     -7.43813220
 H      8.53729850     -4.41146640     -8.89549786
 H      8.86744182     -6.53395459     -8.47437100
 H      9.58877240     -6.20126947     -6.88149013
 H     11.34064502     -5.00343055     -8.52003466
 H     10.29280893     -5.54387084     -9.85353775
 H     10.68091199     -7.88994332     -9.28310583
 H     11.81561552     -7.38443198     -8.00828315
 H     13.39485643     -6.33982515     -9.11076092
 H     12.61167976     -6.62287291    -10.68390583
 H     12.91709202     -9.07054702    -10.32006555
 H     13.69177897     -8.72767579     -8.75463714
 H     15.51808737     -7.54585762     -9.84951689
 H     14.78528635     -7.86317293    -11.44029667
 H     14.84575051    -10.07798255    -11.55091397
 H     15.61871543    -10.22182797     -9.95401059
 H     17.59336926     -9.03670386    -10.70957393
 H     16.88429352     -8.85629769    -12.33220509
 H     16.64393791    -10.84724125    -13.09239968
 H     17.32707989    -11.59879842    -11.63063858
 H     19.23800395    -11.08901808    -11.30612185
 H     19.34647362    -10.07044893    -12.76180653
 H     18.90976825    -12.28665712    -14.01098996
 H     18.83665930    -13.09919697    -12.42899732
 H     20.91240523    -13.49914049    -12.28187542
 H     21.34814480    -11.78911472    -13.35931661
 H     20.85569150    -14.18199026    -14.33020322
 H     20.62126890    -14.72578604    -12.65163274
 H     22.86041692    -14.27320516    -11.99955804
 H     23.25822675    -13.69921103    -13.63679496
 H     22.72969574    -16.10216388    -14.35713581
 H     22.36856467    -16.48280563    -12.65626460
 H     24.52242464    -16.12202811    -11.84872888
 H     25.10752966    -15.61615664    -13.45185484
 H     24.46342778    -18.17492227    -13.91168323
 H     23.97008065    -18.24324287    -12.20282174
 H     25.99808934    -17.84385411    -11.23134302
 H     26.80625422    -17.72300527    -12.81265000
 H     25.93672398    -20.28144767    -12.78739588
 H     25.26865321    -19.90753735    -11.18049228
 H     27.18509780    -19.45979029    -10.05825269
 H     28.18547008    -19.77331733    -11.49673201
 H     27.23623432    -22.16925888    -11.28180193
 H     26.31955120    -21.61582166     -9.85994892
 H     28.80140548    -21.27272052     -8.97680321
 H     29.34496470    -21.87884875    -10.55965462
 H     28.34599744    -24.04712103    -10.18281085
 H     27.76612239    -23.52329887     -8.58355417
 H     30.31720720    -23.31553556     -8.09739222
 H     30.60999023    -23.86062422     -9.76635091
 H     29.65107695    -26.04726255     -9.19924407
 H     29.17485423    -25.45183759     -7.59084496
 H     31.87547111    -25.37782395     -7.47789246
 H     31.83690426    -25.99034854     -9.14869852
 H     30.74705260    -28.06321737     -8.29038254
 H     30.81171250    -27.39771083     -6.64078053
 H     33.23375790    -27.56144946     -6.66314282
 H     33.24558581    -27.90305270     -8.40997825
 H     32.13797633    -30.08622576     -7.91093259
 H     32.15621585    -29.68148199     -6.17769387
 H     34.50867648    -29.61930291     -5.99878375
 H     34.69120783    -30.02519760     -7.72221012
 H     33.47360214    -32.22165771     -6.74229520
 H     33.50594417    -31.39028238     -5.16875279
 H     36.06626945    -31.54846921     -5.44293118
 H     35.79369602    -32.36428845     -7.00126662
 H     34.69072271    -34.23224383     -5.86038742
 H     34.95293462    -33.43509621     -4.29065265
 H     37.43074354    -33.69004730     -4.75669288
 H     37.02639253    -34.47106843     -6.30419827
 H     36.00073214    -36.17296381     -4.45233589
 H     36.61476233    -35.01780263     -3.24534118
 H     38.92595893    -35.56928526     -4.10863066
 H     38.18984002    -36.69508042     -5.27438402
 H     37.30904427    -38.12062178     -3.56598681
 H     39.15942442    -37.58854217     -2.97665221
 H     40.16425582    -38.04750682     -3.67652377
 H     38.95875704    -38.89234831     -4.67716468
 H     37.95751114    -40.24997242     -3.33026203
 H     38.94533818    -39.75336482     -1.93532644
 H     40.97219616    -40.48311216     -2.67218323
 H     40.31771196    -40.97531677     -4.25257930
 H     38.87360652    -42.64054020     -3.34370041
 H     39.52625169    -42.33813750     -1.71555006
 H     41.70714785    -42.90644029     -2.10084958
 H     41.37101217    -43.30546037     -3.80263172
 H     39.89872011    -45.06267519     -3.38038477
 H     40.07970434    -44.85899399     -1.62140060
 H     42.53707187    -45.48358761     -2.05722737
 H     42.14003581    -45.62813587     -3.78631234
 H     40.61199390    -47.44170308     -3.42209759
 H     40.93182456    -47.39404195     -1.67175379
 H     43.31794393    -48.01256475     -2.24677099
 H     42.86754218    -48.02325968     -3.96877289
 H     41.34079392    -49.75138150     -3.88125243
 H     41.60137660    -49.97135046     -2.13426159
 H     43.53620701    -50.30003187     -4.51447648
 H     41.98750725    -49.77617975     -5.21830505
 H     40.76241145    -51.65831284     -4.56653826
 H     42.19397812    -52.38336780     -3.79635722
 H     42.98111472    -52.29635072     -6.34787483
 H     41.39735603    -51.56476929     -6.70109388
 H     40.05109365    -53.30044202     -6.09366023
 H     41.44473391    -54.31493490     -5.64999630
 H     42.18961423    -54.12940932     -8.06387203
 H     40.66635446    -53.27495929     -8.40718165
 H     39.30062569    -55.12567371     -7.76338398
 H     40.74309875    -56.09677405     -7.38324944
 H     41.53568075    -56.07950234     -9.63897764
 H     40.13574548    -55.10850115    -10.15434604
 H     38.69670543    -57.06407195     -9.47055577
 H     40.16702000    -57.94174110     -8.98461484
 H     40.69751079    -57.73288379    -11.53840798
 H     39.15218238    -56.86689031    -11.71242536
 H     38.01457848    -58.98411031    -10.97362131
 H     39.60866435    -59.76248520    -10.82771229
 H     39.64788375    -59.30793238    -13.40957039
 H     38.03691227    -58.57344426    -13.22636353
 H     37.21319369    -60.83422479    -12.49948306
 H     38.85968365    -61.47684136    -12.71015210
 H     38.78573812    -61.22008907    -15.06510375
 H     37.31335952    -60.22296116    -14.98697657
 H     35.99007655    -62.12365641    -14.23866284
 H     37.43101487    -63.16680836    -14.30028620
 H     37.30159900    -62.58568367    -16.84638452
 H     35.86824432    -61.59861522    -16.47294523
 H     34.75669142    -63.66178786    -15.54684942
 H     35.97781962    -64.58214614    -16.07263678
 H     33.80301170    -62.55453068    -17.15612664
 H     33.76571721    -62.79582383    -15.39298927
 H     33.40034079    -64.98495460    -15.19579637
 H     33.00464713    -65.09511891    -16.92771929
 H     31.20015546    -63.47242591    -16.66843773
 H     31.56209126    -63.33325216    -14.93122738
 H     31.44141065    -64.67530624    -13.75336406
 H     30.86733608    -65.85592188    -14.95538393
 H     28.85956341    -64.16500716    -15.07873782
 H     29.70891009    -63.19218683    -13.85378986
 H     29.84723962    -64.36526952    -12.09968684
 H     28.98618850    -65.74507793    -12.82286482
 H     26.97839133    -64.84522205    -13.21961206
 H     27.46857564    -63.25881700    -12.57828139
 H     27.93459476    -64.33985219    -10.36794261
 H     27.14774314    -65.80764913    -10.99619681
 H     25.16026539    -65.28159187    -11.50908041
 H     25.35996816    -63.58924059    -10.99494755
 H     25.74290394    -64.54246879     -8.66445367
 H     25.52079286    -66.17516201     -9.33768928
 H     23.51080349    -66.33671628     -9.87923403
 H     23.17540645    -64.59262889     -9.76118886
 H     23.70584112    -66.07924594     -7.27220589
 H     23.87956042    -67.39030171     -8.46351653
 H     22.06749191    -67.68705592     -9.43058676
 H     21.23067727    -66.42040277     -8.50128717
 H     21.37392895    -67.24945668     -6.42258862
 H     22.24294247    -68.70068326     -6.97668568
 H     20.84673242    -69.67771448     -8.34668901
 H     19.55775604    -68.50588631     -7.98114105
 H     19.23516980    -68.78562265     -5.81935450
 H     20.47402128    -70.05890300     -5.70858079
 H     20.27963848    -71.65394346     -6.65464482
 H     18.70484065    -71.20614961     -7.35304235
 H     17.67669914    -70.96757331     -5.16203478
 H     19.14323626    -71.66218765     -4.43056608
 H     19.65299693    -73.43124012     -4.97392738
 H     18.26742510    -73.63867163     -6.07184793
 H     16.75441689    -73.36637057     -4.08607762
 H     18.19914960    -73.32229459     -3.04729402
 H     18.82449057    -75.57798788     -3.73372817
 H     17.39098050    -75.66625321     -4.78516755
 H     15.79446325    -75.49535093     -3.10933555
 H     17.04835981    -75.39311134     -1.85014647
 H     17.72755494    -77.72759015     -2.54727483
 H     16.43748642    -77.70440384     -3.77342828
 H     14.62361888    -77.53505275     -2.42999057
 H     15.62357126    -77.53982338     -0.95746242
 H     16.44793546    -79.76371134     -1.39141800
 H     15.48020328    -79.85463699     -2.88255636
 H     13.48346363    -79.65606318     -1.24286531
 H     14.66294976    -79.57896887      0.08797487
 H     15.06021268    -82.03740311     -0.65220574
 H     14.08520027    -81.72568362     -2.10838170
 H     12.16251901    -81.49711534     -0.36555903
 H     13.36536275    -81.83063983      0.90337557
 H     13.76479872    -84.06429996     -0.00470457
 H     13.26815417    -83.88618136     -1.19740578
 H     12.85839239    -83.66117193     -2.40005886
 H     11.24007856    -83.45884949     -1.68704228
 H     12.06690337    -86.07558355     -1.18564789
 H     13.53062358    -85.55262616     -2.16727302
 H     14.18097948    -85.09638145     -3.22019931
 H     12.63255007    -85.14718837     -4.09658488
 H     12.87555304    -87.71276876     -3.55923943
 H     14.40367634    -87.31115840     -2.73959624
 H     15.65014467    -86.51787383     -4.37060449
 H     14.37270157    -86.76088251     -5.58606841
 H     14.99514539    -89.27848473     -4.67330005
 H     16.16015584    -88.44026076     -3.62049527
 H     17.50777427    -87.55733188     -5.26062770
 H     16.52222909    -88.28846080     -6.54997555
 H     16.78897940    -90.46603399     -6.13119844
 H     17.85549659    -90.15112568     -4.74136373
 H     19.12504040    -89.16719451     -7.02105034
 H     17.66579942    -89.74463274     -7.86095958
 H     18.68369677    -92.04099230     -6.92424811
 H     19.98552424    -91.04902219     -6.22460020
 H     20.84950218    -90.25463592     -8.22666515
 H     19.64548053    -91.16471935     -9.17024698
 H     20.87733468    -93.19168156     -7.97650826
 H     21.99660032    -91.97190964     -7.32254531
 H     23.03906015    -91.04160226     -8.75472543
 H     22.18873886    -91.83936830    -10.09963796
 H     23.08459199    -94.01157525     -9.44763080
 H     23.95405457    -93.25713151     -8.09001667
 H     25.14624282    -91.82851829     -9.84401396
 H     24.42229671    -92.69300093    -11.03965408
 H     26.30348645    -92.77841794     -8.50022128
 H     25.62576670    -91.19086938     -8.93456237
 H     27.25044374    -91.96056197    -11.04300798
 H     27.53444304    -93.42270120    -10.06845170
 H     28.59124781    -91.83168610     -8.37163371
 H     28.22449722    -90.48192555     -9.47250025
 H     29.86044893    -91.72388168    -11.05408762
 H     30.56772126    -91.98006300     -9.14455593
 H     30.63677586    -90.39849883     -8.64629140
 H     30.75968267    -89.95141785     -9.80853938
 H     30.92067618    -92.02058038     -7.62921868
 H     30.38455491    -90.80416321     -7.44935761
 H     32.99343630    -92.37116376     -8.11419614
 H     31.43951548    -93.20239943     -7.86390832
 H     31.33225254    -92.44713437     -5.55418992
 H     32.88473429    -91.59791351     -5.74626026
 H     33.98050622    -93.78872435     -6.15670116
 H     32.48823092    -94.18254084     -4.79574342
 H     32.40060887    -93.77185605     -3.58840539
 H     33.97234145    -92.98876864     -3.87943368
 H     35.08947555    -95.06976487     -4.29056497
 H     33.57631494    -95.96665696     -4.01817517
 H     33.61365050    -95.24790948     -1.66650476
 H     35.00481371    -94.18455163     -1.98619474
 H     35.60334517    -96.98776109     -2.28797786
 H     33.88335537    -97.14020648     -1.85593372
 H     34.43008242    -96.13847698      0.36505488
 H     36.13552636    -96.01193523     -0.12861992
 H     36.55696393    -98.27125948     -0.30155386
 H     34.85993224    -98.69329592      0.03046322
 H     34.46049841    -98.06129334      2.02883013
 H     36.11384467    -97.45120819      2.27884800
 H     36.68095211    -99.99344696      1.91786555
 H     34.93521029   -100.26851500      1.70575774
 H     34.82427407    -99.46546164      4.17164701
 H     36.59253245    -99.26820148      4.12048680
 H     36.86915066   -101.68036478      3.75804599
 H     35.10272513   -101.89389426      3.80716504
 H     35.10575641   -101.11198560      6.15826480
 H     36.87219597   -100.90701550      6.08115953
 H     37.36492135   -103.15487174      5.94351172
 H     35.63158399   -103.59973810      5.63409771
 H     37.49364284   -102.35906544      7.86166566
 H     38.44685169   -102.85055619      6.44106847
 H     36.94261616   -105.11509342      7.31631886
 H     36.80635474   -104.58951831      8.36831928
 H     38.67389475   -105.49366722      6.14909297
 H     36.90070160   -105.64875594      6.14860364
 H     37.39051369   -107.52243671      7.72268873
 H     39.25253731   -106.76850025      7.87220417
 H     37.87936292   -108.25795952      5.78281847
 H     36.55127318   -108.14376428      6.96239625
 H     38.85041645   -109.38323180      8.17229263
 H     39.40111094   -109.43361258      6.82266387
 H     36.96995478   -110.27196798      8.62889533
 H     38.29524013   -109.31625735      9.33494247
 H     39.96923286   -110.90501156      9.04099631
 H     38.82466995   -112.05097994      8.30275591
 H     37.61252639   -112.07110563     10.50981791
 H     39.57464560   -111.67681023     11.03540752
 H     40.42489044   -112.31260588     11.56292034
 H     40.12315449   -113.29600409     10.11028478
 H     39.13561033   -113.53978097     11.57096819
1502
Final Conformation Chain 8 (Simulation Frame 9)
 C      0.00000000      0.00000000      0.00000000
 C      1.54000000      0.00000000      0.00000000
 C      2.16637443     -1.38145543     -0.26615029
 C      3.69008218     -1.43082185     -0.04825664
 C      4.30351255     -2.83184956     -0.22832478
 C      3.93989953     -3.50797914     -1.56332829
 C      4.44159914     -4.95863302     -1.68783068
 C      5.10702008     -5.27744201     -3.03956134
 C      5.78793769     -6.65771559     -3.09243885
 C      5.93570297     -7.22918807     -4.51482580
 C      6.33871497     -8.71499869     -4.55417204
 C      6.66967298     -9.23709694     -5.96466139
 C      7.36371057    -10.61178351     -5.97685422
 C      7.37933954    -11.29334446     -7.35773453
 C      8.10043521    -12.65395695     -7.37656766
 C      7.78443933    -13.51324566     -8.61486065
 C      8.40938454    -14.92023122     -8.57697779
 C      7.92153685    -15.85278149     -9.70123516
 C      8.62343189    -17.22328480     -9.72700440
 C      8.13605241    -18.15558761    -10.85167000
 C      8.99326461    -19.42236470    -11.03073159
 C      8.60649415    -20.27247989    -12.25519587
 C      9.38978538    -21.59310618    -12.37352195
 C     10.86265197    -21.41301750    -12.78562881
 C     11.56329091    -22.72209619    -13.19430725
 C     13.06790517    -22.56388916    -13.48189456
 C     13.71056386    -23.79350449    -14.15020283
 C     15.24671435    -23.83070318    -14.04793878
 C     15.86950034    -25.17742918    -14.46033019
 C     17.36906109    -25.09582355    -14.80129659
 C     18.04470485    -26.46716522    -14.98711243
 C     19.56830468    -26.39133506    -15.19804685
 C     20.24037774    -27.76079688    -15.40897844
 C     21.77117956    -27.73960104    -15.24225550
 C     22.46785569    -29.03864714    -15.68803751
 C     23.99671248    -29.02455583    -15.50365107
 C     24.68263148    -30.35714026    -15.85767631
 C     26.22078329    -30.28418877    -15.87683621
 C     26.90767446    -31.62650054    -16.18985320
 C     28.43409164    -31.61148387    -15.98632169
 C     29.14297269    -32.89062031    -16.46891638
 C     30.65422379    -32.91846650    -16.17405254
 C     31.29819389    -34.30813943    -16.33440115
 C     32.77237321    -34.37003748    -15.89330706
 C     33.32768591    -35.80051599    -15.76308021
 C     34.86059923    -35.86781346    -15.63174940
 C     35.42908776    -37.29884530    -15.65559628
 C     34.92090769    -38.19388386    -14.51005754
 C     35.80748317    -39.42261507    -14.23473312
 C     35.57827634    -40.06350985    -12.85331424
 C     36.03021461    -41.53285150    -12.76173408
 C     35.78042400    -42.18049710    -11.38704872
 C     36.45210157    -43.55505745    -11.21088666
 C     36.25303243    -44.17525477     -9.81542015
 C     37.31980909    -45.21907105     -9.43590056
 C     37.19859614    -45.74230560     -7.99259427
 C     38.22177436    -46.83627757     -7.63491889
 C     38.19810231    -47.25577133     -6.15334384
 C     39.49447375    -47.93479489     -5.67381481
 C     39.54432257    -48.18804944     -4.15559967
 C     40.86967338    -48.80065116     -3.66594227
 C     41.06928707    -48.72438732     -2.14083958
 C     42.50776901    -49.02668319     -1.68150646
 C     42.71887614    -48.90283376     -0.16108050
 C     44.05801932    -49.47970715      0.33441182
 C     44.52340702    -48.90958389      1.68717705
 C     45.93098333    -49.36963045      2.10988983
 C     46.39683394    -48.79859204      3.46210962
 C     47.84841800    -49.16000719      3.82800963
 C     48.20655540    -48.89766456      5.30263295
 C     49.51749274    -49.56576929      5.75725297
 C     49.90875946    -49.25118460      7.21311932
 C     51.17343011    -49.98626336      7.69464540
 C     51.24777179    -50.17022950      9.22180936
 C     52.64292308    -50.56929985      9.73746014
 C     52.63607636    -51.18843466     11.14750454
 C     54.02280259    -51.24114825     11.81519582
 C     54.05175754    -52.03001924     13.13748329
 C     55.31085345    -51.78039281     13.98834412
 C     55.30409994    -52.50812115     15.34553454
 C     56.69996045    -52.67302436     15.97480426
 C     56.69888216    -53.44351447     17.30819986
 C     58.09753058    -53.62952275     17.92527646
 C     58.14580579    -54.66041101     19.06831578
 C     59.57127199    -55.07307643     19.47984143
 C     59.61875906    -56.14315704     20.58630990
 C     60.93449053    -56.94231169     20.62876616
 C     60.89470085    -58.16518393     21.56396680
 C     62.26505276    -58.83413513     21.77900155
 C     62.19915135    -60.16042609     22.55887930
 C     63.57556040    -60.71040086     22.97676191
 C     63.55033915    -62.18122962     23.43242257
 C     64.89925826    -62.69346733     23.97059518
 C     65.16017431    -64.18493050     23.68941830
 C     66.61311955    -64.62595994     23.94640693
 C     66.83294789    -66.14693654     23.84687968
 C     68.21983647    -66.61219316     24.32820739
 C     68.35495704    -68.14004288     24.46611188
 C     69.81010855    -68.63332361     24.57007433
 C     69.95244631    -70.16669431     24.58076478
 C     71.40707085    -70.65997422     24.69186098
 C     71.53700770    -72.16571192     24.98761490
 C     72.79158608    -72.53868369     25.79911051
 C     73.25022415    -73.99642632     25.60874887
 C     74.46708565    -74.38747193     26.46777823
 C     74.82070322    -75.88513102     26.40801311
 C     75.54256661    -76.40887266     27.66348432
 C     76.10448104    -77.83486764     27.51384983
 C     77.39232105    -77.91564194     26.67328834
 C     77.91751915    -79.34870021     26.46807881
 C     79.04303245    -79.45965716     25.42284757
 C     79.43350635    -80.90795394     25.07418360
 C     80.45879487    -81.02230511     23.93080822
 C     80.94192786    -82.46004313     23.66417759
 C     81.87249342    -82.59202764     22.44424816
 C     82.48148674    -83.99571704     22.26994041
 C     82.91397749    -84.31610666     20.82706057
 C     83.40391721    -85.76225061     20.62649451
 C     83.78731584    -86.09783128     19.17322540
 C     84.16579371    -87.57383652     18.95014910
 C     84.74940239    -87.86693622     17.55548302
 C     85.50356319    -89.20629993     17.46089785
 C     86.13028757    -89.47611670     16.08031266
 C     87.01957808    -90.73242665     16.03083865
 C     87.57069523    -91.05494397     14.62946344
 C     88.79201087    -91.99298790     14.63731772
 C     89.92645283    -91.55219409     13.69373823
 C     91.14420628    -92.49488948     13.69513684
 C     92.34364840    -91.96993285     12.88435996
 C     93.58029566    -92.88653811     12.93060225
 C     94.80684665    -92.32144487     12.19043856
 C     96.10506175    -93.11322170     12.43400991
 C     97.31028486    -92.60557275     11.62078804
 C     98.66970658    -93.12366270     12.12591714
 C     99.88264680    -92.50088568     11.41000877
 C    101.23232234    -93.13086491     11.80129144
 C    102.45746283    -92.38787280     11.23685057
 C    103.79640999    -92.82364573     11.86048705
 C    104.95862235    -91.84938647     11.59275334
 C    104.68911606    -90.40826477     12.06406493
 C    105.96447952    -89.59492515     12.35307481
 C    105.69537642    -88.18703375     12.91612484
 C    106.81534743    -87.17110762     12.62430465
 C    108.18851378    -87.57147362     13.19502459
 C    109.23360624    -86.44080554     13.16385673
 C    110.64089337    -86.87606232     13.61296081
 C    111.74170101    -85.84138967     13.31417146
 C    113.17315110    -86.38018596     13.49375209
 C    114.27222832    -85.32463535     13.27139617
 C    115.70085820    -85.84830096     13.50886402
 C    116.79886036    -84.99481003     12.84739255
 C    118.18238390    -85.67034648     12.81402902
 C    119.27280040    -84.83091616     12.12269076
 C    120.67874138    -85.45618142     12.18572504
 C    121.80113987    -84.52501719     11.69099804
 C    123.13615811    -85.24285197     11.41889599
 C    124.24886578    -84.31759940     10.89221837
 C    125.59406609    -85.02841933     10.65395136
 C    126.57586251    -84.23251382      9.77405920
 C    127.80996558    -85.03767033      9.32649624
 C    128.76441352    -84.25900466      8.40220792
 C    130.09467885    -84.98273279      8.12254425
 C    131.11821355    -84.13401452      7.34559250
 C    132.47311291    -84.83235359      7.12611525
 C    133.57555287    -83.90413459      6.58331177
 C    134.55640569    -83.40102423      7.65867577
 C    135.80024285    -82.69316000      7.08999541
 C    136.52771094    -81.79274428      8.10569305
 C    137.90502729    -81.29589250      7.62847403
 C    138.60229221    -80.34026980      8.61447955
 C    140.13026881    -80.26390723      8.43825168
 C    140.82951853    -79.32166890      9.43566672
 C    142.36083966    -79.27029050      9.28069618
 C    143.06353651    -78.35720827     10.30250730
 C    144.58048395    -78.21637270     10.07748330
 C    145.36180681    -77.78021698     11.33083990
 C    144.81618252    -76.50300716     11.99614375
 C    145.62214611    -76.04378510     13.22542720
 C    144.98359761    -74.86939980     13.99006764
 C    145.45054796    -74.74624127     15.45239091
 C    144.52091362    -73.89507273     16.33720281
 C    145.22430789    -73.24982723     17.54571211
 C    144.33221207    -72.28386232     18.34738339
 C    145.08288255    -71.06723721     18.92002392
 C    144.23189970    -70.19056169     19.85750364
 C    144.93233102    -68.89666195     20.31227768
 C    144.10714806    -68.05185796     21.30070031
 C    144.91254957    -66.94048807     21.99911664
 C    144.04241747    -65.90243515     22.73186235
 C    144.80221525    -64.62847677     23.14579154
 C    143.88806498    -63.46315526     23.56763875
 C    144.64613164    -62.17503871     23.93870569
 C    143.73899201    -60.94313770     24.11510744
 C    144.45445778    -59.71944579     24.71701013
 C    143.65162749    -58.40956056     24.61087714
 C    144.32099840    -57.20691803     25.30166908
 C    143.65370610    -55.85443556     24.99004086
 C    144.03144466    -54.72885631     25.97084917
 C    143.40315446    -53.36461517     25.63070578
 C    143.37552188    -52.37595744     26.81112619
 C    142.69677028    -51.03216071     26.48692470
 C    142.69929485    -50.03078978     27.65690328
 C    142.10467043    -48.65455722     27.30475881
 C    142.09424363    -47.65778925     28.47861779
 C    141.60696040    -46.24728197     28.09832283
 C    140.92299677    -45.48890943     29.25100008
 C    140.32909737    -44.12862893     28.84048766
 C    139.21171154    -44.22581574     27.78521346
 C    138.29925425    -42.98679473     27.72317624
 C    137.60227598    -42.78958741     26.36415801
 C    136.82348515    -41.46630535     26.24579651
 C    136.32184400    -41.15989503     24.82239605
 C    136.06880685    -39.66439901     24.55581798
 C    135.87107605    -39.31798379     23.06837083
 C    135.27607555    -37.91859800     22.82486761
 C    135.18546103    -37.52647016     21.33838695
 C    134.56066248    -36.14043271     21.09317896
 C    134.42277724    -35.76995302     19.60477967
 C    133.74457250    -34.40950762     19.35814907
 C    132.21514901    -34.43046404     19.53710323
 C    131.50912928    -33.15418174     19.04289714
 C    130.02827016    -33.05817568     19.45452698
 C    129.26184924    -31.90951017     18.77278911
 C    127.73024340    -32.06223036     18.82238842
 C    126.96059735    -30.79702299     18.39990142
 C    125.45507892    -30.84333499     18.72063414
 C    124.64233752    -29.70420055     18.07765348
 C    123.11736135    -29.90865982     18.14280017
 C    122.30106598    -28.66190394     17.75439102
 C    120.83560387    -28.70073739     18.22610360
 C    120.03135459    -27.43475934     17.87670030
 C    118.55441969    -27.49171547     18.30915759
 C    117.61691899    -26.62041905     17.45269101
 C    116.31198005    -26.21776195     18.16445053
 C    115.48236999    -25.16654034     17.40400310
 C    114.26280249    -24.64524401     18.18663026
 C    113.78098575    -23.25225367     17.74050189
 C    112.62843478    -22.68615189     18.59065190
 C    112.44848263    -21.16176801     18.46626937
 C    111.22731701    -20.61114510     19.22598572
 C    110.63200065    -19.33094849     18.61092875
 C    109.56131160    -18.65443489     19.48703052
 C    108.94847454    -17.38785869     18.86107889
 C    107.78009027    -16.79252048     19.66857540
 C    106.92441944    -15.78310230     18.88085568
 C    105.87836177    -15.04577446     19.73742501
 C    104.95053765    -14.11767439     18.93158838
 C    103.90602348    -13.37852856     19.78847437
 C    103.01155165    -12.41199621     18.99014151
 C    102.10557553    -11.52795613     19.86722783
 C    101.40907482    -10.38899809     19.09959423
 C    100.06314379     -9.95447596     19.70890546
 C     99.47967513     -8.67152270     19.08826444
 C     98.30136976     -8.07306699     19.87886371
 C     97.85886120     -6.68249112     19.38684245
 C     96.70563610     -6.06756895     20.20142368
 C     96.06454727     -4.83100364     19.54452844
 C     94.57592166     -4.63950148     19.88937728
 C     94.10403079     -3.17455294     19.83604078
 C     92.76323986     -2.92198244     20.55024511
 C     92.16395934     -1.52874670     20.28311776
 C     90.90034485     -1.22173700     21.10811684
 C     90.29648018      0.16837989     20.83512878
 C     89.09033544      0.51371990     21.72818821
 C     88.64166786      1.98388918     21.63384993
 C     87.49151608      2.35037289     22.59011380
 C     87.22351515      3.86311973     22.69675570
 C     85.93596808      4.21864423     23.46319217
 C     85.63702045      5.72830806     23.51927638
 C     84.54265779      6.11293002     24.53221089
 C     84.31969488      7.63070342     24.66730883
 C     83.21334155      8.01470984     25.66736952
 C     83.05771364      9.53241923     25.87698382
 C     81.96273821      9.91584305     26.88971033
 C     80.53259623      9.59407445     26.41773694
 C     79.51427262      9.44241126     27.56299468
 C     78.05099915      9.35002021     27.09193773
 C     77.02543352      9.30031584     28.23969406
 C     75.59678876      8.94437138     27.78816587
 C     74.80674218     10.13468867     27.21321270
 C     73.64384699      9.72708222     26.28956138
 C     72.96440540     10.91174490     25.57784972
 C     71.45726235     10.71346344     25.33126448
 C     70.69573191     12.01670701     25.02593257
 C     69.17002360     11.83931599     24.91481738
 C     68.39923071     13.15721476     24.71327045
 C     66.89507475     12.96801258     24.44249866
 C     66.11827017     14.28697059     24.27360696
 C     64.60700688     14.09896086     24.04483719
 C     63.98139248     15.14391936     23.10235728
 C     62.46926001     14.95860846     22.87715675
 C     61.84016390     16.01438051     21.94915704
 C     60.40860944     15.67502930     21.49408277
 C     59.71746809     16.80380837     20.70682078
 C     58.47059938     16.34983626     19.92526608
 C     57.57062620     17.50740875     19.45444319
 C     56.27818488     17.05047741     18.75272445
 C     55.33163002     18.20357103     18.37061320
 C     54.02759861     17.74476251     17.69194035
 C     53.13445199     18.90099116     17.20508880
 C     51.81224587     18.44308435     16.56189960
 C     50.71408915     19.52268333     16.55104307
 C     49.32531978     18.99940186     16.13983004
 C     48.20570383     20.05247571     16.23520075
 C     46.87580252     19.61248579     15.59537940
 C     45.65097494     20.40503729     16.08859285
 C     44.36284479     20.12743433     15.29156255
 C     43.06976290     20.30811818     16.10819747
 C     41.82589625     19.67165652     15.46065417
 C     40.54052840     19.81812128     16.29610469
 C     39.26406626     19.35850517     15.56740897
 C     37.98366635     19.47085634     16.41567384
 C     36.70002951     19.06228061     15.66938816
 C     35.40067466     19.45823573     16.39498896
 C     34.11715637     19.02886988     15.66026061
 C     32.82940822     19.22678477     16.48131749
 C     31.55583281     18.71688790     15.78159551
 C     30.26771713     18.91736680     16.60145293
 C     28.99926739     18.37368545     15.91804540
 C     27.68946775     18.97937397     16.45578727
 C     26.41933058     18.41126253     15.79578654
 C     25.11555150     19.08352970     16.26463297
 C     23.89605449     18.77223710     15.37720750
 C     22.67025654     19.65939468     15.66351291
 C     21.44952482     19.34555777     14.77868499
 C     20.16144512     20.07242655     15.20776828
 C     18.92066631     19.68945154     14.37988055
 C     17.58496093     20.10267912     15.02543000
 C     16.34213759     19.66539207     14.22807802
 C     15.09434836     20.52928646     14.48943703
 C     13.80038480     19.96238947     13.87634151
 C     13.86869741     19.75331582     12.35212971
 C     12.50355126     19.47407104     11.69638712
 C     12.57471617     18.53735668     10.47609955
 C     11.40742709     17.53694498     10.38547612
 C     11.17973886     16.96631422      8.97333639
 C     10.31387765     15.69311204      8.94434358
 C     10.18621880     15.05407182      7.54901896
 C      9.10474652     13.96157528      7.45699171
 C      9.00347770     13.29552637      6.07217278
 C      8.70788790     11.78503964      6.12371414
 C      8.47318072     11.14523382      4.74271412
 C      8.31520555      9.61382547      4.78056007
 C      7.81669373      9.00267327      3.45784356
 C      7.71179021      7.46638188      3.47794379
 C      7.04044741      6.86798094      2.22781772
 C      6.88416860      5.33660203      2.27315604
 C      6.50055740      4.70583621      0.92164691
 C      6.71303222      3.18185692      0.85886501
 C      6.53954263      2.58271465     -0.54915839
 C      6.86083798      1.07899377     -0.63396897
 C      7.19900036      0.58988215     -2.05453788
 C      7.39813249     -0.93342538     -2.16168524
 C      7.51005999     -1.45029814     -3.60803056
 C      8.26708271     -2.78493326     -3.73942962
 C      8.13715634     -3.44499973     -5.12472071
 C      8.89392767     -4.77978685     -5.25602377
 C      8.77072888     -5.43578889     -6.64385783
 C      9.61125914     -6.71562423     -6.80857084
 C      9.55754535     -7.32258269     -8.22289621
 C     10.67403064     -8.34395423     -8.50900943
 C     10.67784869     -8.87977403     -9.95278315
 C     11.54061705    -10.13991658    -10.15095355
 C     11.28858892    -10.86828446    -11.48420598
 C     12.10415116    -12.16347739    -11.65430455
 C     11.88715910    -12.86725821    -13.00678634
 C     12.74213165    -14.13375136    -13.19814218
 C     12.47681049    -14.87448741    -14.52196799
 C     13.04302721    -16.30602739    -14.56310076
 C     12.82955130    -17.02565794    -15.90777913
 C     12.96619592    -18.55745832    -15.82705842
 C     13.48277888    -19.20940059    -17.12309597
 C     13.82029131    -20.70517240    -16.98043543
 C     14.53916922    -21.30449783    -18.20339233
 C     15.10286923    -22.71815942    -17.96801347
 C     16.07263876    -23.19639543    -19.06457053
 C     16.78532741    -24.52144825    -18.73607409
 C     17.91709642    -24.88355208    -19.71565549
 C     18.78773044    -26.06799764    -19.25665101
 C     20.01776003    -26.32343730    -20.14736858
 C     21.18599794    -27.01369988    -19.41911192
 C     22.40731356    -27.28996189    -20.31558694
 C     23.66773296    -27.71960964    -19.54205883
 C     24.74955024    -28.37402443    -20.42127020
 C     25.90555921    -29.00713663    -19.62477022
 C     27.05910118    -29.52809975    -20.50200357
 C     28.28485868    -30.00969679    -19.70376624
 C     29.47114031    -30.44902206    -20.58201974
 C     30.67633221    -30.98263056    -19.78554346
 C     31.74736919    -31.66803562    -20.65427799
 C     32.81936217    -32.42349156    -19.84698784
 C     33.81055584    -33.22111072    -20.71470829
 C     35.00917103    -33.79085717    -19.93348450
 C     35.84115877    -34.81766859    -20.72408852
 C     37.06710640    -35.35182313    -19.96032722
 C     38.05841067    -36.13796192    -20.83833728
 C     39.27595671    -36.68640374    -20.07126935
 C     40.15121275    -37.65112113    -20.89276019
 C     41.36365174    -38.20670394    -20.12274756
 C     42.06613827    -39.38343923    -20.82517673
 C     43.28687291    -39.93005802    -20.06188462
 C     44.15436392    -40.90281514    -20.88213026
 C     45.16058477    -41.70801072    -20.03905275
 C     46.12110272    -42.57740796    -20.87161128
 C     47.18397099    -43.31372734    -20.03510377
 C     48.32847161    -43.91902967    -20.86896672
 C     49.63243057    -44.13565772    -20.07880007
 C     50.54345886    -45.23181632    -20.66194994
 C     51.76673253    -45.56100221    -19.78625697
 C     52.33123757    -46.97692811    -20.00554656
 C     53.61431244    -47.27046749    -19.20607579
 C     54.23178289    -48.65086730    -19.49732585
 C     55.61932216    -48.86268462    -18.86371065
 C     56.45638454    -49.96295258    -19.54219203
 C     57.79854529    -50.24941171    -18.84351779
 C     58.57383322    -51.43888676    -19.43990503
 C     60.08684028    -51.40671041    -19.15464319
 C     60.86498097    -52.58600554    -19.76730953
 C     62.31513232    -52.70872793    -19.26372212
 C     63.10715959    -53.86067789    -19.90971290
 C     64.30226030    -54.34762168    -19.06934392
 C     65.14284865    -55.44288757    -19.75154907
 C     66.16299150    -56.12168721    -18.81873632
 C     66.84680417    -57.35778686    -19.43197191
 C     68.23430419    -57.66496369    -18.83860349
 C     68.18836560    -58.34850103    -17.45937676
 C     69.57465023    -58.59169699    -16.83434025
 C     69.52689994    -59.22739460    -15.43248132
 C     70.75972957    -60.08487923    -15.09123182
 C     70.73934992    -60.67271301    -13.66798338
 C     72.00094782    -61.47766009    -13.30462274
 C     71.90379304    -62.22106451    -11.95944215
 C     73.24507455    -62.34245341    -11.21256289
 C     73.21253888    -63.31761927    -10.02109615
 C     74.54589824    -63.41781081     -9.25708407
 C     74.46582193    -64.25024296     -7.96393114
 C     75.79684078    -64.34230734     -7.19483234
 C     75.76318785    -65.31129564     -5.99836707
 C     77.15545674    -65.69371189     -5.46269446
 C     77.12158741    -66.51730060     -4.16186606
 C     78.51427348    -66.87960506     -3.61344929
 C     78.48203055    -67.81605848     -2.39131370
 C     79.84579566    -67.98631842     -1.69650707
 C     79.79815673    -68.85898158     -0.42852066
 C     81.17919496    -69.13360089      0.19511195
 C     81.11952008    -69.82985435      1.56743480
 C     82.48691407    -69.95998125      2.26378289
 C     82.46523381    -70.84045290      3.52707211
 C     83.82962796    -70.95921246      4.23129138
 C     83.75758713    -71.59025330      5.63421603
 C     85.13356245    -71.86389790      6.26936212
 C     85.07985881    -72.76787781      7.51496890
 C     86.25934780    -72.56859676      8.48486209
 C     86.14446775    -73.38345807      9.78655469
 C     84.71699986    -73.44879648     10.36072044
 C     84.63418303    -74.07985114     11.76304400
 C     83.19567799    -74.30846651     12.26308224
 C     83.11282688    -74.93070542     13.66933771
 C     81.80014411    -75.68812164     13.94280549
 C     81.72711085    -76.33045002     15.34054666
 C     80.30708518    -76.75015658     15.76359929
 C     80.20085940    -77.21216823     17.22881645
 C     78.76808197    -77.55981267     17.67366719
 C     78.63685601    -77.87108975     19.17616056
 C     77.20151606    -78.20431844     19.62377405
 C     77.10172853    -78.72903733     21.06818138
 C     75.68489506    -79.17312346     21.47680153
 C     75.56674292    -79.61532829     22.94720793
 C     74.11872529    -79.84852323     23.41674499
 C     74.00130156    -80.30214298     24.88372856
 C     72.56115687    -80.61839936     25.32821161
 C     72.46745330    -81.31852266     26.69665854
 C     71.03586512    -81.71947495     27.09839546
 C     70.29165436    -80.64806844     27.91683205
 C     70.02328792    -79.34353912     27.14366796
 C     70.11450772    -78.07268083     28.00865244
 C     70.06778879    -76.76148310     27.20231637
 C     68.87728628    -76.66610171     26.23009923
 C     68.86558622    -75.38331117     25.37809480
 C     67.47510796    -75.00462670     24.83516913
 C     67.39148277    -73.57446027     24.27016398
 C     66.03073296    -72.88996192     24.49692810
 C     65.98618745    -71.41898313     24.04323539
 C     64.61188977    -70.74850163     24.22588377
 C     64.48659112    -69.37824006     23.53430334
 C     63.05255616    -68.81736370     23.51060882
 C     62.97769238    -67.28386816     23.63055403
 C     61.56023686    -66.74503497     23.89902867
 C     61.42895782    -65.21926039     23.73661641
 C     60.01000213    -64.68123534     23.99871146
 C     59.85302390    -63.17259305     23.73233531
 C     58.49076144    -62.59869773     24.16417458
 C     58.26922743    -61.13207594     23.74999684
 C     57.14657043    -60.42352294     24.53050559
 C     56.82720321    -59.00605280     24.02022824
 C     56.48977532    -58.94198178     22.51901628
 C     55.61175602    -57.73967939     22.12512408
 C     55.45387478    -57.55070458     20.60493921
 C     54.48081536    -56.42376184     20.21154956
 C     54.62189913    -55.95576473     18.75118177
 H     -0.36333333      0.00000000      1.02766186
 H     -0.36333333     -0.88998127     -0.51383093
 H     -0.36333333      0.88998127     -0.51383093
 H      1.88274777     -0.48257352     -0.91528507
 H      1.88274777     -0.43526599     -0.93870522
 H      1.82362666     -1.73134316     -1.23990721
 H      2.76731364     -1.65796836      0.60017105
 H      3.89767167     -1.15373725      0.98529584
 H      4.15576412     -0.70843674     -0.71862975
 H      3.53304733     -3.49549090     -0.62083402
 H      3.83296843     -3.50653909      0.48685510
 H      4.26871470     -2.86049639     -2.37619154
 H      2.85677486     -3.62266542     -1.60561323
 H      4.00527360     -5.54292146     -0.87769054
 H      5.52717089     -4.95547207     -1.58972882
 H      6.14630537     -5.54892516     -2.85440470
 H      4.77363591     -6.26401427     -3.36147774
 H      5.03426006     -7.41956069     -2.89328546
 H      6.55324251     -6.69229002     -2.31705949
 H      6.52975465     -6.53112290     -5.10466275
 H      4.94162578     -7.32040775     -4.95253519
 H      5.57556617     -9.29110061     -4.03090299
 H      7.29337602     -8.82492696     -4.03974219
 H      7.72437641     -9.51106590     -5.98999323
 H      5.75806709     -9.21291925     -6.56172933
 H      6.70604083    -11.33210137     -5.49032295
 H      8.29379983    -10.53116478     -5.41424015
 H      7.90119448    -10.63971132     -8.05668456
 H      6.34847292    -11.42692372     -7.68571410
 H      7.72176326    -13.25403454     -6.54915335
 H      9.16742273    -12.47831016     -7.23950620
 H      8.08082272    -12.95593196     -9.50348787
 H      6.70992358    -13.69441487     -8.64119719
 H      8.03332226    -15.43867136     -7.69499311
 H      9.49143726    -14.81272939     -8.50144457
 H      8.16836058    -15.39377445    -10.65857030
 H      6.83978185    -15.95581856     -9.61585670
 H      8.44670772    -17.71689838     -8.77138199
 H      9.69282299    -17.05826845     -9.85842844
 H      8.06570993    -17.57520763    -11.77162164
 H      7.14868476    -18.53058281    -10.58225636
 H      8.98102681    -19.97971585    -10.09408335
 H     10.01435287    -19.11597043    -11.25789079
 H      8.71445275    -19.65655457    -13.14798977
 H      7.56517227    -20.57578275    -12.14677021
 H      9.20580040    -22.18240242    -11.47520159
 H     10.35420204    -21.46480784    -11.88205472
 H     11.35366296    -20.78901290    -12.03888490
 H     10.88903109    -20.91103193    -13.75279716
 H     11.02174830    -23.15210670    -14.03687627
 H     11.52542918    -23.40941165    -12.34916587
 H     13.55072497    -22.18325505    -12.58183750
 H     13.18831005    -21.84361515    -14.29109665
 H     13.19850721    -23.97701011    -15.09477875
 H     13.57589310    -24.65128544    -13.49128278
 H     15.52004313    -23.83207919    -12.99276605
 H     15.64377468    -22.93465398    -14.52494918
 H     15.58972535    -25.38231080    -15.49369821
 H     15.46397568    -25.95508916    -13.81310944
 H     17.90043376    -24.72678320    -13.92405528
 H     17.49553470    -24.39318313    -15.62494752
 H     17.69686611    -26.89610835    -15.92685495
 H     17.74516761    -27.11163047    -14.16064889
 H     20.01102805    -25.90617932    -14.32815034
 H     19.76180488    -25.79067418    -16.08678988
 H     19.73339289    -28.26866326    -16.22942838
 H     20.12571091    -28.34330006    -14.49484411
 H     22.00137969    -27.39656056    -14.23357759
 H     22.18528574    -27.03922762    -15.96757828
 H     22.24001810    -29.20590681    -16.74075506
 H     22.06984670    -29.86196828    -15.09488395
 H     24.21305284    -28.86921001    -14.44669104
 H     24.40425450    -28.19641611    -16.08347354
 H     24.46528603    -30.58805802    -16.90052718
 H     24.26751862    -31.13663664    -15.21879706
 H     26.55149040    -29.78274867    -14.96728103
 H     26.57603088    -30.77678032    -16.78196200
 H     26.56837812    -31.96506722    -17.16880702
 H     26.60826782    -32.34980939    -15.43138107
 H     28.63874552    -31.35597752    -14.94664227
 H     28.85933622    -30.84858332    -16.63843350
 H     28.94024041    -33.01425898    -17.53273643
 H     28.73230556    -33.73798794    -15.91989851
 H     30.79477936    -32.83449681    -15.09641938
 H     31.11568848    -32.06359002    -16.66835663
 H     31.07119124    -34.67777364    -17.33437132
 H     30.86112123    -34.97613984    -15.59221321
 H     32.82795165    -34.08570495    -14.84251401
 H     33.33970280    -33.65813722    -16.49283618
 H     33.23885289    -36.29218270    -16.73182813
 H     32.72709102    -36.33569860    -15.02757674
 H     35.15377583    -35.30436988    -14.74592842
 H     35.30091882    -35.40845891    -16.51674210
 H     35.14514322    -37.76476695    -16.59920240
 H     34.59472064    -37.99963122    -15.62677583
 H     33.84238070    -38.30911243    -14.61776962
 H     35.14071568    -37.69821017    -13.56449313
 H     36.80769772    -39.07313542    -13.97873541
 H     35.85375716    -40.02246514    -15.14365479
 H     34.53491814    -40.37200048    -12.78745681
 H     35.78446030    -39.31396409    -12.08926626
 H     37.11920746    -41.55953046    -12.80024128
 H     35.62309330    -42.07066896    -13.61794936
 H     34.71816520    -42.09777149    -11.15712981
 H     36.35730298    -41.63413708    -10.64085748
 H     37.49433166    -43.46916577    -11.51826112
 H     35.94128775    -44.27116343    -11.85459580
 H     35.18331177    -44.29168548     -9.64151905
 H     36.66942966    -43.49282359     -9.07447411
 H     38.29635103    -44.73544948     -9.45990070
 H     37.29303440    -46.02053498    -10.17416791
 H     36.21563296    -46.19837766     -7.87477379
 H     37.29020777    -44.89563978     -7.31225296
 H     39.22281296    -46.42595784     -7.76780771
 H     38.07937529    -47.67482298     -8.31658162
 H     37.20121680    -47.62892568     -5.91866297
 H     38.40953347    -46.37655430     -5.54476000
 H     40.32031210    -47.23852145     -5.81974054
 H     39.65906732    -48.82579418     -6.27972671
 H     38.70309971    -48.82698754     -3.88689497
 H     39.45027640    -47.22965580     -3.64497559
 H     41.67929007    -48.11892917     -3.92647240
 H     41.01706901    -49.75199222     -4.17714156
 H     40.16205057    -49.08735090     -1.65784955
 H     41.23376961    -47.68187875     -1.86840357
 H     43.18734562    -48.37697373     -2.23300736
 H     42.73058053    -50.06773980     -1.91529301
 H     42.04625437    -49.60155116      0.33638704
 H     42.47059554    -47.88437848      0.13759255
 H     44.86670390    -48.94917659     -0.16824768
 H     44.09570299    -50.53599177      0.06806107
 H     43.75901252    -49.12870939      2.43268698
 H     44.63222062    -47.82986395      1.58488110
 H     46.63908662    -49.05473629      1.34338387
 H     45.92980649    -50.45746359      2.17857515
 H     46.79564239    -49.61745850      4.06086628
 H     46.39824028    -47.71081134      3.39260306
 H     48.51207493    -48.68925432      3.10271574
 H     47.95691548    -50.24306072      3.77036110
 H     47.53799059    -49.48912229      5.92817181
 H     48.05470446    -47.83819984      5.50897196
 H     50.32863058    -49.18761479      5.13503550
 H     49.42124307    -50.64204074      5.61415942
 H     49.10544173    -49.59345279      7.86552494
 H     50.02204604    -48.17160209      7.31195131
 H     52.00292098    -49.70111439      7.04754806
 H     50.99925638    -51.05897743      7.61069280
 H     50.37647137    -50.74213782      9.54095894
 H     51.22596544    -49.18482001      9.68720448
 H     53.34980708    -49.79052546      9.45123391
 H     52.92704582    -51.50946748      9.26474552
 H     52.01011085    -52.08053913     11.12708875
 H     52.21011927    -50.46144510     11.83898609
 H     54.40632317    -50.22355995     11.88953293
 H     54.68488326    -51.83374931     11.18386930
 H     53.73012252    -53.05147501     12.93431088
 H     53.35465339    -51.56090420     13.83180086
 H     55.29446663    -50.74520045     14.32923743
 H     56.18673189    -51.94219696     13.36004771
 H     55.49012875    -53.56726372     15.16746067
 H     54.31977084    -52.38294088     15.79667324
 H     57.12997595    -51.68193257     16.11945466
 H     57.32232973    -53.24182704     15.28399315
 H     56.28366111    -54.43553764     17.13048800
 H     56.06597657    -52.90586467     18.01421911
 H     58.52921659    -52.64389554     18.09930579
 H     58.71606299    -54.17661177     17.21379122
 H     57.81318607    -55.62184997     18.67703678
 H     57.46523714    -54.33288762     19.85422592
 H     60.10742081    -54.18000005     19.80086950
 H     60.06843300    -55.50229868     18.60995684
 H     59.15056817    -57.05087082     20.20558298
 H     59.05455658    -55.77530781     21.44331779
 H     61.75483945    -56.24348185     20.79236479
 H     61.06570855    -57.43786511     19.66683652
 H     60.10049791    -58.83028969     21.22488567
 H     60.67185290    -57.81799454     22.57287627
 H     62.94303584    -58.09637955     22.20813513
 H     62.64510241    -59.15628238     20.80952571
 H     61.56318905    -60.85185253     22.00608512
 H     61.75748922    -59.96220329     23.53547661
 H     64.06516567    -59.96690851     23.60573394
 H     64.16812425    -60.87142125     22.07618403
 H     63.17405282    -62.78864968     22.60928864
 H     62.87497879    -62.26472860     24.28390146
 H     65.18549058    -62.07578938     24.82185602
 H     65.64404688    -62.59191204     23.18124327
 H     65.14089156    -64.33880467     22.61050639
 H     64.36312566    -64.76577162     24.15357026
 H     66.85192360    -64.42725006     24.99119735
 H     67.26869797    -64.03652677     23.30540344
 H     66.54893660    -66.46947179     22.84517683
 H     66.19174851    -66.63468834     24.58108778
 H     68.33791194    -66.31630418     25.37061225
 H     68.97740919    -66.11597280     23.72161945
 H     68.24182279    -68.58476223     23.47741306
 H     67.55806646    -68.49711010     25.11846792
 H     70.29188720    -68.10830649     25.39490544
 H     70.32116047    -68.39223694     23.63797822
 H     69.52326005    -70.55719690     23.65804766
 H     69.39662514    -70.55657380     25.43349968
 H     71.83156602    -70.26989074     25.61692246
 H     71.96718772    -70.26967500     23.84213419
 H     71.04883698    -72.71632894     24.18349411
 H     71.03126194    -72.37474450     25.93028484
 H     72.75687715    -72.00462063     26.74867459
 H     73.67011636    -72.22282966     25.23650871
 H     73.46672422    -74.15239027     24.55191257
 H     72.43652809    -74.65436864     25.91388919
 H     74.20655897    -74.24429439     27.51645647
 H     75.29650924    -73.73030404     26.20646067
 H     75.03493852    -76.14562235     25.37150576
 H     73.95877385    -76.45493453     26.75514669
 H     74.89548008    -76.24359680     28.52491506
 H     76.46594889    -75.84341583     27.78887866
 H     76.30522640    -78.01509466     26.45776294
 H     75.27686565    -78.50751165     27.28867701
 H     78.15206385    -77.29611911     27.14981992
 H     77.17724202    -77.52584235     25.67835252
 H     77.10143074    -79.96122560     26.08478733
 H     78.24054776    -79.73695684     27.43400288
 H     79.92180830    -78.94343635     25.80933053
 H     78.70918175    -78.97258263     24.50665866
 H     78.55180632    -81.41611183     24.68369594
 H     79.76370449    -81.40320546     25.98730743
 H     81.36079833    -80.48532375     24.22430569
 H     80.03309439    -80.55842375     23.04103679
 H     80.07579139    -83.07113290     23.41025453
 H     81.40128368    -82.84189381     24.57592442
 H     82.74637549    -81.96198535     22.61000953
 H     81.33432112    -82.24235983     21.56322432
 H     81.66687843    -84.71134854     22.15865315
 H     83.05481860    -84.23424889     23.16576023
 H     83.65679709    -83.57971857     20.52038219
 H     82.03872758    -84.23969223     20.18192615
 H     82.59472728    -86.43933676     20.90011104
 H     84.25621124    -85.92982074     21.28498911
 H     84.58300894    -85.42030853     18.86349099
 H     82.91168469    -85.94209564     18.54305360
 H     83.67340643    -87.92038079     18.04154476
 H     85.01433318    -87.81085967     19.59194408
 H     85.64510393    -87.25981658     17.42424089
 H     84.00761102    -87.58651891     16.80767844
 H     84.81161136    -90.00819121     17.71833336
 H     86.32348069    -89.18942313     18.17891629
 H     86.83157185    -88.67152817     15.85909409
 H     85.33338742    -89.47822150     15.33664222
 H     86.41108915    -91.59410546     16.30533972
 H     87.82507105    -90.61091612     16.75507361
 H     88.16047803    -90.20390462     14.28889293
 H     86.72718011    -91.20535638     13.95569913
 H     88.50240466    -92.92874033     15.11543448
 H     89.58446867    -91.51906663     15.21654933
 H     90.25602907    -90.55787498     13.99508354
 H     89.53169507    -91.51196782     12.67852980
 H     90.81032184    -93.48656450     13.38984707
 H     91.54059952    -92.54124984     14.70944602
 H     92.65044283    -91.01307839     13.30674213
 H     92.02311492    -91.82560437     11.85260050
 H     93.29894877    -93.86199223     12.53382373
 H     93.88955766    -92.99269146     13.97040439
 H     95.07101356    -91.36628930     12.64430382
 H     94.53510448    -92.16487838     11.14653094
 H     95.94775127    -94.13968988     12.10277509
 H     96.31614199    -93.10481652     13.50334357
 H     97.48910359    -91.56382831     11.88704425
 H     97.06169401    -92.67235481     10.56161726
 H     98.75058478    -94.18003502     11.86972145
 H     98.69892133    -93.00932385     13.20950984
 H     99.85083009    -91.42142680     11.55784732
 H     99.80455809    -92.72434923     10.34602278
 H    101.19845357    -94.19270886     11.55748757
 H    101.36878394    -93.00896708     12.87582350
 H    102.43738905    -91.36294561     11.60728449
 H    102.38409766    -92.38265618     10.14933490
 H    103.92840372    -93.89016381     11.67823219
 H    103.74980569    -92.64155798     12.93415929
 H    104.55337437    -90.95338729     11.12258364
 H    105.09397710    -91.76540059     10.51445586
 H    104.49912091    -90.42849109     13.13718782
 H    103.80488917    -90.03775041     11.54544956
 H    106.55766161    -89.55152552     11.43964639
 H    106.53041703    -90.10935122     13.12972180
 H    105.13694081    -88.29091309     13.84642519
 H    105.09499493    -87.63706073     12.19143748
 H    106.93271767    -87.09137458     11.54357949
 H    107.70351692    -87.72039229     12.31198860
 H    108.47368094    -88.52997053     12.76136186
 H    108.09331970    -87.67562422     14.27585332
 H    108.85058067    -85.60384356     13.74771121
 H    109.37047717    -86.12902885     12.12840434
 H    110.97978750    -87.67434041     12.95265568
 H    110.57375481    -87.25270153     14.63361516
 H    111.48926734    -84.91413782     13.82854607
 H    111.76418235    -85.66574983     12.23865054
 H    113.30738782    -87.22737074     12.82117611
 H    113.28699623    -86.71357883     14.52525027
 H    114.11888554    -84.51468952     13.98453974
 H    114.17619091    -84.93833873     12.25667860
 H    115.87962485    -86.67844776     12.82549093
 H    115.76935574    -86.20304403     14.53724403
 H    116.78029699    -84.00277203     13.29863085
 H    116.57601528    -84.91425203     11.78346094
 H    118.09424420    -86.60484476     12.25991318
 H    118.48475100    -85.88308124     13.83941580
 H    119.36618957    -83.88461478     12.65550606
 H    118.95949230    -84.64053423     11.09619538
 H    120.64127856    -86.43316843     11.70386103
 H    120.95294300    -85.57815915     13.23359665
 H    121.79772658    -83.62633735     12.30781477
 H    121.59181052    -84.25590412     10.65569162
 H    122.96596144    -86.00732862     10.66080065
 H    123.46588391    -85.71562337     12.34402738
 H    124.42418751    -83.53673565     11.63222791
 H    123.90674389    -83.86565061      9.96120016
 H    125.43694168    -85.82431957      9.92597147
 H    125.92563028    -85.46006836     11.59832644
 H    126.77435083    -83.27714555     10.25983060
 H    126.10471136    -84.05738225      8.80687488
 H    127.49303767    -85.76181829      8.57598546
 H    128.20874114    -85.56405130     10.19367622
 H    129.10835929    -83.37174378      8.93378053
 H    128.21064182    -83.95791982      7.51294709
 H    129.87142944    -85.94178446      7.65512625
 H    130.59990497    -85.15093091      9.07362572
 H    131.25986441    -83.19427644      7.87937838
 H    130.71318709    -83.93124370      6.35416042
 H    132.29802775    -85.75287996      6.56927022
 H    132.89682181    -85.07258818      8.10123479
 H    133.64183685    -83.03303146      7.23514441
 H    133.24144649    -83.49664249      5.62915083
 H    135.03300165    -84.26619738      8.11957892
 H    133.98858259    -82.85481115      8.41188769
 H    135.46868339    -81.83776653      6.50137810
 H    136.32912012    -83.39492615      6.44508214
 H    136.83967476    -82.40941072      8.94860531
 H    135.82831412    -81.03160597      8.45154354
 H    137.76500777    -80.73002769      6.70744659
 H    138.53262958    -82.16455234      7.42936240
 H    138.73574324    -80.86270382      9.56176700
 H    137.95859689    -79.47361880      8.76505311
 H    140.34180373    -79.92440876      7.42430209
 H    140.54201893    -81.26311677      8.58017467
 H    140.61811720    -79.67349355     10.44543348
 H    140.41912402    -78.32017552      9.30648716
 H    142.59195985    -78.93257429      8.27043323
 H    142.75402470    -80.27642112      9.42632135
 H    142.83236835    -78.72142789     11.30350948
 H    142.67298582    -77.34645014     10.18444735
 H    144.74243573    -77.80440512      9.08141386
 H    145.02946641    -79.20775886     10.13804924
 H    145.19866227    -78.52265526     12.11203723
 H    144.65696316    -77.67881139     12.15607462
 H    143.77999885    -76.68193186     12.28321405
 H    144.85675445    -75.69303748     11.26785601
 H    146.64863986    -75.85486844     12.91122813
 H    145.60975209    -76.84644002     13.96278158
 H    143.99290478    -75.17670242     14.32501961
 H    144.89046943    -74.02550843     13.30649285
 H    146.53203842    -74.61036998     15.45655927
 H    145.19851604    -75.67085061     15.97169571
 H    143.53045563    -74.35010301     16.33084581
 H    144.46351064    -72.89381474     15.91025160
 H    146.14510748    -72.78230946     17.19692098
 H    145.46445759    -74.03542031     18.26214189
 H    143.40253553    -72.79814279     18.59093446
 H    144.11537807    -71.41823061     17.72147224
 H    145.52574416    -70.51615101     18.09039895
 H    145.87259259    -71.43025245     19.57780656
 H    143.89333749    -70.80735189     20.68999717
 H    143.36873743    -69.82883651     19.29874985
 H    145.17984148    -68.31143127     19.42664591
 H    145.84885047    -69.16884826     20.83573417
 H    143.90234702    -68.65888301     22.18256035
 H    143.16727691    -67.78179057     20.81923814
 H    145.31539268    -66.27673178     21.23410355
 H    145.73313804    -67.40423930     22.54653728
 H    143.45054560    -66.42200069     23.48541350
 H    143.37713232    -65.43787952     22.00406861
 H    145.20673160    -64.16332760     22.24684617
 H    145.62063935    -64.91662548     23.80552809
 H    143.14495930    -63.84630848     24.26698671
 H    143.38699368    -63.08127998     22.67814517
 H    145.22787915    -61.85826830     23.07306931
 H    145.31905266    -62.39967569     24.76624151
 H    143.01985287    -61.15743074     24.90568786
 H    143.20872271    -60.77102332     23.17846924
 H    145.27909568    -59.44639126     24.05859266
 H    144.84726476    -59.99865963     25.69468201
 H    142.70481860    -58.54453210     25.13378785
 H    143.45925506    -58.20991797     23.55672549
 H    145.29742611    -57.04851910     24.84384956
 H    144.44916692    -57.44578143     26.35742337
 H    142.61451905    -55.90188952     25.31552262
 H    143.68999143    -55.69455632     23.91244075
 H    145.11248573    -54.59348422     25.93731423
 H    143.73449283    -55.03447446     26.97410246
 H    142.31882312    -53.47543755     25.63733455
 H    143.73265994    -53.07472417     24.63296365
 H    144.40050971    -52.20834353     27.14189125
 H    142.80120896    -52.82537252     27.62124392
 H    141.63624563    -51.21643016     26.31536643
 H    143.14731092    -50.63080552     25.57916529
 H    143.70235532    -50.00360142     28.08261503
 H    141.99425105    -50.38212921     28.41027825
 H    141.07437448    -48.79934096     26.97975433
 H    142.68692402    -48.22851386     26.48771058
 H    143.12120872    -47.51191102     28.81352411
 H    141.50560345    -48.08838071     29.28867566
 H    140.59221101    -46.32866288     27.70875791
 H    142.26392324    -45.85547142     27.32180217
 H    141.60374745    -45.47259992     30.10212434
 H    140.01417999    -46.02578497     29.52287636
 H    140.30385331    -44.08015107     27.75185887
 H    141.13485803    -43.50627600     28.45122349
 H    138.33600940    -44.67505496     28.25364690
 H    139.55981763    -44.86712747     26.97549658
 H    138.91570777    -42.11845275     27.49065255
 H    137.83655911    -42.85257666     28.70092811
 H    136.99644602    -43.67204967     26.15841443
 H    138.36978039    -42.68880055     25.59677349
 H    137.53036099    -40.64253763     26.34495941
 H    136.09765381    -41.42197063     27.05777145
 H    135.66698603    -41.97234809     24.50746580
 H    137.18464806    -41.11040336     24.15815232
 H    137.00294061    -39.12529228     24.71348231
 H    135.32120128    -39.31133179     25.26612035
 H    135.01599021    -39.88201950     22.69582293
 H    136.76765837    -39.61610626     22.52489762
 H    135.94743233    -37.17979971     23.26254005
 H    134.30664632    -37.86734985     23.32052940
 H    134.63285234    -38.30452212     20.81173831
 H    136.19732873    -37.46500957     20.93782940
 H    135.16710232    -35.39518127     21.60789346
 H    133.55342303    -36.13995130     21.50979444
 H    133.79533080    -36.51905680     19.12181538
 H    135.41555594    -35.78282475     19.15497442
 H    134.33611995    -33.63743252     19.85015686
 H    133.09544538    -34.19138715     20.20618057
 H    131.99369752    -34.74389600     20.55730892
 H    131.79792893    -35.15350130     18.83621484
 H    131.72846408    -33.02990930     17.98244978
 H    131.90759638    -32.30513276     19.59827070
 H    129.97288406    -33.08094824     20.54288068
 H    129.50229235    -33.92096730     19.04582421
 H    129.30875863    -32.05890334     17.69409491
 H    129.75098460    -30.97030400     19.03112682
 H    127.42277191    -32.09539424     19.86759722
 H    127.46335446    -33.00006503     18.33521656
 H    127.16489874    -30.60743343     17.34613829
 H    127.32316641    -29.96001801     18.99661436
 H    125.33766988    -30.97267028     19.79654654
 H    125.02036110    -31.69803594     18.20236134
 H    124.76438415    -29.76420091     16.99617089
 H    125.04008321    -28.75475678     18.43605951
 H    122.82274135    -29.95881381     19.19102897
 H    122.87673185    -30.85181287     17.65222932
 H    122.69164998    -28.27617745     16.81271209
 H    122.42849818    -27.91191302     18.53501555
 H    120.82745624    -28.79103870     19.31232609
 H    120.35668007    -29.57501695     17.78523258
 H    120.03967442    -27.31143180     16.79373165
 H    120.51914439    -26.57908356     18.34358367
 H    118.51878046    -27.63316384     19.38935303
 H    118.08534123    -28.34286790     17.81559408
 H    117.68454540    -26.95834030     16.41860402
 H    117.95403141    -25.58602761     17.51969522
 H    116.57054432    -25.66036662     19.06475879
 H    115.77772594    -27.12677853     18.44078621
 H    115.06850210    -25.63644986     16.51181567
 H    116.14567515    -24.35256355     17.11148294
 H    114.61730491    -24.19637250     19.11450008
 H    113.61571404    -25.49171977     18.41653313
 H    113.52906982    -23.29976670     16.68107710
 H    114.59609249    -22.54392576     17.88873342
 H    112.96701864    -22.61688073     19.62441322
 H    111.78659735    -23.37583961     18.52949147
 H    112.25207762    -20.92399928     17.42080722
 H    113.37463096    -20.68053530     18.78053732
 H    111.34056196    -20.85789989     20.28163133
 H    110.33284701    -21.09500559     18.83368170
 H    110.32815323    -19.55156338     17.58764687
 H    111.40542433    -18.56293264     18.60271479
 H    110.01462183    -18.39614897     20.44405623
 H    108.75132806    -19.36566568     19.64882492
 H    108.49046557    -17.66235143     17.91082549
 H    109.75001100    -16.67064050     18.68433788
 H    108.14488204    -16.54063135     20.66435592
 H    106.99847006    -17.54804116     19.74831460
 H    106.51426760    -16.28965379     18.00719610
 H    107.56920094    -14.96586558     18.55762056
 H    106.40069750    -14.50828904     20.52886345
 H    105.21317833    -15.78740993     20.17970072
 H    104.42425900    -14.71883919     18.19014947
 H    105.56552723    -13.37337271     18.42571998
 H    104.43360368    -12.77707199     20.52875074
 H    103.29089043    -14.12175798     20.29574290
 H    102.48523409    -12.98407553     18.22606358
 H    103.65044635    -11.66930820     18.51230463
 H    102.73940250    -10.93952936     20.53064122
 H    101.46311688    -12.17827705     20.46088562
 H    100.79854212    -10.82998730     18.31163589
 H    102.17677744     -9.75674331     18.65351511
 H    100.21604050     -9.75283683     20.76912442
 H     99.35408783    -10.77424927     19.59353058
 H     99.30961568     -8.85099744     18.02667667
 H    100.20859354     -7.87015940     19.20907348
 H     98.64744536     -7.83996315     20.88583654
 H     97.50898668     -8.81975106     19.93074798
 H     97.56233424     -6.76718660     18.34137679
 H     98.70745835     -6.00346592     19.46995473
 H     97.02859903     -5.97740580     21.23856666
 H     95.84942078     -6.73970699     20.14462781
 H     95.67697395     -5.12349611     18.56865187
 H     96.83637771     -4.07209079     19.41635256
 H     94.48481014     -4.53905364     20.97090810
 H     94.03112423     -5.52406279     19.55945752
 H     94.33985180     -2.77418141     18.85004327
 H     94.64637219     -2.61188126     20.59588707
 H     92.87259246     -3.20898769     21.59607971
 H     92.00194938     -3.54462746     20.08029831
 H     92.00567452     -1.42376788     19.20979332
 H     92.87860126     -0.77788155     20.62014661
 H     91.17066945     -1.22735740     22.16404913
 H     90.16720757     -2.00526914     20.91657800
 H     90.03845766      0.22836411     19.77780846
 H     91.04951463      0.92105371     21.06862664
 H     89.41308074      0.47855356     22.76871634
 H     88.31569790     -0.23501245     21.56254839
 H     88.37312069      2.19453530     20.59866365
 H     89.47855203      2.61720524     21.92818926
 H     87.82005864      2.15713781     23.61129938
 H     86.63664820      1.71550996     22.35719762
 H     86.97628125      4.23825120     21.70365360
 H     88.13262903      4.34803234     23.05238432
 H     86.10332171      4.02518843     24.52275228
 H     85.13257321      3.57810862     23.09936418
 H     85.54078776      6.09682802     22.49798685
 H     86.47500174      6.22574171     24.00758685
 H     84.74300866      5.59102461     25.46793215
 H     83.57989006      5.79081247     24.13545078
 H     84.03641117      8.02376547     23.69091109
 H     85.25679199      8.08784771     24.98506362
 H     83.48413466      7.61957234     26.64646985
 H     82.27973842      7.55917916     25.33725290
 H     82.82396201      9.98905955     24.91524591
 H     84.00479692      9.92639907     26.24564783
 H     82.20870488      9.46077358     27.84914358
 H     81.30243652      9.05867847     27.02150775
 H     80.46637918      8.52227967     26.23073091
 H     80.34733699     10.13676160     25.49076894
 H     79.48798705     10.37646505     28.12420104
 H     79.84954653      8.63598798     28.21520086
 H     77.95688787      8.48681437     26.43306084
 H     77.81126345     10.25769809     26.53808968
 H     77.13646222     10.20467485     28.83794768
 H     77.24281808      8.42798474     28.85604007
 H     75.62261126      7.96569367     27.30897578
 H     75.44250454      9.34940427     26.78804351
 H     75.35115832     10.52389129     26.35284511
 H     74.74146783     10.90565009     27.98097422
 H     72.95607702      9.10251339     26.85963701
 H     74.05186773      9.15272491     25.45785665
 H     73.71442189     11.42689822     24.97768947
 H     72.57712535     11.59127505     26.33702884
 H     70.96878298     10.56645170     26.29452740
 H     71.32471525      9.82284875     24.71698706
 H     71.13232722     12.46811089     24.13502344
 H     70.81857159     12.69190110     25.87276393
 H     68.80160708     11.44045566     25.85995214
 H     68.96507557     11.12725250     24.11540392
 H     68.75727866     13.62704098     23.79721097
 H     68.60759768     13.80930818     25.56147878
 H     66.45770160     12.44141956     25.29073479
 H     66.78220375     12.36382401     23.54232295
 H     66.55096786     14.83480657     23.43649977
 H     66.23130603     14.87071095     25.18715503
 H     64.19448235     13.56546799     24.90117174
 H     64.46846521     13.50177209     23.14357597
 H     64.48463205     15.08017202     22.13758466
 H     64.14265747     16.13276582     23.53163142
 H     61.96827132     15.02462203     23.84294790
 H     62.30509200     13.96952071     22.44954210
 H     62.38327559     16.00729050     21.00412824
 H     61.94474137     16.99138067     22.42099837
 H     59.75196708     15.72488402     22.36266513
 H     60.40714863     14.66061813     21.09524969
 H     60.31598703     17.02082556     19.82207301
 H     59.67448294     17.68833298     21.34232727
 H     57.75291571     15.93740302     20.63444093
 H     58.77131943     15.57472737     19.22037343
 H     58.16019998     18.15976526     18.81028968
 H     57.24132899     18.06419817     20.33173954
 H     55.70890475     16.43533934     19.44959265
 H     56.55299519     16.45424925     17.88261453
 H     55.86549291     18.87755392     17.70065986
 H     55.05728660     18.73759387     19.28036882
 H     53.50000913     17.08085546     18.37675913
 H     54.28697255     17.19925539     16.78461068
 H     53.70269197     19.49507866     16.48936305
 H     52.87449988     19.51867005     18.06473855
 H     51.25422111     17.86598834     17.29923844
 H     52.04834623     17.80909053     15.70726023
 H     51.05029350     20.34726007     15.92244158
 H     50.57277270     19.87811627     17.57172768
 H     49.03159866     18.21877416     16.84157665
 H     49.40099352     18.57738437     15.13769496
 H     48.51269420     20.93142840     15.66836825
 H     48.07763295     20.32261227     17.28340116
 H     46.53737594     18.70599638     16.09722041
 H     47.05645147     19.39872573     14.54192195
 H     45.80955353     21.45878398     15.85930972
 H     45.57123343     20.27606950     17.16799482
 H     44.13585512     19.06397297     15.36656685
 H     44.54233837     20.38795612     14.24848516
 H     43.03393795     21.33551796     16.47050431
 H     43.10187256     19.62457213     16.95662765
 H     42.00980359     18.60388230     15.34175801
 H     41.67891523     20.12632444     14.48097379
 H     40.41224942     20.87133020     16.54589554
 H     40.65927695     19.23931930     17.21206705
 H     39.26218655     18.26903369     15.53352166
 H     39.28808583     19.75356304     14.55180455
 H     37.85566624     20.51348081     16.70662088
 H     38.10871195     18.85738033     17.30792425
 H     36.80674118     18.02705230     15.34532802
 H     36.59088914     19.70665617     14.79705306
 H     35.42648536     20.53160202     16.58292143
 H     35.36176960     18.92399691     17.34429149
 H     34.13157135     17.94452081     15.55035468
 H     34.11462359     19.49397857     14.67447793
 H     32.74274060     20.28366437     16.73349646
 H     32.91290218     18.64055547     17.39644807
 H     31.67623752     17.65166817     15.58434027
 H     31.44606194     19.25103470     14.83780657
 H     30.14816275     19.98302655     16.79683982
 H     30.37636191     18.38470375     17.54621025
 H     29.13346619     17.30571014     15.74623324
 H     28.87982401     18.88331547     14.96195413
 H     27.72389457     20.05845414     16.30578469
 H     27.62401599     18.76266886     17.52202128
 H     26.39549089     17.33523842     15.96813441
 H     26.47292912     18.60658162     14.72476943
 H     25.17577834     20.14695263     16.03310670
 H     25.03008306     18.95076593     17.34313606
 H     23.74255971     17.69311197     15.37188710
 H     24.11278632     19.11339488     14.36491373
 H     22.95468349     20.69926625     15.50267622
 H     22.38110198     19.51872328     16.70500281
 H     21.16588051     18.30589444     14.94222727
 H     21.73697033     19.48411193     13.73643847
 H     20.38373316     21.13507433     15.30507054
 H     19.85014945     19.67635120     16.17437022
 H     18.75872071     18.61634429     14.48144067
 H     19.11810189     19.92984022     13.33521195
 H     17.58832257     21.18465002     15.15744390
 H     17.51037564     19.61810101     15.99893967
 H     16.35759465     18.57925816     14.13766667
 H     16.39637016     20.11338274     13.23587683
 H     15.32849451     21.55955328     14.22143358
 H     14.85647629     20.47529930     15.55179397
 H     13.62635558     18.97245260     14.29805091
 H     14.06236773     19.10746070     13.25299431
 H     14.68204545     19.06017846     12.13736108
 H     14.07746856     20.71492891     11.88328554
 H     11.84726521     20.32088675     11.89711520
 H     12.08430965     18.57460575     12.14727366
 H     13.00120808     17.58723035     10.79775870
 H     13.22589203     18.99418196      9.73086088
 H     10.47621385     18.10082469     10.33087229
 H     11.40942521     16.92527298     11.28766976
 H     11.97158526     16.24760389      8.76230384
 H     11.23463121     17.78762665      8.25882066
 H      9.34270479     15.92909747      9.37935411
 H     10.80622774     14.92998553      9.54711163
 H     11.18530867     14.79721195      7.19696436
 H      9.74100398     15.78674499      6.87591139
 H      8.14489204     14.40650369      7.71932374
 H      9.34895241     13.17641746      8.17252695
 H      9.96749673     12.84413511      5.83762373
 H      8.77490778     14.06688233      5.33673702
 H      7.66107064     11.64972852      6.39567834
 H      9.34272987     11.33745446      6.88839916
 H      9.36644670     11.29921729      4.13735061
 H      7.62559513     11.64452440      4.27323827
 H      7.46529672      9.37260580      5.41897064
 H      9.22268659      9.18607355      5.20671315
 H      8.53052593      9.25432337      2.67348662
 H      6.84735603      9.44149364      3.22136712
 H      7.01966977      7.18042971      4.26996693
 H      8.69923593      7.05819982      3.69343937
 H      7.62181460      7.16041782      1.35340772
 H      6.03407943      7.27924559      2.14917380
 H      6.27984680      5.07935067      3.14305080
 H      7.87494420      4.89383770      2.37525142
 H      7.15056707      5.12239240      0.15218711
 H      5.46514049      4.96705896      0.70307315
 H      6.10684981      2.71891336      1.63753448
 H      7.76645946      2.97462019      1.04713080
 H      7.26074706      3.05703547     -1.21472877
 H      5.52874815      2.80230134     -0.89292605
 H      6.04451904      0.52726406     -0.16779549
 H      7.78425774      0.89432272     -0.08506774
 H      7.90174870      1.29336682     -2.50102874
 H      6.27945373      0.57418247     -2.63959132
 H      6.47859008     -1.42272320     -1.84054759
 H      8.21336017     -1.22008732     -1.49735944
 H      8.27431242     -0.86743720     -4.12212331
 H      6.54861460     -1.30303377     -4.10000207
 H      7.74404340     -3.53544609     -3.14675738
 H      9.27413855     -2.64798956     -3.34549441
 H      8.52826237     -2.75413789     -5.87161159
 H      7.08057021     -3.62973103     -5.31862813
 H      8.50261480     -5.47055754     -4.50915692
 H      9.95053203     -4.59526074     -5.06202028
 H      9.16617915     -4.74306576     -7.38672642
 H      7.71503485     -5.61921788     -6.84376757
 H      9.37844988     -7.38728639     -5.98227199
 H     10.66531821     -6.44105493     -6.76769073
 H      9.90613936     -6.57145185     -8.93168721
 H      8.52222705     -7.58012018     -8.44625793
 H     10.59180674     -9.15371438     -7.78400754
 H     11.63507363     -7.84410547     -8.38798218
 H     10.80320374     -8.03590977    -10.63122196
 H      9.71765664     -9.35932761    -10.14293990
 H     11.15911450    -10.92302127     -9.49574149
 H     12.56659217     -9.90027305     -9.87158634
 H     11.50122581    -10.17575704    -12.29863298
 H     10.23951745    -11.16182003    -11.52143386
 H     11.89551408    -12.81393585    -10.80490808
 H     13.16267623    -11.90352914    -11.66148637
 H     12.17019323    -12.17712342    -13.80158547
 H     10.82939692    -13.11365503    -13.09913229
 H     12.49597261    -14.83690946    -12.40248244
 H     13.79258839    -13.85279771    -13.12260622
 H     12.68702566    -14.19145833    -15.34499950
 H     11.42603617    -15.16303963    -14.54863152
 H     12.58902248    -16.87757564    -13.75358715
 H     14.12093689    -16.25279104    -14.41020660
 H     13.31562475    -16.44221783    -16.68971918
 H     11.75847252    -17.07495063    -16.10389258
 H     12.22756634    -18.93054428    -15.11759862
 H     13.96752181    -18.79374540    -15.46703775
 H     14.46244011    -18.78944391    -17.35113162
 H     12.78818633    -18.96919753    -17.92804546
 H     12.91857922    -21.23169594    -16.66772427
 H     14.58764634    -20.81177628    -16.21368783
 H     15.53199008    -21.62938741    -17.89217939
 H     13.89569202    -21.17987744    -19.07431532
 H     14.27653011    -23.37635001    -17.69959438
 H     15.81277799    -22.67096728    -17.14223962
 H     16.90799130    -22.49778828    -19.11183776
 H     15.54196120    -23.19315044    -20.01665812
 H     16.02748847    -25.29101920    -18.58930655
 H     17.35027791    -24.38724608    -17.81362046
 H     18.68301378    -24.11035149    -19.65539395
 H     17.50331254    -24.90729471    -20.72378207
 H     18.14487879    -26.94023157    -19.13811954
 H     19.23465187    -25.81276875    -18.29580791
 H     20.63412637    -25.42444233    -20.14660707
 H     19.67104908    -26.52539684    -21.16082991
 H     20.83384166    -27.97223692    -19.03793913
 H     21.49179176    -26.38141155    -18.58556432
 H     22.76406235    -26.33908026    -20.71138286
 H     22.09038910    -27.93021787    -21.13883124
 H     23.43640108    -28.62937982    -18.98806986
 H     23.92840450    -26.92492515    -18.84304029
 H     25.04566027    -27.65938265    -21.18919336
 H     24.31943460    -29.25730949    -20.89340159
 H     25.49062045    -29.77060767    -18.96671414
 H     26.37616416    -28.22768220    -19.02553590
 H     27.45676956    -28.69203612    -21.07729259
 H     26.65958181    -30.28001765    -21.18252082
 H     27.99766958    -30.89416766    -19.13514185
 H     28.58001893    -29.21631181    -19.01709259
 H     29.77413086    -29.60196686    -21.19748234
 H     29.13853091    -31.26436063    -21.22443237
 H     30.34718013    -31.84092033    -19.19979814
 H     31.01967270    -30.19508174    -19.11473487
 H     32.26103851    -30.90095164    -21.23378295
 H     31.24768566    -32.36105599    -21.33113775
 H     32.32283667    -33.18749712    -19.24877557
 H     33.31660495    -31.71204535    -19.18767464
 H     34.31402562    -32.52612650    -21.38673145
 H     33.24646215    -33.94773011    -21.29944974
 H     34.62793897    -34.45069249    -19.15413897
 H     35.54603198    -32.96004838    -19.47562307
 H     36.21816650    -34.33287557    -21.62461109
 H     35.18906954    -35.64539859    -21.00291227
 H     36.71927701    -35.82617236    -19.04266305
 H     37.71052488    -34.50783223    -19.71174723
 H     38.40967837    -35.47932321    -21.63263323
 H     37.53108946    -36.98566503    -21.27586646
 H     38.91531636    -37.34871863    -19.28426394
 H     39.80634683    -35.84574423    -19.62396867
 H     40.51185375    -37.12063430    -21.77402167
 H     39.53375072    -38.49394057    -21.20339831
 H     40.99751813    -38.73920508    -19.24497269
 H     42.21834140    -38.22863696    -20.79885740
 H     42.40734713    -39.04442301    -21.80330991
 H     41.34231082    -40.18850769    -20.95182029
 H     42.95461124    -40.26616571    -19.07967598
 H     44.00797741    -39.12117236    -19.94435894
 H     44.58085559    -40.35599074    -21.72307493
 H     43.51381033    -41.70177099    -21.25557456
 H     44.61147350    -42.22747290    -19.25372743
 H     45.86608196    -41.00999195    -19.58833830
 H     46.68042190    -41.92472144    -21.54188165
 H     45.52749255    -43.27826514    -21.45857480
 H     46.67180507    -43.95735593    -19.31989170
 H     47.77293061    -42.57025011    -19.49801145
 H     48.81930497    -43.11253582    -21.41371462
 H     47.89888721    -44.62722111    -21.57750192
 H     49.42157722    -44.80798393    -19.24716414
 H     49.96292592    -43.17170822    -19.69192258
 H     50.80373911    -44.95370900    -21.68322880
 H     49.98836175    -46.16983762    -20.67107387
 H     51.41070948    -45.89401460    -18.81134654
 H     52.35703407    -44.65252829    -19.66659398
 H     52.62308550    -47.07136562    -21.05149414
 H     51.54511390    -47.69787432    -19.78116711
 H     53.39244346    -47.15036905    -18.14567467
 H     54.37532615    -46.54843653    -19.50209848
 H     54.47053191    -48.70231630    -20.55961202
 H     53.49362923    -49.41489239    -19.25341022
 H     55.52358713    -48.75100722    -17.78368150
 H     56.29284173    -48.09757166    -19.24981111
 H     56.49691361    -49.75278557    -20.61097041
 H     55.96131912    -50.92016897    -19.37864692
 H     57.59241710    -50.55841740    -17.81876092
 H     58.38365004    -49.32980324    -18.83499139
 H     58.77272905    -51.22633778    -20.49031608
 H     57.94961130    -52.32897083    -19.36118182
 H     60.23209671    -51.40991692    -18.07436994
 H     60.49509635    -50.48689583    -19.57341294
 H     60.71938672    -52.56852806    -20.84740066
 H     60.45920317    -53.51245309    -19.36093616
 H     62.29239901    -52.83828349    -18.18168767
 H     62.84207689    -51.78642320    -19.50822859
 H     63.13112569    -53.69813998    -20.98725968
 H     62.58940135    -54.79544780    -19.69469751
 H     63.92659746    -54.68868897    -18.10464162
 H     64.98035015    -53.50759862    -18.91882680
 H     65.71171852    -54.98439619    -20.56042034
 H     64.46380642    -56.18976837    -20.16285276
 H     65.62044249    -56.57342767    -17.98827191
 H     66.84026069    -55.35747110    -18.43744879
 H     67.36527209    -57.04785579    -20.33929420
 H     66.07598688    -58.08586152    -19.68465353
 H     68.28452445    -57.22905827    -17.84082376
 H     68.87696443    -56.80028394    -19.00418350
 H     67.64318364    -59.28699062    -17.55994472
 H     67.65803500    -57.69239566    -16.76917737
 H     70.15246137    -57.67081029    -16.91309280
 H     70.07108099    -59.38145924    -17.39819492
 H     69.01209115    -60.18520182    -15.50782874
 H     68.96574877    -58.56408234    -14.77428210
 H     71.64481691    -59.45145753    -15.15037024
 H     70.83546452    -60.88470828    -15.82787128
 H     69.85028705    -61.29517387    -13.56694040
 H     70.68812677    -59.84793244    -12.95719986
 H     72.86474830    -60.81848546    -13.39086384
 H     72.09901826    -62.29973537    -14.01361810
 H     71.07113428    -62.92229446    -12.01472295
 H     72.35270564    -61.59476780    -11.18851420
 H     73.71821025    -61.36063533    -11.19595350
 H     73.87881442    -63.04199731    -11.75764279
 H     72.93692207    -64.30436111    -10.39321966
 H     72.45737726    -62.97146840     -9.31539757
 H     74.80130538    -62.42676511     -8.88198991
 H     75.31532555    -63.75236110     -9.95289850
 H     74.38045105    -65.30177990     -8.23794187
 H     73.57564199    -63.94461414     -7.41413963
 H     76.11212900    -63.33221992     -6.93326637
 H     76.54030078    -64.79689497     -7.84959743
 H     75.51211422    -66.30508116     -6.36911275
 H     74.99034486    -64.97546831     -5.30696725
 H     77.66512489    -64.78197570     -5.15112506
 H     77.71566128    -66.16534162     -6.27005824
 H     76.49368262    -67.39287625     -4.32679894
 H     76.68523230    -65.89998106     -3.37662036
 H     79.05750952    -65.95473594     -3.41951191
 H     79.04138552    -67.45837148     -4.37192298
 H     77.97654231    -68.73788337     -2.67909923
 H     77.91839100    -67.32501897     -1.59803528
 H     80.26423880    -66.99624128     -1.51553026
 H     80.50371918    -68.54229247     -2.36443633
 H     79.42905368    -69.84642115     -0.70569576
 H     79.10827981    -68.39855690      0.27871265
 H     81.67626974    -68.17792648      0.36155438
 H     81.76120329    -69.72806808     -0.50914302
 H     80.60258889    -70.78184086      1.44658850
 H     80.55548063    -69.19422100      2.25002527
 H     82.89647582    -68.95969732      2.40446417
 H     83.14808565    -70.53549902      1.61591605
 H     82.12844888    -71.83773432      3.24404267
 H     81.75979289    -70.40615699      4.23547889
 H     84.15654175    -69.95915318      4.51608748
 H     84.54268924    -71.38775726      3.52702371
 H     83.33281339    -72.58956744      5.53914497
 H     83.10460013    -70.97530507      6.25352747
 H     85.66984517    -70.91805899      6.34610585
 H     85.68372984    -72.54158152      5.61655223
 H     84.85716436    -73.78459614      7.19125447
 H     84.28065637    -72.40995793      8.16402114
 H     86.25985827    -71.52980133      8.81501930
 H     87.18410481    -72.77961276      7.94783629
 H     86.09009211    -74.44036818      9.52562498
 H     85.34005848    -74.10918098      9.66675487
 H     84.06732818    -73.90379720      9.61305670
 H     84.38183360    -72.43142686     10.56251897
 H     85.24983049    -73.48932533     12.44154048
 H     85.02743061    -75.09483527     11.70591640
 H     82.68916071    -74.96912558     11.55947024
 H     82.68501901    -73.34585625     12.28970732
 H     83.61715124    -74.26442277     14.36921224
 H     83.62565304    -75.89232480     13.64940021
 H     81.70640223    -76.48781290     13.20809034
 H     80.97114025    -74.98985426     13.82758722
 H     81.82944172    -75.54178358     16.08595503
 H     82.55489207    -77.03276578     15.43868342
 H     79.93111492    -77.46927562     15.03585334
 H     79.67240370    -75.86400382     15.76003400
 H     80.52140839    -76.39181142     17.87097145
 H     80.86605772    -78.06426665     17.36860008
 H     78.39523930    -78.35985918     17.03412521
 H     78.14560964    -76.67395617     17.54762570
 H     78.96745199    -76.99712426     19.73740081
 H     79.28281734    -78.71776871     19.40847220
 H     76.86070816    -79.07430850     19.06246551
 H     76.56384398    -77.35079874     19.39360360
 H     77.59769317    -78.01611625     21.72686386
 H     77.61465001    -79.68940646     21.12016873
 H     75.40181314    -80.02607825     20.86000922
 H     74.99943128    -78.34642071     21.29024872
 H     75.85993621    -78.77866816     23.58135107
 H     76.24795346    -80.45057687     23.10972565
 H     73.67538660    -80.62194635     22.78955484
 H     73.56426259    -78.91827948     23.29298041
 H     74.44744306    -79.53489764     25.51649420
 H     74.55350797    -81.23477359     24.99934952
 H     72.17269088    -81.41326950     24.69152045
 H     71.95718204    -79.72046515     25.19771809
 H     72.92262679    -80.67009026     27.44529230
 H     73.02251792    -82.25497136     26.64127718
 H     70.64380541    -82.39651661     26.33944634
 H     70.35851209    -80.92105221     26.79538720
 H     70.84637019    -79.71278262     27.84179353
 H     70.86113334    -80.45419363     28.82579094
 H     69.24980066    -78.78539082     27.67119800
 H     70.98065987    -78.92949714     26.82726918
 H     71.11655510    -78.01892849     28.43422468
 H     69.38225880    -78.15169663     28.81218714
 H     69.94969297    -77.01151408     26.14797397
 H     70.90287567    -76.75996406     26.50179684
 H     67.95613778    -76.74654850     26.80725930
 H     69.26268893    -76.42864309     25.23854579
 H     69.78673786    -75.34984017     24.79632222
 H     68.82889297    -74.52586614     26.05006327
 H     66.80430022    -74.85976417     25.68200549
 H     67.11141499    -75.82784225     24.22023533
 H     66.52191908    -73.51481345     23.61564030
 H     67.77762040    -72.88589131     25.02174266
 H     65.84370544    -72.84609030     25.56986611
 H     65.25953070    -73.49331016     24.01805653
 H     66.21537272    -71.38168349     22.97825518
 H     66.74455354    -70.86618453     24.59766715
 H     64.38951425    -70.70753771     25.29217223
 H     63.86288422    -71.35916914     23.72172517
 H     64.66187093    -69.51553829     22.46728591
 H     65.24843840    -68.71589511     23.94538471
 H     62.70758292    -68.71483387     24.53948252
 H     62.41558128    -69.52717726     22.98285157
 H     63.53014800    -66.84760373     22.79834845
 H     63.44502628    -66.99037401     24.57053287
 H     61.19913302    -67.17976709     24.83107588
 H     60.91399077    -67.05660048     23.07842345
 H     61.70725136    -64.95805262     22.71562512
 H     62.11568569    -64.73996358     24.43431218
 H     59.79798155    -64.77805587     25.06349926
 H     59.30353602    -65.28683503     23.43103669
 H     60.24407430    -62.95762136     22.73786724
 H     60.43598491    -62.63058445     24.47697156
 H     58.36901378    -62.77246124     25.23332553
 H     57.70818134    -63.12627721     23.61889640
 H     58.33936752    -61.06823639     22.66413088
 H     59.05497873    -60.52610059     24.20109413
 H     57.39928775    -60.44588146     25.59056882
 H     56.21773829    -60.96994532     24.36681860
 H     57.44320511    -58.81089186     23.14241626
 H     57.73154493    -58.40238491     24.09672104
 H     55.41115921    -58.82433038     22.41487485
 H     57.34367801    -59.32349651     21.95919781
 H     56.14000677    -56.82582110     22.39699565
 H     54.67789819    -57.79951986     22.68407726
 H     55.00382061    -58.45359926     20.19222571
 H     56.44425033    -57.40811209     20.17259252
 H     54.84819492    -55.48975693     20.63671668
 H     53.50180558    -56.65400708     20.63181969
 H     53.87883422    -56.46114058     18.13429459
 H     55.62074985    -56.19663522     18.38734302
 H     54.46597131    -54.87827369     18.69827076
1502
Final Conformation Chain 9 (Simulation Frame 10)
 C      0.00000000      0.00000000      0.00000000
 C      1.54000000      0.00000000      0.00000000
 C      2.16637443      0.60608581     -1.26961217
 C      3.70578362      0.64469094     -1.25147438
 C      4.33878580      1.02492510     -2.60289224
 C      4.14847165     -0.03478873     -3.70397677
 C      4.62513395      0.41674940     -5.09699735
 C      6.14933822      0.60787429     -5.20595894
 C      6.64690627      0.86948096     -6.63969113
 C      8.15610367      1.16054786     -6.73562478
 C      8.57354633      1.88366238     -8.02962904
 C     10.07937535      2.19462885     -8.11552906
 C     10.56016342      2.57846567     -9.52730529
 C     11.92077305      3.29941699     -9.55119298
 C     12.23010308      4.00951156    -10.88223792
 C     13.60620923      4.69986777    -10.91884636
 C     14.09731324      5.04297937    -12.33753987
 C     15.41275286      5.84313830    -12.36859319
 C     15.77551643      6.39835677    -13.75846190
 C     16.99189464      7.34282672    -13.75772209
 C     17.22369190      8.06667651    -15.09709191
 C     18.41501675      9.04246715    -15.08376096
 C     18.59904129      9.82429458    -16.39771714
 C     19.94637899     10.56254321    -16.50387776
 C     20.13822394     11.32895643    -17.82577272
 C     21.58398888     11.79781448    -18.07383700
 C     21.69689758     13.00396577    -19.02465279
 C     23.12748142     13.55525247    -19.16995548
 C     23.19520797     14.96976949    -19.77506267
 C     24.62333454     15.44216583    -20.10505688
 C     24.67938790     16.63772702    -21.07412420
 C     26.07459743     17.27745392    -21.19958277
 C     26.10148783     18.55939114    -22.05252700
 C     27.49702987     19.19808878    -22.17952201
 C     27.49710038     20.56855057    -22.88197093
 C     28.88094970     21.24157152    -22.94200312
 C     28.82702728     22.76853302    -23.13456727
 C     30.20681125     23.45205485    -23.11019305
 C     30.14434914     24.99048187    -23.14086526
 C     31.50025090     25.67747894    -22.89354879
 C     31.39377266     27.02826552    -22.16167585
 C     32.71994223     27.80779045    -22.08945976
 C     32.67691369     29.03196819    -21.15611234
 C     33.95081133     29.89629954    -21.19753809
 C     33.97619314     31.02510983    -20.15028306
 C     35.33145573     31.74832973    -20.04158027
 C     35.27523648     33.06860596    -19.25081476
 C     34.70065325     34.25321620    -20.04965935
 C     34.18287590     35.40805203    -19.17224223
 C     33.44301591     36.50757344    -19.95662725
 C     32.62601426     37.46679002    -19.07118280
 C     31.74945884     38.45573296    -19.86190553
 C     31.22972132     39.63950263    -19.02514854
 C     30.24330945     40.55256310    -19.77675495
 C     29.91993597     41.86585937    -19.04035661
 C     28.74658994     42.65412782    -19.65149648
 C     28.56755083     44.06652063    -19.06439209
 C     27.37134834     44.84070861    -19.64862882
 C     26.82442924     45.94163791    -18.72103290
 C     25.66889581     46.75716016    -19.33034888
 C     24.80409060     47.49227060    -18.28952008
 C     23.57778475     48.20726744    -18.88664105
 C     22.63764217     48.82316733    -17.83383563
 C     21.47863384     49.64220702    -18.43172665
 C     20.33740663     49.93001513    -17.43856658
 C     19.13467294     50.66266600    -18.06166719
 C     17.92072354     50.78553260    -17.12207651
 C     16.92634195     51.89039995    -17.52465990
 C     15.86088430     52.19428296    -16.45505478
 C     14.77191853     53.17990754    -16.91797781
 C     13.55840156     53.26150781    -15.97335198
 C     12.46060156     54.23243714    -16.44635451
 C     11.20366029     54.23820814    -15.55659873
 C     10.19463107     55.34816676    -15.90509820
 C      8.90585261     55.31004482    -15.06295996
 C      7.86037436     56.36508838    -15.46972563
 C      6.62224185     56.40520120    -14.55483829
 C      5.38196481     57.04397172    -15.20697714
 C      4.09611541     56.91205067    -14.36984624
 C      2.87067316     57.60860321    -14.99009286
 C      1.60004218     57.52962686    -14.12357128
 C      0.44449743     58.41612339    -14.62401131
 C     -0.59548874     58.75975163    -13.54144565
 C     -1.35235469     60.07664499    -13.79550436
 C     -2.52970430     60.31823009    -12.83265207
 C     -3.24593190     61.66497953    -13.04451038
 C     -4.70424290     61.68347600    -12.54995310
 C     -5.41258787     63.03778952    -12.73885063
 C     -6.76909790     63.14120602    -12.01719589
 C     -7.42667510     64.53027052    -12.11564412
 C     -8.22851251     64.93380643    -10.86431861
 C     -8.85950175     66.33598977    -10.94996019
 C     -9.02292982     67.03364275     -9.58681251
 C     -9.77540492     68.37549761     -9.65614321
 C     -9.66959944     69.22001069     -8.37270920
 C     -9.86545069     70.73065252     -8.59899121
 C     -9.54528612     71.59545787     -7.36561927
 C     -9.76708340     73.10374420     -7.58351447
 C     -9.48644638     73.96452544     -6.33776229
 C     -9.70070511     75.47357785     -6.55788507
 C     -8.78840448     76.36778390     -5.69782514
 C     -8.55472067     77.77236006     -6.28447469
 C     -7.46332558     78.58074598     -5.55854841
 C     -7.44068633     80.07551675     -5.92834269
 C     -6.63269311     80.95020048     -4.95177967
 C     -6.91129512     82.45893390     -5.08483757
 C     -6.12565869     83.33126526     -4.08813632
 C     -6.43541335     84.83612522     -4.19324843
 C     -5.70784687     85.70000843     -3.14637078
 C     -6.01900455     87.20465869     -3.25033476
 C     -5.05334191     88.10056768     -2.45256114
 C     -5.38609692     89.60233697     -2.52714735
 C     -4.67516855     90.45518247     -1.45998504
 C     -5.12822274     91.92673250     -1.43027927
 C     -4.41761088     92.77947463     -0.36282358
 C     -5.08410816     94.14367725     -0.10527244
 C     -4.23994839     95.10038115      0.75711491
 C     -4.83132785     96.51669355      0.88332708
 C     -4.10002122     97.41249600      1.90034654
 C     -4.61140155     98.86463633      1.93747620
 C     -3.96999351     99.72657447      3.04077053
 C     -3.87349784    101.22297061      2.68993271
 C     -3.11865636    102.06417014      3.73597175
 C     -2.85889270    103.51849266      3.30115127
 C     -1.78224144    104.23853076      4.13419822
 C     -1.58679314    105.71941906      3.75953862
 C     -0.17719536    106.26114586      4.06147602
 C      0.12377463    107.62280643      3.40810205
 C      1.52139107    108.17991612      3.73657899
 C      1.85934404    109.49353257      3.00733309
 C      3.22656315    110.08926019      3.39128690
 C      3.44267006    111.53147390      2.89639559
 C      4.84583711    112.09209949      3.19375256
 C      5.20670942    113.34454096      2.37353215
 C      6.72083632    113.56101559      2.19420431
 C      7.09137217    114.93203811      1.59872096
 C      8.59982485    115.24074592      1.62821722
 C      8.99920144    116.49092778      0.82252272
 C     10.48802060    116.53473465      0.43124471
 C     10.97130361    115.28913943     -0.33460781
 C     12.30236844    115.49092305     -1.08237100
 C     12.69299780    114.31341700     -1.99477892
 C     14.20074632    114.22818445     -2.29649039
 C     14.79528812    115.52003065     -2.88746707
 C     16.23357465    115.36341218     -3.41510569
 C     16.82969121    116.65634262     -4.00211160
 C     18.36344442    116.63323229     -4.13873881
 C     18.96983746    117.96556420     -4.61704748
 C     20.50708497    117.95701563     -4.70868278
 C     21.11157126    119.27868463     -5.21798366
 C     22.61976146    119.42471613     -4.94296158
 C     23.20370708    120.78696181     -5.36116515
 C     24.72630041    120.90356693     -5.16188443
 C     25.37101708    122.07174212     -5.93084940
 C     26.91027102    122.07914532     -5.88349446
 C     27.53994308    123.44956197     -6.19505714
 C     29.06900297    123.49143921     -6.01666953
 C     29.69118338    124.87760931     -6.26771534
 C     31.09309347    125.05511687     -5.65555593
 C     31.62299141    126.49996652     -5.71228035
 C     33.00690765    126.68554195     -5.06271310
 C     33.56194108    128.11807152     -5.16946947
 C     35.00902688    128.26839251     -4.66454741
 C     35.62686822    129.65248174     -4.93688742
 C     37.16492185    129.64764469     -5.01413799
 C     37.72023970    129.71573706     -6.44891516
 C     39.24034483    129.95149884     -6.52169407
 C     39.87692740    129.52606397     -7.85787063
 C     41.32014826    130.02718048     -8.05176703
 C     41.93435704    129.65597596     -9.41432153
 C     43.09545868    130.57001440     -9.84788437
 C     43.65255362    130.25342729    -11.24824783
 C     44.81605809    131.16511184    -11.68032261
 C     45.25158731    130.97321880    -13.14493565
 C     46.49881635    131.78599851    -13.53915494
 C     46.84000782    131.72153825    -15.03949932
 C     46.89797326    130.29140898    -15.60780406
 C     47.33141859    130.22104053    -17.08387093
 C     47.21179571    128.81719889    -17.70557748
 C     47.13014634    128.81807635    -19.24341122
 C     46.59746075    127.50347508    -19.84313579
 C     47.06966927    127.23582941    -21.28431063
 C     46.66814294    125.85216636    -21.82823447
 C     47.71754339    125.21632623    -22.75886116
 C     47.23850970    123.92967384    -23.45646588
 C     48.33453722    123.20967012    -24.26388047
 C     47.83972331    121.96036850    -25.01621327
 C     48.84084247    121.41531343    -26.05172059
 C     48.51341957    119.99646298    -26.55297665
 C     49.67624470    119.30975982    -27.29316344
 C     49.47759576    117.79744671    -27.50540773
 C     50.64278126    117.10978576    -28.24097905
 C     50.56560485    115.57172666    -28.23673511
 C     51.53729992    114.89309110    -29.22002675
 C     51.69462196    113.37713241    -28.99930292
 C     52.60120788    112.68431785    -30.03357076
 C     53.01473178    111.25272885    -29.64478944
 C     53.59299964    110.42933973    -30.81065249
 C     54.08019134    109.02583506    -30.40516648
 C     54.26559916    108.06042563    -31.59058141
 C     54.69219108    106.63883657    -31.17984562
 C     54.91067900    105.68279011    -32.36721170
 C     55.44525664    104.29583525    -31.96449224
 C     55.65824830    103.33783717    -33.15128381
 C     56.10357597    101.92183540    -32.74113476
 C     55.83307397    100.84610578    -33.80942052
 C     56.23979994     99.42339152    -33.38273782
 C     55.55592195     98.93714572    -32.09142999
 C     55.46388553     97.40468465    -31.97021785
 C     55.38560166     96.89469879    -30.51922300
 C     55.49746772     95.36453827    -30.38620137
 C     55.66491954     94.87239674    -28.93659570
 C     56.24042081     93.44865651    -28.82100137
 C     56.69042251     93.06855785    -27.39810873
 C     56.88648467     91.55584897    -27.18627988
 C     57.35363136     91.17725354    -25.76852128
 C     57.50524615     89.66143773    -25.54287684
 C     57.90916957     89.27924859    -24.10677889
 C     58.01518138     87.76143902    -23.86883856
 C     56.65551148     87.05550722    -23.71212846
 C     56.75731748     85.60655898    -23.20047961
 C     55.43702448     84.81831318    -23.28471120
 C     55.46391683     83.47004879    -22.54103121
 C     54.06903445     82.92342955    -22.18450550
 C     54.08902937     81.51770036    -21.55591529
 C     52.71437592     80.82401520    -21.52891960
 C     52.71041014     79.46984517    -20.79556579
 C     51.30194914     78.92441012    -20.49500259
 C     51.27345189     77.42696547    -20.13660696
 C     49.87885301     76.78304554    -20.24642994
 C     49.85810192     75.27601142    -19.93017441
 C     48.45412937     74.64506258    -19.97880206
 C     48.26258038     73.46741566    -19.00512002
 C     47.24010551     72.41961075    -19.48287520
 C     47.22284785     71.13125625    -18.63940329
 C     46.23339995     70.06489120    -19.14483226
 C     46.61085534     68.62425741    -18.75278417
 C     45.62757203     67.55685505    -19.26796002
 C     46.18848106     66.12291126    -19.23991936
 C     45.12790947     65.03080282    -19.47248559
 C     45.48758421     63.66672033    -18.85481818
 C     44.48089543     62.54731863    -19.17903655
 C     44.83997496     61.18350155    -18.56043744
 C     43.74308433     60.11456022    -18.72104685
 C     43.96168957     58.85813152    -17.85779794
 C     43.01800226     57.69049692    -18.20084850
 C     43.22002845     56.44266340    -17.32124806
 C     42.23986838     55.29502851    -17.62754923
 C     42.45514629     54.03962203    -16.76198007
 C     41.64769078     52.81302943    -17.22575393
 C     42.04024206     51.50152204    -16.52045125
 C     40.89739005     50.47340062    -16.42849669
 C     41.33979426     49.08892114    -15.91948286
 C     40.31360742     47.96977746    -16.17650038
 C     40.84152878     46.55470540    -15.87571788
 C     39.79921971     45.44013721    -16.08291231
 C     40.21383971     44.07790299    -15.49639020
 C     39.02804765     43.19083907    -15.07376179
 C     39.35627788     41.68695309    -15.02694421
 C     38.11593527     40.77432473    -15.04305858
 C     38.42791638     39.28876595    -14.78347641
 C     37.20924057     38.35834044    -14.92748216
 C     37.51398841     36.87726787    -14.63567267
 C     36.31300517     35.93699854    -14.84811759
 C     36.66889902     34.44039013    -14.77668343
 C     35.51242308     33.50212477    -15.16888429
 C     35.93996031     32.03915384    -15.38917499
 C     34.76822103     31.07917128    -15.66677277
 C     35.18951200     29.60670094    -15.82784737
 C     34.08092815     28.69557097    -16.38685008
 C     34.53906198     27.25265114    -16.66915443
 C     33.48202640     26.38771371    -17.38060296
 C     33.99839678     25.00637572    -17.82429993
 C     33.01622441     24.22854054    -18.71979413
 C     31.73200048     23.77934128    -17.99827563
 C     30.54754704     23.50157591    -18.94247711
 C     29.30476452     22.92832341    -18.23645077
 C     28.15829442     22.55241629    -19.19347750
 C     26.82647447     22.24354906    -18.48463573
 C     26.74719540     20.82479634    -17.89095606
 C     25.69228752     20.66875819    -16.77991085
 C     25.66244491     19.26992836    -16.13649454
 C     24.26974433     18.83786762    -15.64120814
 C     24.13433052     17.32367289    -15.39528655
 C     22.71261179     16.87679848    -15.00718976
 C     22.54451981     15.35008766    -14.89539004
 C     21.23118893     14.91225913    -14.22080263
 C     21.06778380     13.38574508    -14.09975056
 C     19.77495796     12.94881929    -13.38609994
 C     19.93533879     11.68880864    -12.51532376
 C     18.64415921     11.25577984    -11.79633742
 C     18.80544190      9.99789248    -10.92266284
 C     17.60624875      9.72000489     -9.99729034
 C     17.58926362      8.29915727     -9.40357025
 C     16.54159702      8.09678422     -8.29314698
 C     16.26941639      6.62030175     -7.95033912
 C     15.15586281      6.41457917     -6.90665496
 C     14.73128783      4.94545178     -6.72499372
 C     13.64697288      4.73491618     -5.65189734
 C     13.41086784      3.25898013     -5.28113165
 C     12.39897378      3.05434792     -4.13841731
 C     11.72569546      1.66932218     -4.13849659
 C     10.48533601      1.57576329     -3.23055651
 C      9.97352928      0.13933130     -3.01534261
 C      9.11556671     -0.03672737     -1.74865261
 C      8.41507115     -1.40475993     -1.65173573
 C      7.33522987     -1.47933880     -0.55629938
 C      6.55786394     -2.80852519     -0.53251379
 C      5.40251615     -2.84033524      0.48520896
 C      4.61923270     -4.16614523      0.50238234
 C      3.57033099     -4.25947051      1.62607962
 C      2.64041967     -5.48197549      1.51496466
 C      1.47256516     -5.47392212      2.51878286
 C      0.75397550     -6.82920292      2.65458736
 C      0.02952842     -7.02204184      3.99979722
 C     -0.91638976     -8.23683206      4.03331625
 C     -1.79695623     -8.31042209      5.29458038
 C     -2.64174916     -9.59412959      5.39468012
 C     -3.65338188     -9.58927620      6.55578980
 C     -4.24695346    -10.97392609      6.87519152
 C     -5.02009261    -11.03221654      8.20577714
 C     -5.67488312    -12.39668977      8.49049139
 C     -6.25720767    -12.52797551      9.91009069
 C     -6.83591881    -13.92027794     10.22343929
 C     -7.68145083    -13.97221299     11.50951019
 C     -8.33030165    -15.34287349     11.77761917
 C     -9.54755792    -15.28621325     12.71925434
 C    -10.53849729    -16.45018889     12.53270715
 C    -11.85940916    -16.27822371     13.30550713
 C    -12.56458959    -17.60488014     13.64359479
 C    -13.88256987    -17.43318649     14.42144393
 C    -13.69254888    -17.01297766     15.89076914
 C    -15.00173592    -16.95328816     16.69951289
 C    -15.03014937    -15.84093439     17.76415451
 C    -16.41558914    -15.19816648     17.96165402
 C    -16.63808671    -14.60880610     19.36691171
 C    -17.89980608    -13.73397994     19.48667569
 C    -18.20880570    -13.27368862     20.92342589
 C    -19.59637111    -12.62651941     21.08905877
 C    -19.79585753    -11.90865159     22.43682394
 C    -20.82661949    -10.76539608     22.39103500
 C    -21.26565301    -10.26191027     23.77860540
 C    -22.32618069     -9.14618785     23.73338895
 C    -22.93645942     -8.80609037     25.10579326
 C    -24.04795115     -7.74159944     25.05060995
 C    -24.77671066     -7.52691672     26.39016991
 C    -26.05226843     -6.67120889     26.27919024
 C    -26.73699260     -6.38948847     27.62951851
 C    -27.97175709     -5.47492017     27.52694416
 C    -28.46940573     -4.94002895     28.88261271
 C    -29.72693305     -4.05657413     28.78395853
 C    -29.94172121     -3.13478293     29.99877005
 C    -31.08999226     -2.12381119     29.82267421
 C    -31.28846075     -1.18524510     31.02737498
 C    -32.39761283     -0.13571851     30.82768622
 C    -32.63864842      0.76223327     32.05536063
 C    -33.43444373      2.04416591     31.74720722
 C    -33.85142494      2.83864798     32.99881615
 C    -34.54916244      4.17591536     32.68820654
 C    -34.97401648      4.96628017     33.93977457
 C    -35.50419216      6.38021826     33.63762753
 C    -35.85196342      7.20046074     34.89375548
 C    -36.64226239      8.48942793     34.60119587
 C    -36.77448813      9.43157912     35.81217378
 C    -37.85462036     10.51669987     35.64656178
 C    -37.90910309     11.52842041     36.80632606
 C    -38.85432944     12.71812350     36.55581917
 C    -39.18018199     13.53607693     37.81929545
 C    -40.49224010     14.33694066     37.72591017
 C    -40.91840513     14.99763100     39.05009733
 C    -42.08614254     15.99135781     38.90693182
 C    -42.10336304     17.09634552     39.97945483
 C    -43.13732627     18.20721461     39.71774909
 C    -42.91834036     19.47779195     40.55993576
 C    -43.38839483     20.77340445     39.87288623
 C    -43.08052953     22.05336538     40.67196005
 C    -43.40369917     23.35608896     39.91692850
 C    -42.86311964     24.62628647     40.59954996
 C    -43.08060134     25.91555418     39.78586054
 C    -42.23924177     27.11114602     40.26987938
 C    -41.99796997     28.18445417     39.19219783
 C    -41.43455989     29.50819943     39.74162259
 C    -41.16491913     30.57097286     38.66023159
 C    -40.77094866     31.94984014     39.22158023
 C    -40.41263772     32.98694396     38.14101144
 C    -40.49895383     34.44751404     38.62151595
 C    -40.14681280     35.48484750     37.53914079
 C    -39.58161934     36.80449014     38.09654517
 C    -39.19919877     37.82948132     37.01268744
 C    -38.96319452     39.25259840     37.55179759
 C    -38.83108238     40.32441451     36.45391025
 C    -38.48109798     41.72648198     36.98618624
 C    -38.33691889     42.79567887     35.88726386
 C    -37.85545028     44.16413718     36.40409058
 C    -37.94509190     45.29422794     35.36175701
 C    -37.71447675     46.70175595     35.94251646
 C    -37.28326790     47.74758434     34.89757535
 C    -37.29009049     49.19584381     35.42111900
 C    -36.59649534     50.20338801     34.48550132
 C    -36.88913366     51.67687337     34.82432827
 C    -35.87027447     52.66954646     34.23430616
 C    -36.08175258     54.12663903     34.68570204
 C    -35.27273919     55.15691358     33.87599117
 C    -35.44962482     56.60942444     34.35611997
 C    -34.71382573     57.64921405     33.49065057
 C    -34.73529788     59.07540032     34.07128097
 C    -33.59346697     59.97555854     33.56379960
 C    -34.00808110     61.43969953     33.32718538
 C    -32.85282224     62.35282918     32.87644021
 C    -33.31095156     63.62484308     32.13908129
 C    -32.15436863     64.49076367     31.60607337
 C    -32.61284613     65.74010240     30.83112103
 C    -31.45748743     66.57214613     30.24422282
 C    -31.89320311     67.93533871     29.67548928
 C    -30.72507544     68.81424412     29.19113093
 C    -31.16552178     70.07029146     28.41656519
 C    -30.06475904     71.13820904     28.27701795
 C    -30.55084668     72.46152480     27.65721620
 C    -29.49486175     73.58242633     27.66591060
 C    -29.96085257     74.88721630     26.99361925
 C    -28.81653930     75.72832730     26.39806956
 C    -29.29155794     76.96107550     25.60668523
 C    -28.14746399     77.79862510     25.00571957
 C    -28.61629035     79.08535652     24.30135879
 C    -27.48783135     79.85960103     23.59515364
 C    -27.07250307     79.26215448     22.23789168
 C    -25.72388293     79.78532416     21.70957623
 C    -25.43370999     79.40333789     20.24619448
 C    -24.12553233     79.99707120     19.69144051
 C    -23.79027357     79.54399304     18.25828952
 C    -22.28698215     79.57882240     17.92587136
 C    -21.97023299     79.36484218     16.43406626
 C    -20.47315175     79.16383987     16.13415653
 C    -20.16129684     78.90408017     14.64860228
 C    -18.66145671     78.73277643     14.34407870
 C    -18.34076480     78.57183009     12.84646294
 C    -16.84979640     78.74659351     12.50284833
 C    -16.54656697     78.71137566     10.99340750
 C    -15.05141280     78.84993446     10.65147849
 C    -14.74936739     78.82634827      9.14157377
 C    -13.26716597     78.58123907      8.80304692
 C    -13.01041458     78.24279572      7.32279868
 C    -11.61362847     78.65217883      6.81981356
 C    -11.33131387     78.25149741      5.35989820
 C    -10.20411762     79.06281215      4.69446825
 C     -9.86597311     78.60762122      3.26266536
 C     -8.54978134     79.18983840      2.71470336
 C     -8.04125376     78.49523836      1.43778109
 C     -6.84938221     79.20620642      0.77027333
 C     -6.31663923     78.49108476     -0.48526876
 C     -4.99170510     79.06653480     -1.01912904
 C     -4.51238146     78.42078769     -2.33246811
 C     -3.03697440     78.70641275     -2.66890880
 C     -2.52296432     77.96110054     -3.91466293
 C     -2.50647901     76.42845631     -3.76523100
 C     -1.80919343     75.69349236     -4.92506754
 C     -2.30057047     74.24947643     -5.13712078
 C     -1.62969323     73.52689483     -6.32008298
 C     -2.47032391     72.38027334     -6.91185930
 C     -1.94606892     71.85008577     -8.25932279
 C     -2.66027222     70.57797934     -8.75253560
 C     -2.08000077     69.99945857    -10.05645230
 C     -2.97808800     68.94361674    -10.72744959
 C     -2.41335303     68.38923980    -12.04856299
 C     -3.43374906     67.58876307    -12.87900200
 C     -2.90454218     67.13301400    -14.25152991
 C     -3.91247807     66.30195610    -15.06701014
 C     -3.27360070     65.47981282    -16.20169782
 C     -4.17607436     64.35718837    -16.74654242
 C     -3.40338205     63.14719533    -17.30373489
 C     -4.29698348     61.94694271    -17.66769935
 C     -3.52790232     60.62466739    -17.84575032
 C     -4.42433226     59.41957591    -18.18599715
 C     -3.65775734     58.20702700    -18.74607574
 C     -2.33125273     57.91491052    -18.02036679
 C     -1.75876610     56.51324904    -18.30179909
 C     -0.42424677     56.22691528    -17.58858725
 C      0.15255690     54.82841116    -17.87682975
 C      1.37034855     54.46192982    -17.00833973
 C      2.00415378     53.10310972    -17.35976380
 C      3.15461815     52.68783603    -16.42403975
 C      3.79292177     51.33219684    -16.77958287
 C      4.88264383     50.87478052    -15.79222470
 C      4.33808039     50.41635709    -14.42661179
 C      5.41347758     50.30013364    -13.33043070
 C      4.86130316     49.89178670    -11.95204171
 C      5.94818430     49.65409657    -10.88724465
 C      5.39483825     49.41042482     -9.47089998
 C      6.44776446     48.91027235     -8.46452336
 C      5.92962609     48.80050805     -7.01846512
 C      7.03860785     48.59705245     -5.96948215
 C      6.51354758     48.33191236     -4.54624203
 C      7.61279361     47.96918528     -3.53052197
 C      7.22604025     48.24162547     -2.06498515
 C      7.77875882     47.20583401     -1.06837176
 C      7.21925015     47.34953861      0.35917825
 C      7.49521219     46.13528403      1.26528573
 C      6.76507721     46.18604476      2.62024929
 C      6.94865052     44.92061027      3.47848957
 C      8.01056872     45.06264718      4.58472429
 H     -0.36333333      0.00000000      1.02766186
 H     -0.36333333     -0.88998127     -0.51383093
 H     -0.36333333      0.88998127     -0.51383093
 H      1.88274777     -0.48064872     -0.91629732
 H      1.88274777      1.01815549     -0.18434577
 H      1.82362666      1.63661778     -1.36249817
 H      1.82362666      0.03030151     -2.12931934
 H      4.07295926     -0.37571704     -1.14170370
 H      4.02366024      1.23931676     -0.39504307
 H      4.86439306      0.15314660     -2.99255780
 H      5.00515557      0.21822300     -2.90831498
 H      3.07969850     -0.20179568     -3.83788959
 H      4.62233965     -0.95966998     -3.37512453
 H      5.23459031      1.31244537     -4.97703201
 H      4.06472402      1.30819598     -5.37871302
 H      6.63148082     -0.34067276     -4.96953343
 H      6.45316896      1.36103262     -4.47895179
 H      6.16090902      1.77132930     -7.01194943
 H      6.36261581      0.02051529     -7.26141149
 H      8.69673179      0.30236837     -6.33643910
 H      8.37450358      2.04083142     -6.13105690
 H      8.03775249      2.83151060     -8.08070456
 H      8.29019386      1.25998056     -8.87746887
 H     10.50803449      1.59455110     -8.91818591
 H     10.32476092      2.91844057     -7.33836595
 H     10.00882350      3.46211251     -9.84869689
 H     10.34241256      1.74949364    -10.20072191
 H     12.66517364      2.64154615     -9.10266905
 H     11.83650477      4.21022567     -8.95838070
 H     11.36367567      4.60975637    -11.15992426
 H     12.40466021      3.24940757    -11.64373101
 H     14.37319693      3.94470572    -10.74691572
 H     13.63962631      5.44022008    -10.11955807
 H     13.36814381      5.70727950    -12.80134724
 H     14.16246337      4.11814076    -12.91071436
 H     16.18393595      5.25426482    -11.87200013
 H     15.26007082      6.77493552    -11.82403636
 H     14.96836631      7.05286386    -14.08744390
 H     15.86787133      5.56007025    -14.44900247
 H     17.77232740      6.89609406    -13.14172318
 H     16.68645580      8.29472503    -13.32332974
 H     16.33447072      8.65321566    -15.32808438
 H     17.37417953      7.31460551    -15.87158702
 H     19.31581523      8.48026312    -14.83761319
 H     18.23415422      9.79370303    -14.31497400
 H     17.69019001     10.39555066    -16.58680931
 H     18.75211263      9.10750743    -17.20449179
 H     20.74717033      9.82699831    -16.42767458
 H     20.01842442     11.26539084    -15.67386892
 H     19.33728675     12.06277143    -17.91585689
 H     20.07219205     10.61627338    -18.64785706
 H     22.23089480     10.92067336    -18.08920534
 H     21.87790223     12.45169922    -17.25277081
 H     21.13665679     13.83373808    -18.59371409
 H     21.25709304     12.72738641    -19.98286771
 H     23.76513620     12.75756659    -19.55099829
 H     23.15135935     14.56119464    -18.75089680
 H     22.63132818     15.64516338    -19.13164781
 H     22.73653255     14.94205947    -20.76346998
 H     25.05936706     14.74292518    -20.81852597
 H     25.20801355     15.43453100    -19.18516983
 H     24.34300351     17.52702319    -20.54111587
 H     24.00506411     16.43618821    -21.90645198
 H     26.77002755     16.51642488    -21.55357678
 H     26.38393953     17.62143911    -20.21262701
 H     25.36222253     19.25309104    -21.65206820
 H     25.83528081     18.29568344    -23.07609531
 H     28.16738845     18.46922001    -22.63501043
 H     27.85357403     19.44433329    -21.17935207
 H     26.86078294     21.24575549    -22.31223977
 H     27.08639207     20.44039009    -23.88346660
 H     29.55931800     20.58265535    -23.48398645
 H     29.24167598     21.37509803    -21.92212704
 H     28.27206336     23.19968416    -22.30136637
 H     28.30322748     22.97809560    -24.06720723
 H     30.87759561     22.89348536    -23.76299353
 H     30.58594202     23.42252314    -22.08868058
 H     29.57927326     25.32795985    -22.27201667
 H     29.62730419     25.29444139    -24.05101532
 H     32.19730059     25.34732590    -23.66375701
 H     31.86740315     25.36880197    -21.91476498
 H     30.91446693     26.85883296    -21.19748778
 H     30.77585104     27.69574099    -22.76229999
 H     33.06311740     27.99533757    -23.10688636
 H     33.45168626     27.19162431    -21.56697535
 H     32.34447311     28.70124578    -20.17213777
 H     31.95997458     29.74640192    -21.56068960
 H     34.09264114     30.24898343    -22.21910472
 H     34.79707452     29.27362203    -20.90734620
 H     33.89884760     30.57587770    -19.16017793
 H     33.11677414     31.67278115    -20.32354828
 H     35.56964386     32.17806093    -21.01456409
 H     36.09108045     31.01428306    -19.77279453
 H     34.92168710     32.84985122    -18.24321901
 H     34.25759269     33.45574508    -19.30204382
 H     33.66597009     34.02463131    -20.30515832
 H     35.28420597     34.36565267    -20.96340125
 H     35.01010894     35.77388482    -18.56400554
 H     33.39826445     35.01987944    -18.52277558
 H     32.59130664     36.05332498    -20.46293710
 H     34.12809602     36.92031935    -20.69717168
 H     33.32127198     38.08213989    -18.50016507
 H     32.02185861     36.87094544    -18.38702990
 H     31.08571396     37.88315925    -20.50974972
 H     32.40217160     39.08055094    -20.47155177
 H     32.07093887     40.07166306    -18.48321644
 H     30.49559915     39.26049875    -18.31414876
 H     29.38891328     39.95148745    -20.08790644
 H     30.74755870     40.95052496    -20.65735649
 H     30.85034781     42.41423554    -18.89298841
 H     29.48700349     41.61778111    -18.07127115
 H     27.85957712     42.02104754    -19.62874523
 H     28.99586624     42.89327843    -20.68530899
 H     29.48524635     44.62858506    -19.23765058
 H     28.39588627     43.97273824    -17.99208796
 H     26.46408272     44.26982817    -19.45098110
 H     27.51543374     44.93274239    -20.72513668
 H     27.62721867     46.65127033    -18.52090555
 H     26.50879875     45.47716030    -17.78682845
 H     24.85427168     46.07289639    -19.56756320
 H     26.02687510     47.22728230    -20.24628337
 H     25.44582985     48.17261045    -17.72969115
 H     24.38048547     46.75159756    -17.61124127
 H     23.05670727     47.50677433    -19.53924175
 H     23.92806822     49.05741180    -19.47200936
 H     23.22848969     49.46497775    -17.18032312
 H     21.61005668     48.59389218    -18.11597206
 H     20.89104882     48.98627665    -19.07406550
 H     21.90200335     50.45055368    -19.02790945
 H     20.74890723     50.48385118    -16.59474617
 H     19.93924724     48.97759470    -17.08861739
 H     18.73903236     50.04676433    -18.86927705
 H     19.48416505     51.61233429    -18.46674176
 H     18.23074217     51.33170358    -16.23118611
 H     17.60228973     49.78183896    -16.84047574
 H     15.91501613     51.50357523    -17.39941328
 H     17.45547210     52.84334997    -17.52740585
 H     16.36278511     52.60129611    -15.57725304
 H     15.36534830     51.26036027    -16.18985206
 H     14.27225698     52.75459537    -17.78835008
 H     15.25394188     54.11673211    -17.19746522
 H     13.90964833     53.57567882    -14.99048765
 H     13.11370372     52.26904511    -15.90012890
 H     12.11140501     53.90430069    -17.42537863
 H     12.89662084     55.22783939    -16.53098046
 H     11.49994826     54.52159060    -14.54664436
 H     10.78796824     53.23066499    -15.54407214
 H      9.88112636     55.21367069    -16.94034001
 H     10.69414479     56.31113755    -15.79892239
 H      9.17941883     55.41289516    -14.01287266
 H      8.42238985     54.34578679    -15.21970882
 H      7.59304363     56.19818126    -16.51317007
 H      8.31025382     57.35220028    -15.36333691
 H      6.95317359     56.62423863    -13.53965024
 H      6.14676114     55.42465871    -14.57838680
 H      5.13035356     56.47076337    -16.09929097
 H      5.63196701     58.06635445    -15.49040697
 H      4.21697973     57.50125685    -13.46082045
 H      3.96406809     55.86234887    -14.10756846
 H      2.52526582     57.00886795    -15.83218038
 H      3.17895106     58.59154927    -15.34629755
 H      1.81090526     57.99861962    -13.16248723
 H      1.35527387     56.47875284    -13.96912946
 H      0.18835921     58.10580137    -15.63702338
 H      0.78698513     59.45084212    -14.63663392
 H     -0.39996069     59.77190682    -13.18731199
 H     -1.01699843     57.82843672    -13.16318368
 H     -1.86762119     59.99665585    -14.75268886
 H     -0.62466238     60.88687736    -13.84119244
 H     -2.14137866     60.33705364    -11.81434520
 H     -3.23351987     59.49260007    -12.93790758
 H     -3.68083578     61.66839120    -14.04398373
 H     -2.50665879     62.46222660    -12.96722916
 H     -4.70742887     61.45759756    -11.48361883
 H     -5.25784395     60.91276292    -13.08626199
 H     -5.40780694     63.28186156    -13.80116225
 H     -4.85466742     63.79598434    -12.18933686
 H     -6.60275870     62.98717200    -10.95103230
 H     -7.42175695     62.35668890    -12.40016983
 H     -7.58042791     64.76279188    -13.16939641
 H     -6.74851125     65.26237404    -11.67721714
 H     -7.55230651     64.93451840    -10.00942392
 H     -9.01295731     64.19364992    -10.70647471
 H     -9.53035370     66.35808432    -11.80877885
 H     -8.06046199     67.06318285    -11.09427125
 H     -8.03782250     67.12841149     -9.12999476
 H     -9.65722483     66.41026314     -8.95660009
 H    -10.76763226     68.19116510    -10.06797624
 H     -9.22514105     69.04317639    -10.31910226
 H     -8.61612502     69.42713064     -8.18457901
 H    -10.07910381     68.63973397     -7.54585667
 H    -10.85354081     70.88713186     -9.03176380
 H     -9.10369434     71.07397124     -9.29896231
 H     -8.50595829     71.42263849     -7.08627876
 H    -10.19744601     71.28370454     -6.54977778
 H    -10.82786610     73.27069326     -7.77051201
 H     -9.19135695     73.41230005     -8.45611537
 H     -8.47475750     73.74976884     -5.99357452
 H    -10.20051758     73.68792631     -5.56207211
 H    -10.73642693     75.63251071     -6.85808612
 H     -9.03630482     75.80104444     -7.35753367
 H     -7.75177713     76.13032808     -5.93681987
 H     -8.97977153     76.14391898     -4.64836664
 H     -9.52102416     78.26623521     -6.38667503
 H     -8.09758508     77.66141688     -7.26774406
 H     -6.52790718     78.02439227     -5.61823901
 H     -7.75520108     78.68977667     -4.51402890
 H     -8.41016317     80.50555319     -5.67678092
 H     -7.27309965     80.16047657     -7.00202631
 H     -5.60556748     80.58575480     -4.93468325
 H     -7.07056570     80.84939332     -3.95870087
 H     -7.97197294     82.62919943     -4.90025098
 H     -6.66589239     82.76439742     -6.10197549
 H     -5.06101579     83.16364391     -4.25104302
 H     -6.39180084     83.02139258     -3.07756852
 H     -7.50014332     84.98052000     -4.00994476
 H     -6.19255804     85.16631822     -5.20324540
 H     -4.63424933     85.56133615     -3.27387887
 H     -6.00313978     85.35775427     -2.15452190
 H     -7.10159874     87.33149871     -3.25152941
 H     -5.60871149     87.57540450     -4.18964682
 H     -4.06687818     88.03521626     -2.91160199
 H     -5.00385716     87.72596790     -1.43014916
 H     -6.39279319     89.75016574     -2.13623909
 H     -5.35360663     89.90908669     -3.57258936
 H     -3.59917055     90.33582557     -1.58680074
 H     -4.96808832     90.08765025     -0.47651258
 H     -6.19956714     91.95156027     -1.23101876
 H     -4.93021734     92.36612026     -2.40794601
 H     -3.34620662     92.75465882     -0.56176347
 H     -4.61591362     92.33999735      0.61474265
 H     -6.10870335     93.96811979      0.22257552
 H     -5.09276138     94.70298479     -1.04079379
 H     -3.29116903     95.27292457      0.24903373
 H     -4.05527802     94.62209042      1.71900619
 H     -5.82200218     96.43585339      1.33068515
 H     -4.91774218     96.94237911     -0.11638506
 H     -3.05856258     97.50220228      1.59145062
 H     -4.14906519     96.93224981      2.87761737
 H     -4.95572252     99.08100894      2.94877535
 H     -4.48459755     99.29814115      0.94546092
 H     -2.89254362     99.74670552      2.87707425
 H     -4.18250342     99.26361324      4.00441281
 H     -4.88032597    101.59715914      2.50451413
 H     -3.27551880    101.32481749      1.78431232
 H     -2.10745654    101.66812331      3.82936254
 H     -3.63589768    101.96862134      4.69066115
 H     -3.81978367    103.99495127      3.10679145
 H     -2.26945985    103.50206175      2.38441852
 H     -0.84950733    103.68186553      4.04347390
 H     -2.10206276    104.24426056      5.17620661
 H     -2.53495180    106.23743466      3.90360455
 H     -1.29980325    105.77227125      2.70932748
 H      0.54534185    105.66763598      3.50130996
 H      0.01124679    106.15000052      5.12929448
 H     -0.60641065    108.34606096      3.77118931
 H      0.02215372    107.51475026      2.32824232
 H      2.26605489    107.46236706      3.39205158
 H      1.59954379    108.29380864      4.81779157
 H      1.11767385    110.24160706      3.28735076
 H      1.80594611    109.31306700      1.93370334
 H      3.99833384    109.35707754      3.15384517
 H      3.22705339    110.28280904      4.46396513
 H      2.66225584    112.16106265      3.32379664
 H      3.35940193    111.53700578      1.80959486
 H      5.58129852    111.44972167      2.70945177
 H      5.00102988    112.07301954      4.27247920
 H      4.62603325    114.18388664      2.75617299
 H      4.93873446    113.16170610      1.33292616
 H      7.13415783    112.68879978      1.68774117
 H      7.17280460    113.65594289      3.18153074
 H      6.71039554    115.70824750      2.26238939
 H      6.61430960    115.02208888      0.62281002
 H      9.11884154    114.46874106      1.06012377
 H      8.93458997    115.21569340      2.66523443
 H      8.46581147    117.34820426      1.23321990
 H      8.70044888    116.34004163     -0.21482018
 H     10.94619977    115.58871315      0.71971509
 H     11.08316856    116.51071441      1.34410939
 H     10.38009048    115.19611881     -1.24560408
 H     10.80806046    114.41471845      0.29534428
 H     13.06650002    115.76360836     -0.35446603
 H     12.17432966    116.30420968     -1.79670350
 H     11.90287399    114.17486829     -2.73275495
 H     12.77751053    113.41708125     -1.38033623
 H     14.73382650    114.12126316     -1.35177172
 H     14.67251977    115.14687712     -1.94787373
 H     14.63349624    116.32898083     -2.17506059
 H     14.27189873    115.74430608     -3.81690996
 H     16.23208650    114.59972143     -4.19284230
 H     16.86812656    115.04031630     -2.58984639
 H     16.83174967    117.41775279     -3.22214345
 H     16.19575053    116.98253260     -4.82662316
 H     18.63706331    115.80313992     -4.79002934
 H     18.79333665    116.47589601     -3.14952803
 H     18.70125327    118.74137825     -3.90005718
 H     18.54262100    118.20674182     -5.59040222
 H     20.80446499    117.17477067     -5.40707947
 H     20.90812736    117.73319466     -3.72016411
 H     20.81318338    120.07657183     -4.53795374
 H     20.71010609    119.47886297     -6.21138909
 H     23.14523927    118.64167939     -5.48961186
 H     22.78717044    119.29627427     -3.87358002
 H     22.67799113    121.56828795     -4.81230068
 H     23.03596002    120.91816418     -6.43015853
 H     25.20998096    120.12689545     -5.75428171
 H     24.94688955    120.74563120     -4.10618715
 H     24.90922043    122.99996658     -5.59433313
 H     25.17414069    121.93251329     -6.99384283
 H     27.27092017    121.14492646     -6.31392136
 H     27.22079542    122.14243407     -4.84058069
 H     27.17110683    124.17014626     -5.46511324
 H     27.22631777    123.75165005     -7.19429783
 H     29.51219051    122.75120009     -6.68280079
 H     29.30062836    123.23487190     -4.98292735
 H     29.24507198    125.58519829     -5.56885737
 H     29.45686084    125.17864660     -7.28877826
 H     31.75248568    124.30065897     -6.08461909
 H     31.01873439    124.90271226     -4.57882775
 H     31.06902519    127.09689632     -4.98778311
 H     31.44745812    126.89030639     -6.71473875
 H     33.71714592    126.03948442     -5.57872790
 H     32.93744143    126.38676289     -4.01676591
 H     32.86060581    128.79465645     -4.68114409
 H     33.64136352    128.37707938     -6.22526632
 H     35.63126475    127.54101732     -5.18593533
 H     35.02251716    128.05785616     -3.59515859
 H     35.01188291    130.40536718     -4.44387974
 H     35.61966935    129.82529567     -6.01307678
 H     37.46783355    128.92366426     -5.77057493
 H     37.55460304    129.27904618     -4.06525248
 H     37.35657678    130.63196928     -6.91406868
 H     37.34655353    128.85422397     -7.00231721
 H     39.73920303    129.13508597     -5.99947713
 H     39.46536894    130.89371449     -6.02200033
 H     39.40335031    130.09333094     -8.65914021
 H     39.68759531    128.46269952     -8.00453145
 H     41.93169508    129.63333316     -7.23998210
 H     41.31382414    131.11622160     -8.00649631
 H     41.31330618    130.08758798    -10.19924631
 H     41.93339808    128.56985932     -9.50624384
 H     43.87833388    130.51168449     -9.09170712
 H     42.72291853    131.59266528     -9.90703686
 H     42.84378331    130.36045215    -11.97111453
 H     44.00813621    129.22306102    -11.25077405
 H     45.62418227    131.05548118    -10.95712386
 H     44.46292449    132.19631779    -11.67701196
 H     44.39592767    131.18191273    -13.78711432
 H     45.56104529    129.93650784    -13.27747301
 H     47.32339688    131.48305617    -12.89386982
 H     46.28325622    132.84274932    -13.38132097
 H     45.98874275    132.10587044    -15.60140372
 H     46.06283344    131.14688070    -15.54335315
 H     45.92536377    129.82300233    -15.45705259
 H     47.65807754    129.73515077    -15.05924386
 H     48.32299570    130.66511614    -17.17145911
 H     46.62156498    130.79719684    -17.67737895
 H     46.17107897    128.50017202    -17.63847588
 H     47.83754400    128.13371753    -17.13165039
 H     48.03143886    129.29034333    -19.63422534
 H     46.25734542    129.39977360    -19.53996961
 H     45.59758930    127.32636039    -19.44691934
 H     47.25891860    126.69358281    -19.53548661
 H     48.14577701    127.40342022    -21.32909303
 H     46.56458605    127.93891401    -21.94662701
 H     45.59689532    125.72139122    -21.67517759
 H     47.21092180    125.09221561    -21.26612598
 H     48.64874329    125.10890561    -22.20259903
 H     47.87497746    125.88484026    -23.60526739
 H     46.35545829    124.16936550    -24.04880711
 H     46.97477317    123.20167612    -22.68928770
 H     49.14584132    122.94928820    -23.58411071
 H     48.70500547    123.89520996    -25.02604083
 H     47.05107391    122.26463644    -25.70436524
 H     47.43476043    121.25896702    -24.28673329
 H     49.76500805    121.15964643    -25.53340373
 H     49.03907918    122.19937837    -26.78250399
 H     47.52371518    120.01406841    -27.00934850
 H     48.50631556    119.32324670    -25.69575476
 H     50.52532387    119.24543896    -26.61270227
 H     49.94530234    119.92341262    -28.15289493
 H     48.47448157    117.63555742    -27.89993755
 H     49.57292194    117.30041602    -26.54002003
 H     51.55142870    117.25754416    -27.65734622
 H     50.75742219    117.58076592    -29.21726546
 H     49.63359560    115.27398691    -28.71716180
 H     50.56546687    115.23141057    -27.20122319
 H     52.55321592    115.18602606    -28.95506678
 H     51.30835481    115.24498375    -30.22593714
 H     50.71525699    112.91136207    -29.10885764
 H     52.06296082    113.21465712    -27.98637239
 H     53.58917684    113.14215987    -29.98460127
 H     52.17541347    112.84408293    -31.02416363
 H     52.11089407    110.65510336    -29.52637847
 H     53.54862384    111.29605004    -28.69548309
 H     54.47190858    110.94790016    -31.19368530
 H     52.83769848    110.36711317    -31.59407321
 H     53.23671885    108.47856197    -29.98427892
 H     54.85532915    109.13784602    -29.64706694
 H     54.99661769    108.49289558    -32.27372244
 H     53.30815145    107.95665962    -32.10109732
 H     53.86893455    106.17828282    -30.63373306
 H     55.56210334    106.71699542    -30.52773837
 H     55.51321334    106.19770971    -33.11548316
 H     53.93765439    105.43546501    -32.79165652
 H     54.72919823    103.83729696    -31.28250765
 H     56.39847796    104.43106191    -31.45343171
 H     56.37224033    103.79460792    -33.83661284
 H     54.70296952    103.20291376    -33.65856885
 H     55.33901730    101.49702791    -32.09068212
 H     57.04245693    102.00300158    -32.19339887
 H     56.29407676    101.16713251    -34.74350738
 H     54.75494088    100.76245599    -33.94628450
 H     56.50559752     99.44533727    -32.32586979
 H     57.30673915     99.42429190    -33.15971340
 H     54.50004582     98.77048736    -32.30462145
 H     55.65546040     99.71690550    -31.33633610
 H     56.47458857     96.99742691    -31.99705992
 H     54.89724269     97.02696449    -32.82130150
 H     54.50274639     97.32924112    -30.05035250
 H     56.27877550     97.22732216    -29.99035422
 H     56.47389595     95.05833564    -30.76160498
 H     54.71546880     94.90956733    -30.99413158
 H     54.80150138     95.20434809    -28.36003922
 H     56.57004384     95.31927362    -28.52531591
 H     57.21792545     93.43390800    -29.30304615
 H     55.56907670     92.76442420    -29.33986862
 H     55.82921955     93.14507101    -26.73435035
 H     57.45746284     93.77509156    -27.08099793
 H     57.64231663     91.20638942    -27.88962623
 H     55.94012124     91.05550824    -27.39159773
 H     56.65287687     91.60450203    -25.05123342
 H     58.34344568     91.60465723    -25.60822871
 H     58.23457305     89.27980663    -26.25739764
 H     56.53917487     89.18980957    -25.72280227
 H     57.14503818     89.65252915    -23.42496892
 H     58.86260876     89.75653092    -23.88038259
 H     58.76145052     87.35846819    -24.55352599
 H     57.35721437     87.25681517    -24.57632296
 H     56.07695121     87.22036417    -24.62107851
 H     56.13436711     87.49980418    -22.86412565
 H     57.25049637     85.62013779    -22.22852787
 H     57.36068758     85.03549309    -23.90611994
 H     55.11932646     84.79220637    -24.32705778
 H     54.68771809     85.34014668    -22.68945518
 H     55.68186396     83.66236141    -21.49050044
 H     56.25676621     82.85755282    -22.97037787
 H     53.50885121     82.78422547    -23.10912270
 H     53.56211059     83.65885434    -21.55978270
 H     54.59340484     81.58056003    -20.59167774
 H     54.64852940     80.85496377    -22.21609703
 H     52.35470133     80.73596528    -22.55409344
 H     52.02764236     81.44631352    -20.95512363
 H     53.03067149     79.63612979    -19.76703184
 H     53.41857915     78.80799712    -21.29411749
 H     50.78251409     78.77629375    -21.44175957
 H     50.76766510     79.66458006    -19.89936092
 H     52.03004231     77.24261832    -19.37392284
 H     51.51427213     76.85537126    -21.03292480
 H     49.52871165     76.89664551    -21.27239099
 H     49.20400493     77.30984728    -19.57177448
 H     50.22186311     75.13432355    -18.91247979
 H     50.52514214     74.77010257    -20.62818127
 H     48.04728300     74.79092046    -20.97945260
 H     47.82314125     75.15653366    -19.25192427
 H     48.44153875     73.82769305    -17.99206814
 H     48.99330642     72.69694934    -19.25113040
 H     47.57858807     72.02177088    -20.43956375
 H     46.27817719     72.91487140    -19.61520359
 H     46.80225717     71.36716878    -17.66188155
 H     48.24985700     70.78635502    -18.51942267
 H     46.50564549     69.80176252    -20.16696027
 H     45.23171767     70.49457912    -19.13478794
 H     46.66796913     68.56866719    -17.66570196
 H     47.58767649     68.39753973    -19.18000722
 H     45.59386215     67.61839852    -20.35569898
 H     44.64031630     67.77534806    -18.86091344
 H     46.45203501     65.87802701    -18.21100196
 H     47.08353846     66.09277857    -19.86126006
 H     44.66917825     65.20041217    -20.44659972
 H     44.37003976     65.11767338    -18.69390547
 H     45.61298007     63.79942187    -17.78021771
 H     46.42780268     63.32995597    -19.29148623
 H     44.43399491     62.43159077    -20.26186036
 H     43.50261001     62.84663111    -18.80291198
 H     44.88625913     61.29979353    -17.47764755
 H     45.81843016     60.88382409    -18.93582903
 H     43.55848001     59.97014472    -19.78554927
 H     42.83527063     60.48022173    -18.24118652
 H     43.99325410     59.16233620    -16.81158420
 H     44.91714486     58.41325461    -18.13580824
 H     43.17307006     57.41997703    -19.24529714
 H     41.99086347     58.02763924    -18.06148935
 H     43.05210936     56.72508271    -16.28194901
 H     44.24757923     56.10007065    -17.44318903
 H     42.36804115     55.00388394    -18.67009735
 H     41.22469833     55.66135238    -17.47478605
 H     42.33760677     54.32060882    -15.71539950
 H     43.46962589     53.67777394    -16.92930341
 H     41.93930273     52.57775372    -18.24932993
 H     40.58871942     53.06992426    -17.19958732
 H     41.88519853     51.62882101    -15.44907061
 H     43.09565366     51.31051130    -16.71467086
 H     40.47690990     50.33828142    -17.42501023
 H     40.13186695     50.87057454    -15.76191791
 H     41.74812364     49.20716424    -14.91579681
 H     42.11569055     48.71085778    -16.58518027
 H     40.14283852     47.90145835    -17.25087019
 H     39.38248882     48.23717868    -15.67688580
 H     41.13687815     46.51474176    -14.82725632
 H     41.71223066     46.37263325    -16.50566071
 H     39.46829541     45.46902075    -17.12106204
 H     38.95199621     45.63672246    -15.42589894
 H     40.37593228     44.20082705    -14.42554209
 H     41.14488466     43.76915450    -15.97171081
 H     38.40487896     43.01142403    -15.94987310
 H     38.45042318     43.72677556    -14.32062033
 H     40.21516370     41.54384300    -14.37125018
 H     39.61045654     41.36006141    -16.03522742
 H     37.55498955     40.97445453    -15.95595943
 H     37.49997689     41.01781697    -14.17737573
 H     38.90312433     39.20402441    -13.80618614
 H     39.11742077     38.94363637    -15.55391088
 H     36.85936718     38.40889004    -15.95856574
 H     36.42495846     38.71495229    -14.25977746
 H     37.88636068     36.79874673    -13.61426515
 H     38.28464470     36.54263714    -15.33008693
 H     35.99008831     36.02251506    -15.88566837
 H     35.50616826     36.25724803    -14.18891014
 H     37.09476619     34.23586196    -13.79438746
 H     37.41116059     34.22749570    -15.54598423
 H     35.21370385     33.73498999    -16.19096091
 H     34.67640750     33.68818573    -14.49467418
 H     36.38341269     31.66877945    -14.46490620
 H     36.68499694     32.01584035    -16.18445915
 H     34.39543510     31.27507342    -16.67213490
 H     33.98025165     31.28132974    -14.94128244
 H     35.68274953     29.28887047    -14.90926121
 H     35.89152902     29.54001056    -16.65900589
 H     33.62173612     29.19747912    -17.23851368
 H     33.33409978     28.54648987    -15.60702816
 H     34.90114372     26.81939266    -15.73680047
 H     35.35249243     27.28690637    -17.39390093
 H     33.23499787     26.86101270    -18.33090027
 H     32.59221955     26.34807635    -16.75229360
 H     34.34261268     24.46908155    -16.94059727
 H     34.83471129     25.15621328    -18.50710792
 H     32.82040124     24.82390530    -19.61158675
 H     32.02552190     24.66822971    -18.60454674
 H     31.22290808     24.66613412    -17.62075293
 H     32.01446286     23.13912479    -17.16254968
 H     30.84152765     22.71673701    -19.63940129
 H     30.32842447     24.41504207    -19.49534677
 H     28.97998320     23.64301246    -17.48025195
 H     29.58578139     21.99192965    -17.75447957
 H     28.52880856     21.80537781    -19.89544102
 H     27.86004374     23.44752348    -19.73930682
 H     26.52606018     23.12610097    -17.91987615
 H     27.04954437     21.80752372    -17.51086896
 H     27.55487327     20.71013032    -17.16803963
 H     26.87930206     20.10671252    -18.70027890
 H     24.71682063     20.92138751    -17.19553420
 H     25.93573769     21.36354675    -15.97610684
 H     26.64417725     19.06888832    -15.70767697
 H     25.44982158     18.53849872    -16.91617525
 H     23.58806407     18.83852954    -16.49174419
 H     23.92886888     19.56257494    -14.90181432
 H     24.87042515     17.03084869    -14.64660859
 H     24.34158126     16.80456928    -16.33106353
 H     22.03379947     17.15517146    -15.81330534
 H     22.42630633     17.39923858    -14.09439979
 H     23.23768858     14.98348063    -14.13827952
 H     22.79195031     14.90649076    -15.85980693
 H     20.39859619     15.30701930    -14.80308585
 H     21.20450607     15.33449004    -13.21625842
 H     21.90041624     12.99734903    -13.51325953
 H     21.09794350     12.95729767    -15.10156053
 H     18.92547809     13.34119569    -13.94513904
 H     19.77703066     13.37396367    -12.38243269
 H     20.69360023     11.88948398    -11.75844267
 H     20.26742192     10.87057068    -13.15431315
 H     17.88235972     11.05680380    -12.55010799
 H     18.31684932     12.07524242    -11.15645515
 H     19.61206551     10.17568738    -10.21143339
 H     19.06993188      9.16219452    -11.57054708
 H     16.75062434      9.45072732    -10.61656124
 H     17.38169408     10.63192316     -9.44404513
 H     18.50509587      8.15638712     -8.83001296
 H     17.56044497      7.58436165    -10.22596719
 H     15.55618708      8.30613042     -8.70936977
 H     16.75368410      8.80166252     -7.48924048
 H     17.20532522      6.16569658     -7.62551793
 H     15.91535662      6.11893945     -8.85110409
 H     14.23618597      6.85118778     -7.29610001
 H     15.44425541      6.93142486     -5.99134068
 H     15.60425841      4.37255467     -6.41224578
 H     14.37525963      4.57041312     -7.68451961
 H     12.76758045      5.31331925     -5.93512666
 H     14.03136077      5.10083767     -4.69982201
 H     14.34761182      2.84533149     -4.90762729
 H     13.11053785      2.72319568     -6.18159649
 H     11.44629116      3.48799321     -4.44246925
 H     12.76957999      3.57456506     -3.25517036
 H     12.49249068      0.91546448     -3.96010477
 H     11.27700875      1.50639175     -5.11841185
 H      9.75602759      2.31140739     -3.56972754
 H     10.78916207      1.80910997     -2.21009629
 H     10.80455574     -0.47134789     -2.66240359
 H      9.62037522     -0.24562964     -3.97199683
 H      8.25385056      0.62656343     -1.82342271
 H      9.71756129      0.24564305     -0.88495736
 H      9.17896552     -2.18226311     -1.65909740
 H      7.76932465     -1.52159772     -2.52205773
 H      6.58029512     -0.72187684     -0.76707154
 H      7.80554058     -1.26631924      0.40366443
 H      7.26872097     -3.61844372     -0.36876316
 H      6.07395493     -2.93994181     -1.50032666
 H      4.70534675     -2.03992569      0.23741997
 H      5.81608481     -2.66732010      1.47875147
 H      5.33066089     -4.98300315      0.62367977
 H      4.10369925     -4.27205413     -0.45213773
 H      2.72563182     -3.62398313      1.36011137
 H      4.02279937     -3.89521945      2.54841011
 H      3.25361773     -6.38270445      1.54281215
 H      2.11650042     -5.42847286      0.56063449
 H      0.87957007     -4.57552385      2.34750128
 H      1.88703087     -5.44902939      3.52660156
 H      1.49496182     -7.58564136      2.91312202
 H      0.30304366     -7.07589119      1.69338740
 H     -0.71081955     -6.22928210      4.10711399
 H      0.76548153     -6.94261854      4.79990031
 H     -0.33085492     -9.13294394      3.82781092
 H     -1.66809491     -8.10749277      3.25465668
 H     -2.40081149     -7.40434175      5.34435215
 H     -1.14406741     -8.36025710      6.16598881
 H     -1.96626314    -10.44958762      5.39787183
 H     -3.29039421     -9.64662569      4.52026388
 H     -4.32844950     -8.74453533      6.41868925
 H     -3.10349455     -9.46720665      7.48896875
 H     -3.42905707    -11.64558015      7.13601010
 H     -4.75117754    -11.34481980      5.98283737
 H     -5.83662874    -10.31163684      8.15958577
 H     -4.33828647    -10.75762546      9.01066230
 H     -4.89151089    -13.15417748      8.51579594
 H     -6.36945807    -12.61923424      7.68046695
 H     -7.01035042    -11.75161293     10.04476488
 H     -5.44969352    -12.37907445     10.62692357
 H     -6.03955062    -14.65586599     10.11026719
 H     -7.62957586    -14.13083385      9.50658875
 H     -8.51040654    -13.27247856     11.40318924
 H     -7.05269147    -13.66626645     12.34566711
 H     -7.55468619    -16.10650816     11.71945781
 H     -9.07806836    -15.52496703     11.00574684
 H    -10.29721429    -14.63383450     12.27146278
 H     -9.22437756    -14.86766970     13.67239429
 H    -10.00770464    -17.38469031     12.71454848
 H    -10.89948381    -16.43153362     11.50438779
 H    -12.33952603    -15.36124811     12.96382959
 H    -11.62687147    -16.19283958     14.36698523
 H    -11.88856663    -18.20750219     14.25017505
 H    -12.77862773    -18.12667761     12.71084880
 H    -14.56020694    -16.82879656     13.81843415
 H    -13.86133656    -16.46534167     14.92236861
 H    -13.15745847    -16.06353793     15.90927437
 H    -13.09618219    -17.77595584     16.39108012
 H    -15.46059245    -17.94185059     16.68233730
 H    -15.66773890    -16.23522426     16.22105257
 H    -14.89310277    -14.88291419     17.26264129
 H    -14.20622835    -16.00913799     18.45766854
 H    -17.11553919    -15.97792621     18.26189507
 H    -16.73381931    -14.77073818     17.01079409
 H    -16.06407602    -13.68559289     19.44621550
 H    -16.27409382    -15.32718862     20.10144267
 H    -18.76567178    -14.34427064     19.22992319
 H    -17.81367108    -12.90950356     18.77891906
 H    -17.35772440    -12.69975172     21.28997338
 H    -18.34505900    -14.15865203     21.54501643
 H    -20.35163043    -13.35431277     20.79241051
 H    -19.65036238    -11.75851112     20.43198453
 H    -19.04069550    -11.12749701     22.52416140
 H    -19.65960093    -12.63676083     23.23644328
 H    -21.82325701    -11.20418630     22.34331921
 H    -20.64550937    -10.17642597     21.49191692
 H    -20.38255542     -9.90614278     24.30932956
 H    -21.70477530    -11.09769854     24.32333430
 H    -23.20463305     -9.52914721     23.21400126
 H    -21.91403695     -8.30386585     23.17775313
 H    -22.13223555     -8.48785264     25.76915494
 H    -23.40286038     -9.70628141     25.50607595
 H    -24.84380459     -8.11028661     24.40347236
 H    -23.62815906     -6.82939805     24.62662500
 H    -24.04251025     -7.21758932     27.13405587
 H    -25.22374614     -8.47385733     26.69276330
 H    -26.73805305     -7.16584443     25.59134204
 H    -25.77674792     -5.69561063     25.87869496
 H    -25.97529018     -6.06694901     28.33936195
 H    -27.19360414     -7.31440828     27.98183832
 H    -28.69727571     -5.95126649     26.86753768
 H    -27.65893508     -4.52374651     27.09623421
 H    -27.66103175     -4.37387912     29.34532848
 H    -28.72471987     -5.79105143     29.51402021
 H    -30.58392997     -4.70089184     28.58771645
 H    -29.59500452     -3.36416533     27.95253510
 H    -28.99226213     -2.65559790     30.23753598
 H    -30.26157070     -3.74747736     30.84162344
 H    -32.01136417     -2.67890256     29.64647155
 H    -30.86901487     -1.50180745     28.95527561
 H    -30.32886376     -0.72689147     31.26651001
 H    -31.62733764     -1.78173447     31.87440679
 H    -33.33562176     -0.65925425     30.64289022
 H    -32.14289205      0.47107117     29.95876528
 H    -31.71003561      1.28449138     32.28563154
 H    -32.91591129      0.12624818     32.89604385
 H    -34.40271202      1.75638293     31.33764957
 H    -32.88241303      2.62005069     31.00442944
 H    -32.94965666      3.11771005     33.54382838
 H    -34.46896805      2.19385053     33.62409749
 H    -35.36916913      3.98216266     31.99672342
 H    -33.82446325      4.83900615     32.21574312
 H    -34.08604688      5.15710789     34.54243100
 H    -35.67514317      4.35590933     34.50895713
 H    -36.36791316      6.28892309     32.97902961
 H    -34.71820461      6.93989070     33.13058676
 H    -34.95214796      7.29446558     35.50169893
 H    -36.61492038      6.66100462     35.45498962
 H    -37.57194903      8.21568815     34.10234792
 H    -36.04460539      9.11485302     33.93805971
 H    -35.77319476      9.71049189     36.14037988
 H    -37.28202754      8.89244944     36.61207562
 H    -38.80221018     10.02598176     35.42436982
 H    -37.57214039     11.15673877     34.81070577
 H    -36.93854182     12.01917427     36.87893101
 H    -38.11011698     10.98259420     37.72815422
 H    -39.85938631     12.32897409     36.39295906
 H    -38.51759973     13.24081366     35.66054932
 H    -38.24618440     13.92072850     38.22891927
 H    -39.64946187     12.87250066     38.54561696
 H    -41.30925058     13.63705720     37.55053336
 H    -40.41518210     15.02400167     36.88323037
 H    -40.12508714     15.67508626     39.36601022
 H    -41.04703533     14.21500331     39.79779256
 H    -42.94373650     15.45604402     38.49941279
 H    -41.78495219     16.77654967     38.21349249
 H    -41.16895420     17.65356913     39.91250737
 H    -42.17453618     16.62260124     40.95853641
 H    -44.12696528     17.75203556     39.67867638
 H    -42.91055187     18.66680647     38.75574665
 H    -42.36905955     20.19938481     39.95520909
 H    -42.96919537     19.20354533     41.61364471
 H    -44.45370096     20.68198302     39.66107270
 H    -42.84007742     20.88360981     38.93731005
 H    -42.00217705     22.11489836     40.81848524
 H    -43.57520686     21.98008898     41.64047691
 H    -44.46502553     23.35403505     39.66856962
 H    -42.81583988     23.37522175     38.99923825
 H    -41.77546667     24.56206539     40.63096135
 H    -43.25448916     24.66201737     41.61623733
 H    -44.15106905     26.04241221     39.62428727
 H    -42.57890886     25.80300458     38.82474804
 H    -41.18605381     26.83802207     40.20431697
 H    -42.49797849     27.31398472     41.30911553
 H    -42.96577095     28.55901169     38.85877930
 H    -41.48041633     27.71814690     38.35386868
 H    -40.48546272     29.29828193     40.23482560
 H    -42.14195590     29.90602051     40.46924149
 H    -42.10301312     30.78419942     38.14777271
 H    -40.44724099     30.16193849     37.94908535
 H    -39.86672863     31.83123936     39.81858944
 H    -41.58188380     32.30560692     39.85712267
 H    -41.27720815     33.11622822     37.48993267
 H    -39.57482273     32.60123373     37.56015546
 H    -39.81273894     34.57396758     39.45890392
 H    -41.51877350     34.63878827     38.95540516
 H    -40.91033305     35.44239956     36.76239437
 H    -39.17935738     35.22008599     37.11248947
 H    -38.67743670     36.57847364     38.66176221
 H    -40.32594820     37.24232392     38.76165879
 H    -40.08999966     38.05814493     36.42763468
 H    -38.44553284     37.37973999     36.36629715
 H    -38.03039784     39.25518649     38.11569799
 H    -39.78933254     39.50930314     38.21489537
 H    -39.74922914     40.32831608     35.86646553
 H    -37.99088613     40.05693095     35.81311169
 H    -37.53269354     41.66365058     37.51974152
 H    -39.26603231     42.03710180     37.67574655
 H    -39.28081983     42.86031490     35.34599387
 H    -37.54743419     42.48128923     35.20464166
 H    -36.88417997     44.02845365     36.87982575
 H    -38.57365144     44.52435728     37.14065597
 H    -38.98519767     45.39192325     35.05073352
 H    -37.33349155     45.01768486     34.50293867
 H    -36.72207173     46.72847975     36.39253659
 H    -38.46659232     46.88319402     36.71030705
 H    -38.06168087     47.81375278     34.13744708
 H    -36.35434899     47.41003176     34.43793646
 H    -36.60784919     49.25700855     36.26900207
 H    -38.30098786     49.43662411     35.75007395
 H    -37.10703039     50.18459642     33.52264056
 H    -36.04796773     50.91871459     35.09830256
 H    -36.55257797     51.86760547     35.84337269
 H    -37.96566279     51.83573809     34.76150282
 H    -35.87355566     52.56005081     33.14982474
 H    -34.88297344     52.41828746     34.62186981
 H    -35.92115171     54.17859806     35.76255283
 H    -37.10909329     54.41049351     34.45745284
 H    -35.51144329     55.02707156     32.82040536
 H    -34.21226071     54.96175833     34.03536440
 H    -35.13316379     56.66710186     35.39757363
 H    -36.50580834     56.86855198     34.28243621
 H    -35.09289884     57.57661488     32.47127187
 H    -33.64996300     57.41214743     33.50042359
 H    -34.26435334     59.05249481     35.05402538
 H    -35.77442492     59.38822021     34.17354883
 H    -33.66905765     60.04608193     32.47871320
 H    -32.64504710     59.51035499     33.83247304
 H    -34.37425603     61.84869198     34.26885469
 H    -34.80971076     61.45386475     32.58874836
 H    -32.44622562     61.95706087     31.94577022
 H    -32.08153926     62.33517232     33.64644721
 H    -33.95727367     64.19422383     32.80704334
 H    -33.87515861     63.32473407     31.25607224
 H    -31.56483281     63.88779028     30.91544278
 H    -31.53238184     64.78904425     32.45002901
 H    -33.22084937     66.35250609     31.49699924
 H    -33.21662675     65.41537829     29.98371132
 H    -30.88838433     65.93727387     29.56513603
 H    -30.81572522     66.89392091     31.06440710
 H    -32.45843920     68.46252392     30.44404891
 H    -32.53337978     67.75742529     28.81141715
 H    -30.18928512     68.27296807     28.41135598
 H    -30.05749809     68.99215830     30.03421280
 H    -31.79871792     70.67108031     29.06941694
 H    -31.73924273     69.75247314     27.54597011
 H    -29.21878736     70.69214774     27.75408275
 H    -29.75435772     71.44311612     29.27640911
 H    -31.34219298     72.86545841     28.28865003
 H    -30.95011817     72.24921708     26.66544621
 H    -28.62624117     73.23937040     27.10385108
 H    -29.20646146     73.77361035     28.69953236
 H    -30.84603616     75.24616284     27.51869770
 H    -30.21761117     74.66624172     25.95759547
 H    -28.29935095     75.12435968     25.65252324
 H    -28.12551248     75.98439543     27.20119537
 H    -29.66195094     77.70160793     26.31557220
 H    -30.10217625     76.65296658     24.94633166
 H    -27.57209919     77.16117295     24.33437012
 H    -27.50800461     78.13955876     25.81994063
 H    -29.14606524     79.70063335     25.02859534
 H    -29.29669358     78.80710192     23.49654463
 H    -26.68860488     79.15814276     23.35579335
 H    -26.73935131     80.12985036     24.34003143
 H    -27.94502038     79.25623480     21.58460881
 H    -26.73504951     78.23889094     22.40268500
 H    -24.99538408     79.73341021     22.51870808
 H    -25.85474877     80.82356257     21.40455961
 H    -26.22817887     79.81148698     19.62142771
 H    -25.43339666     78.31604803     20.16937867
 H    -23.29966920     79.64285665     20.30835390
 H    -24.18758400     81.08337059     19.75627280
 H    -24.60805015     79.84501795     17.60351822
 H    -23.70248045     78.45754288     18.25399737
 H    -21.76642072     78.92263906     18.62339499
 H    -21.93116578     80.60108396     18.05423029
 H    -22.45135731     80.15966235     15.86408357
 H    -22.38025558     78.40132288     16.13139146
 H    -20.08108567     78.42118403     16.82902809
 H    -19.96170240     80.11358388     16.29070007
 H    -20.51527873     79.75719046     14.06981074
 H    -20.69659320     78.00688406     14.33780181
 H    -18.28782436     77.88971507     14.92523824
 H    -18.14374079     79.64220653     14.64904941
 H    -18.47399633     79.53889531     12.36155655
 H    -19.04093650     77.85269600     12.42136795
 H    -16.28053534     78.00057142     13.05736874
 H    -16.54099611     79.74449947     12.81417785
 H    -17.10548144     79.51427215     10.51270819
 H    -16.87881600     77.75092969     10.59938450
 H    -14.51340102     78.03065041     11.12836104
 H    -14.69512048     79.79960356     11.05058295
 H    -15.35085147     79.59709409      8.65963208
 H    -15.03097161     77.84849264      8.75093657
 H    -12.97317527     77.62081831      9.22643970
 H    -12.67568267     79.37545055      9.25854185
 H    -13.36816743     79.07333940      6.71426758
 H    -13.57211994     77.34222320      7.07469339
 H    -10.87148718     78.27162272      7.52159940
 H    -11.56424011     79.74074272      6.79355649
 H    -12.07770520     78.72692814      4.72352912
 H    -11.42111328     77.16827326      5.27828013
 H     -9.31790446     79.00009238      5.32596842
 H    -10.52612283     80.10166669      4.62239961
 H    -10.76359075     78.70302702      2.65169866
 H     -9.56038296     77.56195307      3.29862054
 H     -7.73797143     78.88101087      3.37325498
 H     -8.62775994     80.27703581      2.71929975
 H     -8.80599154     78.59216086      0.66714359
 H     -7.88250844     77.44031672      1.66147789
 H     -6.02963936     79.24776744      1.48748622
 H     -7.15641037     80.21924666      0.51030565
 H     -7.12668053     78.42471753     -1.21158032
 H     -6.00114374     77.48745333     -0.20016082
 H     -4.24089881     78.98418761     -0.23324810
 H     -5.14812839     80.11720114     -1.26353033
 H     -5.16176323     78.76149797     -3.13889221
 H     -4.59474060     77.33852941     -2.23229832
 H     -2.41995539     78.32608982     -1.85481911
 H     -2.90662954     79.78554652     -2.75002919
 H     -3.13280120     78.25831668     -4.76781095
 H     -3.24937253     77.19233150     -4.17814971
 H     -3.52317735     76.09309987     -3.56038832
 H     -1.86307472     76.17307558     -2.92326211
 H     -0.77846622     76.04339926     -4.98222155
 H     -2.32911451     75.94208695     -5.85026093
 H     -3.37046159     74.27832382     -5.34352045
 H     -2.12253588     73.68862557     -4.21959694
 H     -0.55491313     73.50032519     -6.14052299
 H     -1.83243105     74.09475845     -7.22811838
 H     -3.41890174     72.79277140     -7.25558222
 H     -2.65583422     71.64961708     -6.12456815
 H     -0.92824596     71.48860231     -8.11280955
 H     -1.93981477     72.67408114     -8.97282999
 H     -3.72158928     70.80118203     -8.86156155
 H     -2.52817349     69.79811308     -8.00256324
 H     -1.03021709     69.75955035     -9.88763798
 H     -2.15853683     70.75976584    -10.83353978
 H     -3.93877014     69.40552674    -10.95510937
 H     -3.12662204     68.12357157    -10.02490881
 H     -1.44438607     67.93432560    -11.84300009
 H     -2.28476086     69.22040434    -12.74190963
 H     -4.27370785     68.24284077    -13.11299261
 H     -3.78311801     66.75003609    -12.27685717
 H     -1.96816832     66.59688331    -14.09703761
 H     -2.71998920     68.01894831    -14.85911579
 H     -4.76675105     66.93593288    -15.30447828
 H     -4.24168730     65.46364354    -14.45304490
 H     -2.54383876     64.79933817    -15.76294759
 H     -2.76775457     66.16697612    -16.87995019
 H     -5.09357228     64.80809970    -17.12466481
 H     -4.41505594     63.68082527    -15.92585931
 H     -2.78880130     62.73492032    -16.50347255
 H     -2.76108162     63.49391746    -18.11326186
 H     -5.01590845     62.27065216    -18.42033411
 H     -4.82828285     61.63054151    -16.77008514
 H     -3.01405116     60.39854782    -16.91144474
 H     -2.79423861     60.75923302    -18.64056454
 H     -4.95248102     59.63659410    -19.11447008
 H     -4.01257669     58.53704944    -17.69640101
 H     -2.63052859     58.51281422    -18.94455813
 H     -3.14165946     58.51761169    -19.65452504
 H     -2.43951304     56.97927319    -17.47176630
 H     -1.69251848     58.79392070    -18.10673613
 H     -1.59002156     56.42101684    -19.37470099
 H     -2.49325221     55.77298685    -17.98455777
 H     -0.58212054     56.32332921    -16.51439908
 H      0.30538203     56.96733452    -17.91649145
 H      0.31192621     54.73817980    -18.95133416
 H      0.25803126     54.29928290    -16.92972973
 H      1.06849507     54.49912324    -15.96163006
 H      2.15313691     55.19906566    -17.18715010
 H      2.32274541     53.13274582    -18.40174320
 H      1.24739568     52.32891939    -17.23308898
 H      2.74043006     52.50242969    -15.43299348
 H      3.86778663     53.51048459    -16.37169425
 H      4.18251086     51.39279191    -17.79577605
 H      3.01905719     50.56604322    -16.73223064
 H      4.75914878     51.43162197    -14.86336703
 H      5.66862924     51.62979147    -15.77533089
 H      3.72653960     49.52760640    -14.58230403
 H      3.71985705     51.21582038    -14.01825124
 H      5.87998214     51.27698318    -13.20300039
 H      6.16243351     49.58003760    -13.66001637
 H      4.36878447     48.92465243    -12.05292106
 H      4.13265083     50.63973999    -11.63942109
 H      6.51905180     50.57504625    -10.76866140
 H      6.60710426     48.86119111    -11.24111670
 H      4.74779679     48.53379474     -9.50183613
 H      4.81121316     50.28256689     -9.17619678
 H      7.24061747     49.65540501     -8.39924384
 H      6.86010151     47.97270156     -8.83740293
 H      5.21598768     47.97793691     -6.97159344
 H      5.42646401     49.73305397     -6.76295381
 H      7.79980107     49.36205135     -6.12265387
 H      7.47819313     47.61138439     -6.12220168
 H      5.89583589     47.43416876     -4.57050507
 H      5.90523348     49.18337392     -4.24117292
 H      8.32359199     48.79431180     -3.48544556
 H      8.12071628     47.07083899     -3.88136169
 H      6.33652700     47.65678068     -1.83084258
 H      7.00060448     49.30303785     -1.96162908
 H      8.86629696     47.20612564     -1.14158861
 H      7.39610880     46.22397292     -1.34698933
 H      6.13576827     47.23885230      0.31541109
 H      7.46822516     48.34520374      0.72627823
 H      8.57417823     45.99592574      1.33245376
 H      7.04310190     45.25576217      0.80687807
 H      5.69290070     46.23525446      2.43020733
 H      7.08237662     47.08597920      3.14706909
 H      8.00361114     44.64683398      3.46418471
 H      6.56920314     44.06725500      2.91643576
 H      7.52305923     45.31711189      5.52583120
 H      8.71326261     45.85096337      4.31476341
 H      8.54700173     44.12039890      4.69656257
1502
Final Conformation Chain 10 (Simulation Frame 11)
 C      0.00000000      0.00000000      0.00000000
 C      1.54000000      0.00000000      0.00000000
 C      2.16637443     -0.99658982      0.99300745
 C      3.70270203     -1.07276195      0.91887703
 C      4.35816476     -1.71822116      2.15392804
 C      4.03007309     -3.21276132      2.32801297
 C      4.59873862     -3.83277940      3.61789556
 C      4.48979733     -5.36782598      3.67589398
 C      5.20725384     -6.00156044      4.88222593
 C      4.88883440     -7.49429666      5.08703717
 C      5.54455866     -8.10878761      6.33764764
 C      5.23748270     -9.60492229      6.53484138
 C      5.85295091    -10.51789512      5.45814296
 C      5.15478777    -11.88370440      5.32127355
 C      6.04036868    -12.98052269      4.70132510
 C      5.25577842    -14.19883331      4.18004076
 C      5.97277062    -14.97214636      3.05776222
 C      5.22909519    -16.23924521      2.59623506
 C      5.82776174    -16.89325623      1.33708139
 C      5.12364498    -18.19541248      0.91257145
 C      5.54879803    -18.71415832     -0.47369967
 C      4.86425466    -20.03028982     -0.88697711
 C      5.39621066    -20.62649588     -2.20347290
 C      4.77545491    -21.98712664     -2.57082316
 C      5.33932096    -22.60411651     -3.86425989
 C      4.53933127    -23.81405232     -4.38163001
 C      5.09589493    -24.42329992     -5.68188162
 C      4.72331631    -25.90300039     -5.88990012
 C      5.48839102    -26.58604264     -7.03868816
 C      4.91246942    -27.95426863     -7.44840997
 C      5.23154158    -28.35901940     -8.89960595
 C      5.06736912    -29.86424257     -9.18058746
 C      5.53527466    -30.29426749    -10.58335008
 C      5.43048404    -31.80882816    -10.84166172
 C      6.60795430    -32.38995737    -11.64630612
 C      6.60202961    -33.92685615    -11.74381006
 C      7.58642304    -34.49227072    -12.78442331
 C      7.58502409    -36.02945532    -12.87749072
 C      8.52284361    -36.59219043    -13.96166033
 C      8.05144801    -37.92800489    -14.56580098
 C      9.09261940    -38.60605422    -15.47564231
 C      8.48001980    -39.41401928    -16.63474291
 C      9.51839736    -39.98046120    -17.62090496
 C      9.07243161    -41.27558496    -18.32472950
 C      9.88998745    -41.61744695    -19.58422655
 C     10.30240531    -43.09806852    -19.68051400
 C     11.28196977    -43.40200470    -20.82928564
 C     11.00151190    -42.60747330    -22.11834081
 C     12.11740495    -42.71287870    -23.17440539
 C     11.74867225    -42.10068553    -24.53853725
 C     12.90595426    -42.09184784    -25.55451965
 C     12.49722786    -41.62963223    -26.96551202
 C     13.66181445    -41.58598051    -27.97220592
 C     13.26631238    -41.06185994    -29.36521552
 C     14.42388416    -41.04712939    -30.38079938
 C     15.58567738    -40.11367684    -29.99285239
 C     16.78968616    -40.18073955    -30.95069657
 C     17.97653480    -39.29516881    -30.52790256
 C     19.12082581    -39.24796391    -31.55745089
 C     20.31330230    -38.37279216    -31.12887860
 C     19.93615678    -36.91517948    -30.80526379
 C     21.14656014    -35.99145315    -30.57449685
 C     20.78684568    -34.63344435    -29.94361047
 C     21.92507792    -33.59743501    -29.99568733
 C     21.83288187    -32.51041514    -28.90872472
 C     22.80818265    -31.33621945    -29.11281504
 C     23.05216838    -30.49697525    -27.84484811
 C     23.82682142    -29.19029356    -28.09801929
 C     23.85726377    -28.23601060    -26.88970755
 C     22.46803932    -27.92350352    -26.30319690
 C     22.48723325    -27.55969335    -24.80691025
 C     21.12673783    -27.72511060    -24.10456464
 C     21.19836323    -27.62723638    -22.56934790
 C     19.95461328    -28.17869727    -21.84783771
 C     19.82092267    -27.71357702    -20.38585619
 C     18.46546156    -28.05720083    -19.74068347
 C     18.13937829    -27.22434013    -18.48704366
 C     16.70503122    -27.41900655    -17.96135036
 C     16.42367128    -26.70114359    -16.62826771
 C     14.94044780    -26.70801003    -16.21402023
 C     14.58427066    -25.65996334    -15.14334943
 C     13.08661762    -25.61159706    -14.78796781
 C     12.71096050    -24.48248862    -13.81042197
 C     11.19403115    -24.26589620    -13.65675656
 C     10.81963750    -23.05484562    -12.78223619
 C      9.31193757    -22.93331496    -12.49297641
 C      8.95910607    -21.85721202    -11.44937093
 C      7.46136443    -21.79388973    -11.09672341
 C      7.17913923    -21.59066461     -9.59650726
 C      5.69362987    -21.35667487     -9.26467785
 C      5.44692876    -20.81418572     -7.84466232
 C      4.21442648    -19.89806945     -7.72947075
 C      4.06914491    -19.21304485     -6.35788971
 C      2.89914976    -18.21496137     -6.27701505
 C      2.90272125    -17.34740624     -5.00464115
 C      2.11869566    -16.02917907     -5.14313659
 C      2.60181612    -14.91108006     -4.20077295
 C      2.01014170    -13.52516319     -4.51819355
 C      2.81294867    -12.35115147     -3.92760278
 C      2.17780276    -10.97035170     -4.17575928
 C      2.78941711     -9.83834416     -3.32954015
 C      2.71449216     -8.45028296     -3.99231641
 C      3.04123757     -7.28372607     -3.04153649
 C      3.44380427     -5.98307758     -3.76115692
 C      3.56991839     -4.76431341     -2.82825332
 C      3.92583554     -3.45377601     -3.55448654
 C      4.48499974     -2.35692889     -2.62935854
 C      4.60970070     -0.97593875     -3.29937042
 C      4.82565792      0.18350727     -2.30909399
 C      4.23687796      1.52662553     -2.77917003
 C      4.25821816      2.63007210     -1.70513545
 C      3.56026572      3.93438872     -2.13317812
 C      3.39452829      4.95870137     -0.99523493
 C      2.85932716      6.32687048     -1.45704987
 C      2.84684287      7.39987318     -0.35246427
 C      1.96007986      8.61767137     -0.67218121
 C      1.57347275      9.45248719      0.56281575
 C      1.15023093     10.89650558      0.23528372
 C      1.51819019     11.91971590      1.32580957
 C      1.64318718     13.36583983      0.81131823
 C      1.73540498     14.42221859      1.92808131
 C      2.00820100     15.84978789      1.41893670
 C      2.43482570     16.83707288      2.52114345
 C      2.87452943     18.21484817      1.99199707
 C      3.17547484     19.24360480      3.09775095
 C      4.45383159     20.06749785      2.85566777
 C      5.20269354     20.45500757      4.14432677
 C      6.37993072     21.42171159      3.91806155
 C      7.27417934     21.62029923      5.15599626
 C      8.47302633     22.55738923      4.91887137
 C      9.45270976     22.63347556      6.10463325
 C     10.58473903     23.66054948      5.91693960
 C     11.60286000     23.68866573      7.07203231
 C     12.94741229     24.34428922      6.70605828
 C     14.05458065     24.13047508      7.75489656
 C     15.30277354     25.00535121      7.53533728
 C     16.47884271     24.66439640      8.46925972
 C     17.76380099     25.46042963      8.17461872
 C     19.01556816     24.91528483      8.88700632
 C     19.33599615     23.44628376      8.55389709
 C     20.76820620     23.01809767      8.92407411
 C     21.13580850     21.59568251      8.46233429
 C     22.28220147     20.95317774      9.26518594
 C     23.60331463     21.74276402      9.21214342
 C     24.81615300     20.97238057      9.76633874
 C     26.11906634     21.79282889      9.79602708
 C     27.27769929     21.10170726     10.53867139
 C     28.49618440     22.01122046     10.78296581
 C     29.51597408     21.43676449     11.78378016
 C     30.77493058     22.30532150     11.96332748
 C     31.55159061     22.02159690     13.26251937
 C     32.66063533     23.04613211     13.56574769
 C     33.59313451     22.63637459     14.72079922
 C     34.76970926     23.60340437     14.94910882
 C     35.78455852     23.11786843     16.00074365
 C     36.82383932     24.17983280     16.40537569
 C     37.83736653     23.69498446     17.45860153
 C     38.74536090     24.80833043     18.01322482
 C     39.76429444     24.32201642     19.06054192
 C     40.48498921     25.45907696     19.80840044
 C     41.33627433     24.98381433     21.00047387
 C     42.26098885     26.06928620     21.58206986
 C     43.38166549     25.51988072     22.48419928
 C     44.38880403     26.58680729     22.95210918
 C     45.46921888     26.05102468     23.90983604
 C     46.79250071     25.67843091     23.21579059
 C     47.94146597     25.35655910     24.18938053
 C     49.12927160     24.62534933     23.53665542
 C     50.39230807     24.57274396     24.41618458
 C     51.52433293     23.70509678     23.83540228
 C     52.91875412     24.03494223     24.39966422
 C     54.07997208     23.40719074     23.60650541
 C     55.47568966     23.76799445     24.14816318
 C     56.63495983     23.32844799     23.23465807
 C     58.03251388     23.59301652     23.82495137
 C     59.18817836     23.32552650     22.84286752
 C     59.11787208     21.95081005     22.15235197
 C     60.29423816     21.66745913     21.19973710
 C     60.13828267     20.37347590     20.37944125
 C     60.95151366     20.35898249     19.07175424
 C     60.47739409     19.30794684     18.05090426
 C     61.56904338     18.85799209     17.06224731
 C     61.14108524     17.70074972     16.14070408
 C     62.26037895     16.68319238     15.85198511
 C     61.89392010     15.63483974     14.78509024
 C     62.95094420     14.52964212     14.60387687
 C     62.62211683     13.52613821     13.48296097
 C     63.80154221     12.61713037     13.09020086
 C     63.39752879     11.40039367     12.23701568
 C     64.48395783     10.31302638     12.14265299
 C     63.98401665      8.97669915     11.56309422
 C     65.06540602      7.88281981     11.48809415
 C     64.51716055      6.48145119     11.16069087
 C     65.60706168      5.44114215     10.84214320
 C     65.09808205      3.98787539     10.81857512
 C     66.18228256      2.94998896     10.47375486
 C     65.76161102      1.49268200     10.74001013
 C     66.68199136      0.44555350     10.08577627
 C     66.29128288     -1.01177604     10.39421989
 C     66.89510016     -2.04149597      9.42124427
 C     66.47603944     -3.49530158      9.70836336
 C     67.15149109     -4.53411342      8.79390449
 C     66.86207779     -5.99521727      9.18507645
 C     67.52010500     -7.03397259      8.25793699
 C     67.35462637     -8.49001264      8.73139682
 C     67.28611574     -9.51715948      7.58602541
 C     67.02667404    -10.96112328      8.05427592
 C     65.72924295    -11.13283829      8.86593256
 C     65.22652665    -12.58641818      8.94327485
 C     64.28224902    -12.86039069     10.12855069
 C     63.96703693    -14.35194756     10.34649432
 C     63.19462987    -14.64554653     11.64602770
 C     63.34329376    -16.09327794     12.14958784
 C     62.82793499    -16.31357446     13.58397788
 C     62.91118130    -17.77516791     14.06190533
 C     62.52561976    -17.97392752     15.53955107
 C     62.70743697    -19.41696648     16.04569437
 C     62.23657469    -19.63625485     17.49545343
 C     62.33413556    -21.09758836     17.97146419
 C     61.24860854    -22.02049859     17.38711172
 C     61.24384741    -23.43927452     17.98598749
 C     60.42182929    -24.45854444     17.17544752
 C     60.15905034    -25.78253323     17.91679824
 C     58.97668632    -26.59220896     17.35284742
 C     58.81026792    -27.98431986     17.98997549
 C     57.84658965    -28.91154144     17.22631044
 C     57.27052863    -30.05639679     18.08016051
 C     56.06851785    -30.77332017     17.43767242
 C     55.70735789    -32.11266455     18.10649237
 C     54.85069752    -33.04149184     17.22614421
 C     54.58648406    -34.42548025     17.84772873
 C     53.68314233    -35.33385478     16.99307707
 C     52.79220840    -36.28342549     17.81536181
 C     52.41608304    -37.58317495     17.07998365
 C     51.70598669    -38.62209017     17.96768762
 C     51.50320437    -39.99038577     17.29074857
 C     51.25941938    -41.14737630     18.27743077
 C     51.11201208    -42.52441974     17.60391576
 C     51.31708970    -43.71436179     18.55973012
 C     51.20030134    -45.09122462     17.87987041
 C     50.69684329    -46.20920761     18.81166654
 C     50.85127704    -47.62662135     18.22969705
 C     50.23734709    -48.73398168     19.10630592
 C     50.28247696    -50.13497979     18.46852259
 C     49.36714983    -51.16560563     19.15524425
 C     49.59021272    -52.61433594     18.68299069
 C     48.60092108    -53.62899431     19.28579284
 C     48.80172388    -55.07196982     18.78669374
 C     47.84122902    -56.09406784     19.42259094
 C     48.21712599    -57.56199848     19.14785270
 C     47.41445364    -58.58020033     19.97886540
 C     47.26642332    -59.95844700     19.30795323
 C     46.63533745    -61.03173052     20.21426063
 C     46.72080707    -62.46052788     19.64607663
 C     46.20971973    -63.54887324     20.60831055
 C     46.28591537    -64.97667764     20.03632380
 C     45.50001914    -66.02066461     20.85122153
 C     44.95121307    -67.18808294     20.01006380
 C     44.70472277    -68.47801666     20.81437315
 C     44.53156072    -69.73599215     19.94310248
 C     43.99660835    -70.95995266     20.70948791
 C     44.00883719    -72.26514304     19.89221896
 C     43.50514043    -73.49555587     20.66937651
 C     43.63720251    -74.82137012     19.89712255
 C     43.47164757    -76.07631521     20.77422253
 C     43.91459950    -77.38236496     20.08892869
 C     44.04304526    -78.58052588     21.04784062
 C     44.07963475    -79.94790264     20.34035068
 C     44.20078444    -81.14648047     21.29969104
 C     44.52541572    -82.47903731     20.59932914
 C     44.68478985    -83.67020983     21.56229742
 C     44.97992309    -85.00847022     20.85976236
 C     45.29905509    -86.16545455     21.82471937
 C     45.70568564    -87.47368684     21.12131346
 C     44.58765617    -88.09893970     20.26652169
 C     45.09926114    -89.01092737     19.13597366
 C     43.99091973    -89.81064135     18.42629987
 C     44.50963591    -90.77414292     17.34269559
 C     43.40365707    -91.36594818     16.44928787
 C     42.70286222    -92.59731583     17.05279451
 C     41.30540489    -92.87241874     16.46710567
 C     40.54696554    -94.01561065     17.16673558
 C     39.70162086    -94.88149065     16.21424191
 C     39.26418031    -96.23002644     16.81565440
 C     38.51585641    -97.14346198     15.82709643
 C     38.17803699    -98.53527257     16.39308345
 C     37.34302773    -99.41249040     15.44184824
 C     37.06812345   -100.83027434     15.97655967
 C     36.21762905   -101.70141026     15.03348942
 C     35.28141933   -102.68340807     15.76204392
 C     34.27344527   -103.39081544     14.83729362
 C     33.35885660   -104.39677002     15.56060749
 C     32.20305426   -104.92870000     14.69298346
 C     31.53193547   -106.19675778     15.25265214
 C     30.17374205   -106.52450023     14.60496739
 C     29.64768398   -107.93438471     14.93221144
 C     28.29650932   -108.26749293     14.27269195
 C     27.83011809   -109.71775993     14.49809128
 C     26.52541603   -110.07751320     13.76329192
 C     26.00307704   -111.49315093     14.07107724
 C     24.74097458   -111.88117812     13.27852926
 C     24.52291936   -113.40044305     13.15248959
 C     23.37058847   -113.79168144     12.20873854
 C     23.21728172   -115.31020213     12.00333169
 C     22.04214763   -115.70309628     11.08884055
 C     22.14269491   -117.12975634     10.51776146
 C     20.87132086   -117.60399570      9.78954099
 C     21.13473291   -118.63547778      8.67677021
 C     19.96713083   -118.80022798      7.68623361
 C     20.25367523   -119.78641894      6.53866239
 C     19.01910598   -120.12897756      5.68420796
 C     19.31280995   -121.08749199      4.51519638
 C     18.06866033   -121.47304565      3.69358814
 C     18.28676309   -122.67182973      2.75180901
 C     17.04282494   -123.05692438      1.92966547
 C     17.31093345   -124.12090940      0.84908521
 C     16.08347951   -124.45553809     -0.01865926
 C     16.34839185   -125.52827924     -1.09134182
 C     15.12080861   -125.86325784     -1.95876831
 C     15.21260071   -127.22318547     -2.67554654
 C     13.97713384   -127.56634504     -3.52846103
 C     14.03831856   -128.95621292     -4.18885765
 C     12.67955658   -129.46457201     -4.70551706
 C     12.67431913   -130.95527344     -5.09201649
 C     11.37070071   -131.42324211     -5.76520614
 C     11.44833464   -132.84015547     -6.36347824
 C     10.20577544   -133.24503151     -7.17816961
 C     10.42512729   -134.46687612     -8.08953151
 C      9.21395974   -134.81297263     -8.97547190
 C      9.16972849   -136.28396227     -9.42916021
 C      8.04025358   -136.59773233    -10.42787676
 C      6.63194195   -136.25152283     -9.90980598
 C      5.48990324   -136.83129045    -10.76491832
 C      4.22362373   -135.95539613    -10.79566467
 C      3.49996278   -135.94801598    -12.15502494
 C      2.01532649   -135.54729184    -12.07210793
 C      1.39488013   -135.15845933    -13.42689781
 C     -0.05201586   -134.64054255    -13.32762957
 C     -0.77159572   -134.52825204    -14.68453622
 C     -2.20346324   -133.96933439    -14.58984471
 C     -2.58751512   -133.03097579    -15.74897683
 C     -4.06149767   -132.58523418    -15.73195149
 C     -4.40996517   -131.53265656    -16.80071281
 C     -5.91781165   -131.24826091    -16.93154897
 C     -6.26177194   -130.15170686    -17.95666386
 C     -7.76908111   -130.00710422    -18.23721535
 C     -8.10785613   -128.96273168    -19.31708454
 C     -9.59872600   -128.58098493    -19.37344446
 C     -9.88475230   -127.28699489    -20.15790525
 C    -11.32689132   -126.76845873    -20.00639521
 C    -11.56471829   -125.38474536    -20.63914765
 C    -12.79911675   -124.64751262    -20.08746992
 C    -13.15957782   -123.36478781    -20.85966477
 C    -14.55545702   -122.80529773    -20.52786343
 C    -14.70629365   -121.29684207    -20.79880590
 C    -16.15908306   -120.79047007    -20.73105371
 C    -16.31193274   -119.28545554    -21.01944274
 C    -17.76662418   -118.78255560    -20.96880203
 C    -17.90833876   -117.25787059    -21.13266962
 C    -19.36139467   -116.75266486    -21.06198942
 C    -19.48645655   -115.23623410    -20.82450830
 C    -20.93904052   -114.73807243    -20.70859986
 C    -21.08790757   -113.20946811    -20.82176977
 C    -22.53851215   -112.73488947    -21.02700488
 C    -22.67722519   -111.21488884    -21.23183838
 C    -24.13473690   -110.72065437    -21.28653669
 C    -24.27330450   -109.19539674    -21.44774514
 C    -25.73001372   -108.70584344    -21.54742367
 C    -25.87190976   -107.26391895    -22.06926585
 C    -27.33033768   -106.79203934    -22.21731200
 C    -27.50013888   -105.55576951    -23.11975560
 C    -28.71923990   -104.68415766    -22.76523412
 C    -28.71023380   -103.29473809    -23.42933663
 C    -29.83004741   -102.35852070    -22.93830252
 C    -29.66590851   -100.89525359    -23.38942090
 C    -30.68862280    -99.92851626    -22.76406148
 C    -30.40862054    -98.44330719    -23.05961651
 C    -31.26623412    -97.46755923    -22.23256460
 C    -30.81523726    -95.99842798    -22.33183790
 C    -31.26170759    -95.12457987    -21.14497071
 C    -30.37414102    -93.88850918    -20.90842299
 C    -30.74197838    -93.08540115    -19.64695037
 C    -29.85437993    -91.84935855    -19.41037547
 C    -29.64746052    -91.50194871    -17.92441088
 C    -28.92966940    -90.15995802    -17.68896049
 C    -29.12328874    -89.58601465    -16.27308600
 C    -28.39635126    -88.24957773    -16.03413356
 C    -28.44624868    -87.76166606    -14.57432109
 C    -27.69028610    -86.44268406    -14.32854261
 C    -28.22288411    -85.62854504    -13.13475997
 C    -27.67270799    -84.19207240    -13.06091829
 C    -28.47264811    -83.26203054    -12.12994142
 C    -27.80834309    -81.89353176    -11.89012911
 C    -28.69706941    -80.89012140    -11.13188564
 C    -28.01245196    -79.54146737    -10.84200416
 C    -28.90057636    -78.53869531    -10.08221259
 C    -28.18048480    -77.23448474     -9.69220882
 C    -29.08129625    -76.21205481     -8.97473005
 C    -28.36396070    -74.90347019     -8.59441967
 C    -29.30931854    -73.78973215     -8.10709418
 C    -28.58335744    -72.55369213     -7.54425712
 C    -29.50440975    -71.57432685     -6.79318702
 C    -28.80303020    -70.28300800     -6.33257618
 C    -29.64579997    -69.41962915     -5.37554113
 C    -28.90401521    -68.18670980     -4.82666478
 C    -29.61434547    -67.50384086     -3.64314421
 C    -28.67735976    -66.67798881     -2.74224123
 C    -29.38891426    -65.56289014     -1.95366964
 C    -28.43260374    -64.62488531     -1.19392158
 C    -29.00885672    -63.22093499     -0.93228059
 C    -28.21669065    -62.40176183      0.10359018
 C    -28.77017531    -60.98368628      0.33664912
 C    -28.18037114    -60.27607616      1.57075567
 C    -29.08583028    -59.17536201      2.15399844
 C    -28.45326066    -58.39832536      3.32347256
 C    -29.34911092    -57.28158234      3.89086778
 C    -28.97357807    -56.84172091      5.31813685
 C    -29.91085926    -55.77346468      5.91137593
 C    -29.38443133    -55.12790600      7.20664718
 C    -30.33259627    -54.07662062      7.81276788
 C    -29.64254287    -53.09075250      8.77375194
 C    -30.56304654    -51.96750413      9.28618349
 C    -29.83033345    -50.87117270     10.08166381
 C    -30.72599268    -49.68490431     10.48435704
 C    -30.10407617    -48.76417191     11.55069268
 C    -28.91061955    -47.93410099     11.04251596
 C    -28.36913996    -46.92200116     12.06918717
 C    -27.22767507    -46.03724568     11.53452312
 C    -27.12201969    -44.66534629     12.22613647
 C    -25.94869787    -43.80133077     11.72774598
 C    -25.76640090    -42.48426486     12.50473067
 C    -24.69462036    -41.55061368     11.91212459
 C    -23.39886112    -41.47865426     12.74123846
 C    -22.38075276    -40.44550724     12.22387725
 C    -21.07231809    -40.39530782     13.03448118
 C    -20.00687516    -39.45168396     12.44625898
 C    -18.68722229    -39.42490836     13.23960594
 C    -17.81097235    -38.19060265     12.95627670
 C    -16.45772103    -38.20107605     13.69126048
 C    -15.52837091    -37.03405353     13.30920447
 C    -14.29754546    -36.88841698     14.22323877
 C    -13.51569068    -35.57779324     14.01691734
 C    -12.02263739    -35.67508381     14.38150809
 C    -11.21758592    -34.39955665     14.07082726
 C     -9.88407497    -34.29894248     14.83451917
 C     -8.94581239    -33.19437472     14.31375685
 C     -7.61209777    -33.09408137     15.07713523
 C     -6.75142323    -31.88111772     14.67768748
 C     -5.50813881    -31.67646927     15.56310426
 C     -4.55409041    -30.57773582     15.05894510
 C     -3.55191702    -30.08370814     16.11874939
 C     -3.00198226    -28.67054501     15.85015729
 C     -1.74908526    -28.31898783     16.67372068
 C     -1.20095825    -26.90469369     16.40739593
 C     -1.29264374    -26.46447016     14.93450862
 C     -0.51347732    -25.17473502     14.61657316
 C     -0.93728637    -24.49501425     13.30129160
 C     -0.12457001    -23.23267098     12.95838993
 C     -0.83926546    -22.27126569     11.99065532
 C     -0.03240109    -21.00226195     11.65869238
 C     -0.52645299    -20.25580240     10.40557194
 C      0.28314395    -18.98919976     10.07110138
 C     -0.38326551    -18.07834785      9.02331932
 C      0.01069310    -16.59434453      9.14219223
 C     -0.52941997    -15.70971422      8.00319834
 C      0.35252063    -14.48739302      7.68742678
 C      0.06229917    -13.84219646      6.31954780
 C      0.57513959    -12.39610023      6.18763730
 C      0.42503272    -11.80480192      4.77362378
 C      0.87164370    -10.33549119      4.65845158
 C      0.88860280     -9.79722826      3.21568153
 C      0.24428825     -8.40740635      3.05803063
 C      0.25560840     -7.87187932      1.61418761
 C      1.50238461     -7.03801733      1.26515570
 C      2.83320460     -7.70811980      1.65436107
 C      3.71967924     -8.08497485      0.45280251
 C      4.91005499     -8.99316825      0.81306674
 C      5.65868962     -9.55851508     -0.40821503
 C      6.17501811    -10.99657031     -0.21585588
 C      6.54508045    -11.71018403     -1.52940425
 C      6.77818094    -13.22462403     -1.37534045
 C      7.26909472    -13.91674594     -2.66047505
 C      6.87498806    -15.40201746     -2.76170962
 C      7.62898546    -16.17678822     -3.85844030
 C      7.56743520    -17.70728509     -3.69909502
 C      8.17495711    -18.48506292     -4.88128737
 C      8.13287857    -20.01517259     -4.71219041
 C      9.09706889    -20.77488126     -5.64212577
 C      9.05821482    -22.30472732     -5.46990093
 C      9.94366557    -23.07039839     -6.47056310
 C      9.48942166    -24.51920266     -6.72791241
 C     10.31475802    -25.25314164     -7.80111018
 C      9.57760797    -26.43441674     -8.45898475
 C     10.31306392    -27.03461693     -9.67161176
 C      9.70125004    -28.35062745    -10.18678172
 C     10.43811535    -28.95205648    -11.39794342
 C      9.66420124    -30.08019119    -12.10502830
 C     10.52782654    -30.93437787    -13.05166258
 C     11.28925232    -30.11809614    -14.11256546
 C     11.54133667    -30.87986904    -15.42700661
 H     -0.36333333      0.00000000      1.02766186
 H     -0.36333333     -0.88998127     -0.51383093
 H     -0.36333333      0.88998127     -0.51383093
 H      1.88274777      0.16453605      1.02154386
 H      1.88274777     -1.02104587     -0.16759863
 H      1.82362666     -1.99863940      0.73509155
 H      1.82362666     -0.74228406      1.99597931
 H      4.10549073     -0.08171252      1.12788015
 H      4.00418276     -2.10344118      1.10571840
 H      3.61179374     -2.33424380      2.65547207
 H      4.08600700     -1.13239865      3.03190421
 H      4.34987817     -3.74077992      1.42966946
 H      2.95126545     -3.31546017      2.44517537
 H      4.18760209     -3.29019377      4.46916966
 H      5.68271430     -3.71920895      3.60380722
 H      5.03417723     -5.78237168      2.82742336
 H      3.43700736     -5.63982842      3.60007883
 H      4.77170408     -5.59235454      5.79378884
 H      6.26285193     -5.73450963      4.83226053
 H      5.18661271     -8.03470216      4.18848835
 H      3.81383577     -7.59840230      5.23414250
 H      5.19485145     -7.56056492      7.21243718
 H      6.62516833     -7.99806070      6.24752386
 H      4.82874984     -9.99659739      5.60337583
 H      4.17181425     -9.71233506      6.73711162
 H      6.93471791    -10.38508176      5.47365951
 H      5.04871185    -10.88900516      4.82286595
 H      4.10922907    -11.71019507      5.06671212
 H      5.21472559    -12.39697805      6.28099102
 H      6.99894103    -12.98108651      5.22020731
 H      6.19671094    -12.74102272      3.64951863
 H      4.55381889    -13.85497342      3.42036110
 H      4.70460437    -14.63384920      5.01374835
 H      6.93215201    -15.32044038      3.44035683
 H      6.14003029    -14.28996955      2.22424017
 H      4.24358865    -15.94571633      2.23468608
 H      5.11865916    -16.90326282      3.45354743
 H      6.86273962    -17.16140948      1.54924792
 H      5.79994640    -16.16510165      0.52645373
 H      4.04672690    -18.03733637      0.97053174
 H      5.41306674    -18.98378552      1.60741172
 H      6.62350204    -18.89536019     -0.45705080
 H      5.32138798    -17.94516168     -1.21196035
 H      3.78654186    -19.86743859     -0.89768189
 H      5.10935947    -20.79142150     -0.14623275
 H      6.46311723    -20.81691733     -2.08706826
 H      5.24204660    -19.89591258     -2.99756450
 H      3.69716558    -21.85793072     -2.66409980
 H      4.98886174    -22.68987232     -1.76540027
 H      6.41355694    -22.74004481     -3.73919771
 H      5.15390966    -21.91023259     -4.68416706
 H      3.51594448    -23.49161209     -4.57349394
 H      4.53941372    -24.58138137     -3.60748136
 H      6.12157477    -24.74352319     -5.49874797
 H      5.08804045    -23.65237879     -6.45241320
 H      3.63647388    -25.98299289     -5.91168836
 H      5.11302097    -26.47611083     -5.04860665
 H      6.55508659    -26.52837035     -6.82204451
 H      5.27527958    -26.04598029     -7.96119354
 H      3.87868812    -27.81077296     -7.76274295
 H      4.94009785    -28.61185935     -6.57955376
 H      6.28964455    -28.61380590     -8.95962219
 H      5.02594628    -27.50610329     -9.54641711
 H      4.03549925    -30.14239149     -8.96616321
 H      5.73665935    -30.41178083     -8.51699688
 H      6.56268253    -29.95696944    -10.72032856
 H      4.89342501    -29.81300113    -11.32126046
 H      4.38853554    -32.10566083    -10.72193830
 H      6.04273719    -32.32572536    -10.10270071
 H      7.52794336    -32.19935651    -11.09368379
 H      6.65004877    -31.88020228    -12.60884329
 H      5.67540952    -34.23604221    -12.22742065
 H      6.63819756    -34.33452697    -10.73356436
 H      8.59226325    -34.16977738    -12.51538147
 H      7.32362098    -34.08585704    -13.76108241
 H      6.55078221    -36.36821351    -12.93820842
 H      8.04540597    -36.42798523    -11.97343185
 H      9.53827220    -36.26310057    -13.74096905
 H      8.21211298    -36.19014840    -14.92597806
 H      7.06752068    -37.77535048    -15.00929126
 H      7.97803774    -38.66070265    -13.76214377
 H      9.99104348    -38.79386071    -14.88771128
 H      9.32907808    -37.92472492    -16.29294132
 H      7.88047621    -38.73806307    -17.24444012
 H      7.83873490    -40.18745158    -16.21206554
 H     10.24456018    -40.56485331    -17.05586211
 H     10.02279201    -39.14436365    -18.10528800
 H      8.15469741    -41.06807946    -18.87500707
 H      8.87645934    -42.02982227    -17.56261340
 H     10.81032725    -42.11096267    -19.27194962
 H      9.79277109    -40.79272825    -20.29026341
 H      9.39790063    -43.70631402    -19.68346399
 H     10.90293396    -43.34423717    -18.80480495
 H     12.18140799    -42.80469753    -20.67983653
 H     11.70136932    -42.45924020    -21.18056773
 H     11.12943772    -41.54686189    -21.90191896
 H      9.97081764    -42.79515581    -22.41924716
 H     12.24075786    -43.76304210    -23.43905778
 H     13.04173760    -42.33794011    -22.73493958
 H     11.51635345    -41.04621788    -24.38945352
 H     10.86707266    -42.61673718    -24.91876462
 H     13.10221146    -43.11976239    -25.85943735
 H     13.78951586    -41.68336465    -25.06405011
 H     12.05732998    -40.63547558    -26.88650306
 H     11.75354821    -42.32631252    -27.35239332
 H     14.20024779    -42.53196068    -27.91466407
 H     14.32825746    -40.77085256    -27.69021278
 H     12.87280420    -40.05165934    -29.25231705
 H     12.48928217    -41.71156356    -29.76796761
 H     14.79629746    -42.06561008    -30.49082399
 H     15.35123589    -41.25369216    -29.84652361
 H     15.97902768    -40.43816743    -29.02948258
 H     15.19549444    -39.09986687    -29.90314953
 H     16.44893132    -39.90708934    -31.94924637
 H     17.16211544    -41.20507884    -30.96189722
 H     18.30688951    -39.61387506    -29.53927113
 H     17.63330478    -38.26169931    -30.48063771
 H     18.72213827    -38.86180334    -32.49554911
 H     19.48758225    -40.26315247    -31.70904876
 H     20.70981526    -38.76795014    -30.19360984
 H     20.05076042    -37.86694151    -30.19974627
 H     19.20704051    -36.92159335    -29.99504881
 H     19.48758177    -36.47175874    -31.69422864
 H     21.85035469    -36.13754774    -31.39390493
 H     21.61966174    -36.27484629    -29.63430368
 H     20.21314096    -34.81861028    -29.03549347
 H     20.17431930    -34.07732062    -30.65328492
 H     22.18949628    -33.43094942    -31.03994088
 H     22.78457270    -34.00551758    -29.46386279
 H     21.85711957    -32.99752972    -27.93392632
 H     20.88545077    -31.98502724    -29.02889898
 H     22.59324251    -30.87577049    -30.07712178
 H     23.82406833    -31.73126017    -29.11718852
 H     23.45975989    -31.15107826    -27.07405734
 H     22.09586938    -30.09418718    -27.51115067
 H     23.17987406    -28.35244534    -27.83807801
 H     24.79377359    -29.44378999    -28.53258007
 H     24.41357083    -28.71832843    -26.08597129
 H     23.27432308    -28.68355417    -26.08473245
 H     22.01024894    -28.86114285    -25.98798197
 H     21.86065015    -27.46739023    -27.08495074
 H     23.12003232    -26.68194329    -24.67568455
 H     22.91117400    -28.39895056    -24.25552874
 H     20.81578118    -28.76540972    -24.20039633
 H     20.40251014    -27.08189214    -24.60442888
 H     21.60306937    -26.64981986    -22.30672671
 H     21.86818091    -28.40710466    -22.20706381
 H     19.83792798    -29.22787848    -22.11932130
 H     19.08436918    -27.61671380    -22.18688018
 H     19.76832824    -26.62489139    -20.37598571
 H     20.70639740    -28.03951930    -19.84014918
 H     18.33674509    -29.13919682    -19.76926215
 H     17.67748057    -27.58200751    -20.32495847
 H     18.12786658    -26.17137843    -18.76853810
 H     18.92323477    -27.39458260    -17.74901485
 H     16.56936356    -28.47271470    -17.71764273
 H     16.00916578    -27.13625453    -18.75123807
 H     16.46964503    -25.62599329    -16.80158317
 H     17.19650729    -26.98755773    -15.91497153
 H     14.68672822    -27.70891865    -15.86486654
 H     14.33881605    -26.46538984    -17.08996240
 H     14.82572315    -24.67248339    -15.53664835
 H     15.18844383    -25.85593934    -14.25753445
 H     12.79011723    -26.59331534    -14.41862144
 H     12.52666582    -25.37994148    -15.69399743
 H     12.98646907    -23.53049471    -14.26418692
 H     13.27728826    -24.62359900    -12.88984567
 H     10.75017976    -25.19364771    -13.29568443
 H     10.78158315    -24.02280773    -14.63598822
 H     10.04559164    -22.48616909    -13.29756133
 H     11.24689827    -23.20307549    -11.79048211
 H      8.99993544    -23.81037963    -11.92595591
 H      8.78126188    -22.90830581    -13.44474206
 H      9.31659080    -20.89468799    -11.81522902
 H      9.46812198    -22.10351810    -10.51752539
 H      7.16058905    -22.76479449    -10.70305081
 H      6.90311089    -21.58287681    -12.00882348
 H      7.64472534    -20.65606679     -9.28368705
 H      7.62555811    -22.42029298     -9.04830389
 H      5.12571949    -22.22212182     -9.60611506
 H      5.35871317    -20.46814514     -9.79988410
 H      5.97421261    -19.86556103     -7.74375182
 H      5.84912582    -21.53134256     -7.12910408
 H      3.33588826    -20.46516503     -8.03716086
 H      4.35331563    -19.05064050     -8.40079331
 H      4.96075927    -18.61219967     -6.17870017
 H      3.99327494    -19.98727870     -5.59440710
 H      1.97514663    -18.75188680     -6.49155947
 H      3.05430774    -17.44314708     -7.03089083
 H      3.83582861    -16.78473911     -4.97606919
 H      2.85014387    -18.00800912     -4.13922827
 H      1.08487927    -16.26968900     -5.39108545
 H      2.56157600    -15.45052877     -5.95376650
 H      3.65108864    -14.71014414     -4.41699492
 H      2.50328644    -15.26217264     -3.17357974
 H      0.93190573    -13.56948719     -4.36475769
 H      2.21930831    -13.29424204     -5.56271485
 H      3.84554323    -12.43751862     -4.26581750
 H      2.77923399    -12.42529573     -2.84065018
 H      1.18369089    -10.96502680     -3.72875453
 H      2.09301500    -10.82052300     -5.25207819
 H      3.85251468     -9.77324246     -3.56124111
 H      2.66176687    -10.09011529     -2.27672644
 H      1.66623736     -8.21375357     -4.17484234
 H      3.24763481     -8.49469465     -4.94199346
 H      4.05164896     -7.42651903     -2.65841902
 H      2.33220045     -7.30712833     -2.21399875
 H      2.61942486     -5.67895816     -4.40614528
 H      4.32507257     -6.18658774     -4.36947410
 H      4.32491251     -4.98658332     -2.07414460
 H      2.60750120     -4.60348151     -2.34246914
 H      3.14624052     -3.24533063     -4.28720894
 H      4.87785236     -3.59336369     -4.06661861
 H      5.38649755     -2.73916316     -2.15050715
 H      3.73599868     -2.13502697     -1.86918951
 H      3.62001937     -0.66805544     -3.63677035
 H      5.27340320     -1.07062886     -4.15880789
 H      5.74077127     -0.00976921     -1.74935141
 H      3.97901435      0.21055865     -1.62311812
 H      3.19340005      1.36710496     -3.05084454
 H      4.79410975      1.85709695     -3.65574369
 H      5.29695724      2.89038645     -1.50176985
 H      3.79847224      2.23539291     -0.79906590
 H      2.52094776      3.70556669     -2.36888694
 H      4.05989663      4.31392406     -3.02448160
 H      4.38399103      5.20905324     -0.61262884
 H      2.80438778      4.49826182     -0.20287794
 H      1.88686304      6.17425085     -1.92515325
 H      3.55458176      6.73748647     -2.18924899
 H      3.86728930      7.53435249      0.00628968
 H      2.21859217      7.04392977      0.46405601
 H      0.93860635      8.26799067     -0.82189853
 H      2.32557987      9.07599249     -1.59112163
 H      2.48854965      9.80945080      1.03537394
 H      1.03366407      8.80817095      1.25676328
 H      0.29160035     10.85831751     -0.43508574
 H      1.98137439     11.39177986     -0.26671622
 H      2.59954807     11.90194069      1.46163734
 H      1.03047245     11.62175777      2.25395414
 H      0.86091518     13.96448132      1.27798609
 H      2.41610226     13.39073646      0.04315000
 H      2.60976636     14.19917404      2.53950858
 H      0.83644931     14.35283638      2.54058829
 H      1.20011859     16.13347101      0.74467658
 H      2.95177169     15.84460994      0.87327422
 H      3.34537447     16.45916031      2.98609830
 H      1.63969496     16.88463904      3.26518953
 H      2.04102940     18.65315562      1.44312161
 H      3.71784270     18.06952655      1.31686422
 H      3.97284807     18.84753279      3.72657755
 H      2.27399090     19.37780725      3.69559408
 H      4.34397612     20.60122710      1.91165249
 H      5.29704121     19.38005894      2.78839756
 H      5.47872016     19.54012387      4.66863309
 H      4.52938564     21.04247177      4.76854011
 H      5.99288914     22.33177694      3.45971685
 H      7.08838330     20.94621716      3.23975485
 H      7.67806076     20.65037604      5.44621828
 H      6.65797090     22.01390277      5.96436709
 H      8.09142526     23.53118085      4.61193410
 H      9.08316832     22.13769776      4.11906775
 H      9.83434614     21.63109870      6.29878346
 H      8.90663442     22.98983923      6.97807853
 H     10.13575085     24.64424503      5.77963457
 H     11.14803267     23.39038227      5.02373752
 H     12.04963017     22.69827219      7.15930810
 H     11.07062415     23.92953883      7.99225247
 H     12.79164900     25.41947584      6.61767540
 H     13.27371229     23.94430541      5.74603680
 H     14.21585205     23.05856926      7.86939309
 H     13.71519951     24.55003967      8.70193720
 H     14.99802991     26.05140446      7.56702179
 H     15.71332822     24.77614497      6.55197094
 H     16.75666905     23.62335306      8.30451354
 H     16.14690178     24.79319876      9.49946609
 H     17.54053002     26.52227191      8.27825771
 H     18.06877173     25.25167229      7.14918553
 H     18.76282410     23.95548985      9.33757711
 H     18.83614995     24.93966810      9.96186192
 H     19.49107825     23.36475130      7.47807089
 H     18.48212793     22.83464456      8.84528440
 H     20.90332373     23.16386010      9.99580009
 H     21.46726153     23.65326129      8.38002557
 H     21.03392943     21.55024658      7.37805746
 H     20.43890972     20.89514590      8.92242183
 H     21.98339369     20.90708822     10.31241546
 H     22.79025074     21.73814300      9.82537830
 H     23.42245864     22.74069031      9.61156076
 H     23.91526363     21.81933919      8.17054653
 H     24.93849900     20.05997519      9.18268826
 H     24.61256815     20.71433680     10.80560127
 H     25.95668598     22.67145165     10.42033042
 H     26.34903017     22.10781116      8.77818485
 H     27.48228957     20.15129869     10.04575520
 H     26.96485507     20.91798113     11.56652022
 H     28.17182389     22.86714556     11.37481248
 H     28.86545214     22.35625565      9.81720598
 H     29.87299468     20.48145190     11.39905408
 H     29.00987181     21.27865132     12.73612501
 H     30.46520925     23.28903086     12.31615692
 H     31.26409937     22.40430838     10.99429936
 H     31.91633326     20.99506360     13.22657223
 H     30.86669929     22.13461295     14.10290693
 H     32.20321307     24.03206375     13.64823210
 H     33.36744664     23.04179106     12.73598933
 H     34.06405600     21.68823939     14.46123689
 H     32.98975048     22.50835638     15.61948662
 H     34.36401680     24.59070521     15.16990439
 H     35.35853221     23.64911047     14.03297647
 H     36.18717070     22.15984509     15.67181400
 H     35.26060330     22.98602809     16.94741628
 H     36.29354306     25.04065603     16.81264616
 H     37.37246663     24.48010290     15.51265740
 H     38.36774658     22.83352021     17.05279819
 H     37.28766350     23.39587128     18.35104642
 H     38.11362547     25.56982338     18.47054181
 H     39.29791476     25.24596664     17.18180508
 H     40.39568967     23.56340921     18.59798905
 H     39.21613715     23.88039477     19.89276419
 H     39.77596543     25.92066024     20.49566033
 H     40.81382386     26.19647843     19.07613898
 H     42.08806435     24.28755885     20.62880188
 H     40.68246657     24.47033972     21.70544142
 H     41.64345819     26.90423298     21.91315861
 H     42.93361376     26.40536239     20.79293837
 H     43.93018099     24.76125273     21.92588546
 H     42.92290584     25.06436405     23.36177785
 H     43.84523181     27.35099530     23.50766828
 H     44.84718833     27.03535722     22.07075409
 H     45.89632177     25.14789128     23.47390810
 H     44.97398193     25.63832538     24.78876701
 H     47.18294815     26.56827660     22.72200374
 H     46.58427697     24.91102622     22.47024857
 H     47.63529336     24.51879578     24.81588748
 H     48.11684843     26.23237922     24.81410455
 H     49.52257858     25.25489421     22.73848070
 H     48.76510664     23.68867718     23.11460191
 H     50.14224518     24.05952400     25.34471773
 H     50.69881685     25.59512249     24.63730561
 H     51.80120885     24.10965279     22.86186534
 H     51.14915868     22.68901288     23.71326390
 H     52.89477511     23.88912158     25.47960003
 H     53.13960974     25.07924458     24.17885796
 H     54.03052238     23.77142448     22.58035313
 H     53.95444884     22.32446963     23.61418153
 H     55.54154123     23.42573468     25.18093702
 H     55.58578373     24.85196966     24.11690552
 H     56.50866488     23.80987822     22.26492897
 H     56.58384771     22.24651304     23.11257485
 H     58.11460408     23.05163392     24.76743006
 H     58.12920865     24.66269833     24.01077636
 H     59.05556201     23.96995215     21.97382869
 H     58.76149912     23.05981751     21.87568421
 H     58.17923252     21.89159985     21.60139831
 H     59.13666272     21.17926551     22.92207006
 H     61.21950369     21.71569816     21.77389448
 H     60.30435401     22.43807436     20.42892595
 H     59.22758363     20.45175329     19.78564002
 H     60.04933753     19.53691857     21.07252176
 H     62.00531254     20.48118260     19.32210409
 H     60.62489780     21.19678676     18.45571360
 H     59.43593412     19.51479444     17.80458088
 H     60.55295173     18.32337901     18.51244217
 H     62.47174898     18.62981035     17.62895331
 H     61.76939785     19.68026720     16.37535451
 H     60.19372518     17.96786183     15.67245196
 H     61.00552990     16.80827822     16.75162091
 H     62.59288345     16.26112925     16.80035396
 H     63.08878136     17.21006153     15.37842589
 H     61.65815730     16.15728945     13.85796447
 H     61.01491906     15.08928424     15.12834870
 H     63.07864088     14.01778752     15.55771041
 H     63.89129031     14.99884580     14.31457236
 H     62.53640130     14.07547280     12.54541931
 H     61.66802455     13.05310467     13.71544148
 H     64.11071592     12.05646214     13.97233621
 H     64.62401430     13.24869922     12.75440263
 H     62.92577515     11.76348637     11.32393727
 H     62.68122436     10.80641124     12.80463601
 H     64.70917157      9.96513669     13.15079561
 H     65.37702678     10.75798226     11.70385677
 H     63.41380517      9.18741931     10.65835344
 H     63.33440245      8.50498652     12.30037882
 H     65.43939332      7.70092438     12.49563946
 H     65.87789496      8.24662448     10.85912048
 H     64.00974352      6.52842367     10.19714453
 H     63.80185850      6.20376875     11.93485845
 H     66.26507581      5.35827296     11.70715771
 H     66.17815303      5.79491525      9.98377308
 H     64.31816716      3.91010696     10.06108925
 H     64.67835272      3.75580062     11.79738490
 H     66.97576633      3.02322839     11.21747490
 H     66.58416581      3.18841043      9.48899852
 H     64.87711973      1.27634045     10.14086785
 H     65.51699309      1.39433127     11.79764391
 H     67.69126119      0.58704275     10.47237063
 H     66.67891609      0.61182219      9.00853661
 H     65.27510078     -1.17727653     10.03633228
 H     66.32375177     -1.15405043     11.47440680
 H     67.98112966     -1.96073049      9.46725364
 H     66.55526582     -1.80142489      8.41378286
 H     65.40825528     -3.58960479      9.51076809
 H     66.67107789     -3.70696147     10.75967687
 H     68.21771886     -4.31169932      8.75159241
 H     66.72159315     -4.44361766      7.79635836
 H     65.78433431     -6.15346038      9.14598532
 H     67.21588070     -6.15382089     10.20378562
 H     68.59891338     -6.88001567      8.28180625
 H     67.15216358     -6.87104037      7.24493541
 H     66.28912855     -8.71151320      8.79264964
 H     67.80224571     -8.58160183      9.72101713
 H     68.16637227     -9.38762269      6.95636783
 H     66.38830592     -9.31849484      7.00073072
 H     66.78490125    -10.93864199      9.11688616
 H     67.83199426    -11.25273675      8.72845761
 H     64.88311265    -11.00344937      8.19108293
 H     65.70162717    -10.36125007      9.63534077
 H     66.00385080    -13.19370293      9.40703383
 H     65.04547899    -12.94091983      7.92855798
 H     63.41757102    -12.20309351     10.03694065
 H     64.81562244    -12.63262551     11.05144603
 H     64.89853797    -14.86903473     10.57676955
 H     63.54794316    -14.75215569      9.42329669
 H     62.25317131    -14.09701509     11.61654834
 H     63.79305391    -14.29524717     12.48702652
 H     64.40093431    -16.28711778     12.32825680
 H     62.97673504    -16.76538653     11.37369819
 H     61.77136452    -16.04729950     13.61324339
 H     63.38628762    -15.65890199     14.25311635
 H     63.95369766    -18.09061492     14.02003841
 H     62.31779983    -18.39106907     13.38613600
 H     61.53490363    -17.54706952     15.69567215
 H     63.25090136    -17.44429282     16.15725139
 H     63.75487130    -19.69323524     15.92462865
 H     62.08570833    -20.07428363     15.43783939
 H     61.17793832    -19.38333989     17.55396035
 H     62.80550402    -18.97098668     18.14494376
 H     63.37477236    -21.41337214     17.89760181
 H     62.30662532    -21.74590484     17.09566232
 H     61.33601247    -22.00734916     16.30070128
 H     60.27353084    -21.62966769     17.67792898
 H     61.08169307    -23.35710994     19.06072231
 H     62.21690308    -23.89348836     17.79903175
 H     60.83836755    -24.51247603     16.16962086
 H     59.39210109    -24.10486249     17.12378604
 H     59.61762245    -25.55902486     18.83603697
 H     61.12007677    -26.23467294     18.16194695
 H     59.18972758    -26.82918377     16.31046728
 H     58.08039149    -25.97448382     17.40916109
 H     58.55174360    -27.85176003     19.04054346
 H     59.76089783    -28.51210691     17.91353207
 H     58.22687137    -29.04155616     16.21310662
 H     56.86812185    -28.43271912     17.18849570
 H     56.73158666    -29.61932813     18.92076299
 H     58.10030079    -30.65675659     18.45318364
 H     56.39488252    -31.21150832     16.49449839
 H     55.29127715    -30.03379870     17.24504613
 H     55.64900022    -31.95335298     19.18320691
 H     56.49880572    -32.82947008     17.88763133
 H     55.40434023    -33.25344892     16.31145631
 H     53.92527963    -32.52152276     16.97848742
 H     54.07108873    -34.28195224     18.79739571
 H     55.54639377    -34.91051679     18.02496558
 H     54.16119396    -35.47884034     16.02429132
 H     52.72555119    -34.83201493     16.85423915
 H     52.15666479    -35.68096768     18.46438332
 H     53.43706161    -36.91679289     18.42454985
 H     53.33508604    -38.11072395     16.82459075
 H     51.88334220    -37.31836594     16.16665820
 H     50.70950926    -38.24813934     18.20283333
 H     52.27842940    -38.73470075     18.88840918
 H     52.48136852    -40.38535664     17.01635302
 H     50.90567920    -39.84254982     16.39118856
 H     50.37666911    -40.91094070     18.87152688
 H     52.12710839    -41.22803526     18.93219020
 H     52.02639729    -42.73416554     17.04893253
 H     50.26993929    -42.47978017     16.91324889
 H     50.57944005    -43.64303213     19.35903298
 H     52.31920967    -43.64530880     18.98291714
 H     51.95246813    -45.14993013     17.09316921
 H     50.20663769    -45.17276623     17.43932129
 H     49.71254908    -45.92678411     19.18516603
 H     51.39101827    -46.29739292     19.64739642
 H     51.90788637    -47.80019901     18.02586495
 H     50.28828556    -47.67770733     17.29774703
 H     49.17396607    -48.52650836     19.22578660
 H     50.72422291    -48.70882115     20.08120021
 H     51.32433001    -50.38973007     18.27424311
 H     49.73511814    -50.10054668     17.52654983
 H     48.34161128    -50.79958547     19.10625517
 H     49.67205510    -51.25373454     20.19801271
 H     50.62588915    -52.88583063     18.88735547
 H     49.40867315    -52.65654608     17.60904391
 H     47.59053562    -53.32947133     19.00739166
 H     48.70167391    -53.60283203     20.37081100
 H     49.81352270    -55.38575542     19.04340710
 H     48.68285589    -55.07955164     17.70322112
 H     46.81909114    -55.79170703     19.19474872
 H     47.99204238    -56.08064323     20.50202371
 H     49.21726973    -57.73946219     19.54322486
 H     48.21968037    -57.71904410     18.06922851
 H     46.35630297    -58.44921430     19.75245910
 H     47.58832083    -58.37375372     21.03491937
 H     48.25689559    -60.30325796     19.01101877
 H     46.64123834    -59.84325971     18.42252925
 H     45.63509317    -60.70010190     20.49288913
 H     47.24891093    -61.12790165     21.11001657
 H     47.77205779    -62.70937416     19.50099926
 H     46.20718972    -62.47842451     18.68483945
 H     45.16714673    -63.33564845     20.84426971
 H     46.80469455    -63.50665605     21.52062774
 H     47.32631683    -65.19399398     19.79458344
 H     45.68615379    -65.01405825     19.12693459
 H     44.45335991    -65.71752630     20.87789783
 H     45.89984869    -66.03582375     21.86512810
 H     45.79167325    -67.68964905     19.53031580
 H     44.28864225    -66.77912770     19.24726926
 H     44.04322933    -68.24119995     21.64770638
 H     45.66184171    -68.83028165     21.19899335
 H     45.43636566    -69.86943373     19.35012578
 H     43.68177416    -69.57857223     19.27888733
 H     43.02679559    -70.70121801     21.13448153
 H     44.69496894    -71.19316579     21.51323172
 H     45.04278026    -72.50384786     19.64305690
 H     43.44280927    -72.10073064     18.97533240
 H     42.48184895    -73.30230699     20.99129174
 H     44.14133165    -73.63269896     21.54376344
 H     44.68928168    -74.97478642     19.65692919
 H     43.06213477    -74.73953374     18.97478860
 H     42.48421000    -76.04479147     21.23473669
 H     44.23578236    -76.05466564     21.55122274
 H     44.96671824    -77.28854806     19.81995928
 H     43.31904496    -77.51452580     19.18563011
 H     43.07331424    -78.75068894     21.51556518
 H     44.77680153    -78.32941356     21.81376773
 H     45.04557211    -80.05241876     19.84624402
 H     43.28555506    -79.96898350     19.59396402
 H     43.34532054    -81.13278330     21.97503829
 H     45.11969407    -81.03352739     21.87497071
 H     45.33158988    -82.30427658     19.88683919
 H     43.63493979    -82.81176801     20.06599725
 H     43.75298251    -83.79143419     22.11469196
 H     45.49260434    -83.44290447     22.25790364
 H     45.90398369    -84.90091177     20.29174547
 H     44.15772288    -85.22638906     20.17814795
 H     44.44370086    -86.30653245     22.48545091
 H     46.17241564    -85.88836476     22.41511126
 H     46.59137941    -87.27703383     20.51718257
 H     45.43135048    -87.39673554     20.06921141
 H     44.29437570    -87.37688929     19.50446541
 H     43.73698043    -88.30854894     20.91499278
 H     45.68076455    -89.81735697     19.58276788
 H     45.74047649    -88.41963560     18.48227883
 H     43.27766492    -89.10465782     18.00091201
 H     43.48872476    -90.43238565     19.16747073
 H     45.19511985    -91.48015225     17.81148402
 H     45.04493731    -90.19102383     16.59334618
 H     42.88432393    -90.54384356     15.95680732
 H     42.51389332    -91.51756242     17.06037999
 H     42.25624942    -92.30587946     18.00342686
 H     43.45348555    -93.36861746     17.22530074
 H     41.40850525    -93.02872001     15.39330857
 H     40.67959695    -91.99862966     16.64864645
 H     40.43259133    -93.75718218     18.21946217
 H     41.14079652    -94.92536846     17.07838685
 H     40.36515825    -95.31715472     15.46723793
 H     38.97287818    -94.23775877     15.72165346
 H     38.67565665    -96.03109915     17.71129263
 H     40.15875544    -96.79109157     17.08591583
 H     39.17250391    -97.34274143     14.98021878
 H     37.62595235    -96.61772572     15.48101529
 H     37.55448184    -98.40357151     17.27735365
 H     39.10959469    -99.02589963     16.67519221
 H     37.90430382    -99.54557909     14.51699336
 H     36.40870886    -98.89330147     15.22832751
 H     36.53157096   -100.74224126     16.92126153
 H     38.02492410   -101.32389554     16.14676727
 H     36.74228114   -101.78964097     14.08214536
 H     35.26111027   -101.20302817     14.87605022
 H     34.60813297   -102.10778345     16.39721458
 H     35.89039326   -103.34221265     16.38109745
 H     34.83126298   -103.94510150     14.08250467
 H     33.66178259   -102.63050349     14.35160388
 H     32.85096504   -103.87602563     16.37237805
 H     33.98117783   -105.19152098     15.97193119
 H     32.62566640   -105.54512269     13.89955921
 H     31.68399243   -104.07677532     14.25378060
 H     31.13953497   -105.96800882     16.24350822
 H     32.28799523   -106.97782526     15.33269733
 H     30.32870765   -106.66254449     13.53490691
 H     29.50326266   -105.68093503     14.76914760
 H     29.54069560   -108.01781521     16.01373482
 H     30.37902559   -108.66288806     14.58217954
 H     28.41370621   -108.18768932     13.19195319
 H     27.56022540   -107.53938864     14.61305959
 H     27.73830081   -109.88540530     15.57120107
 H     28.58579059   -110.38832156     14.08893828
 H     26.68198190   -109.92998331     12.69473118
 H     25.73986345   -109.40682794     14.11141320
 H     25.82379986   -111.56664790     15.14371785
 H     26.76936317   -112.21188670     13.78069049
 H     24.97338950   -111.82529311     12.21506315
 H     23.95351329   -111.16604439     13.51641257
 H     24.35246649   -113.80613495     14.14971569
 H     25.42525319   -113.84231318     12.72982608
 H     23.58881715   -113.39337380     11.21786657
 H     22.45137043   -113.34362798     12.58607963
 H     23.14243253   -115.78272247     12.98273055
 H     24.10540331   -115.67794533     11.48942024
 H     22.19609595   -115.23925217     10.11454667
 H     21.12151972   -115.32238001     11.53110671
 H     22.17750507   -117.83101814     11.35150012
 H     23.06503165   -117.20413167      9.94168574
 H     20.67216087   -116.91836743      8.96592143
 H     20.04112487   -117.57502034     10.49525697
 H     21.61873061   -119.50447484      9.12251714
 H     21.80228902   -118.18458132      7.94249423
 H     19.77467856   -117.83417650      7.21953599
 H     19.08588965   -119.11596838      8.24464383
 H     20.59478906   -120.72665775      6.97189713
 H     21.04266131   -119.36643530      5.91479166
 H     18.79130720   -119.27103052      5.05164604
 H     18.18064503   -120.31922519      6.35419981
 H     19.71421079   -122.01450478      4.92461627
 H     20.05807628   -120.62263238      3.86976348
 H     17.63008608   -120.56152477      3.28753112
 H     17.35337921   -121.95467265      4.36030275
 H     18.64751938   -123.51230602      3.34472932
 H     19.04155755   -122.39621351      2.01531664
 H     16.75021269   -122.19677520      1.32748488
 H     16.23846426   -123.30656037      2.62160895
 H     17.68978660   -125.01830177      1.33822446
 H     18.06657266   -123.73289015      0.16604023
 H     15.75314181   -123.54150818     -0.51214312
 H     15.29169299   -124.82233015      0.63451582
 H     16.67332376   -126.44047262     -0.59091950
 H     17.14318608   -125.16989348     -1.74552969
 H     14.79553389   -124.95117334     -2.45916639
 H     14.32626016   -126.22179724     -1.30436609
 H     15.32162513   -128.00185121     -1.92063374
 H     16.09350690   -127.21354155     -3.31742759
 H     13.85463623   -126.78897436     -4.28264215
 H     13.10378575   -127.58083211     -2.87642328
 H     14.13089617   -129.70547816     -3.40264458
 H     14.91862185   -128.99229554     -4.83062409
 H     12.30393163   -128.75228561     -5.44012852
 H     11.98979200   -129.51546015     -3.86305922
 H     12.94642925   -131.53841434     -4.21224221
 H     13.41776183   -131.10918645     -5.87413140
 H     11.22154174   -130.83404040     -6.67002267
 H     10.54568120   -131.24508490     -5.07549401
 H     11.82458540   -133.51623686     -5.59572221
 H     12.14374022   -132.82027055     -7.20259425
 H     10.08518440   -132.53401446     -7.99548995
 H      9.33582229   -133.19671446     -6.52322917
 H     10.71623700   -135.31194686     -7.46566408
 H     11.23089308   -134.23477892     -8.78593110
 H      8.99239244   -133.95118282     -9.60501638
 H      8.36220477   -135.01768646     -8.32685358
 H      9.13667454   -136.91559094     -8.54143691
 H     10.07833766   -136.49634371     -9.99256370
 H      8.17812453   -135.97125016    -11.30913251
 H      7.40922453   -135.71380181    -10.52044658
 H      6.60259503   -135.18579988     -9.68292859
 H      6.45207698   -136.82206147     -8.99863407
 H      5.59156741   -137.91640052    -10.78225440
 H      5.58802431   -136.44094332    -11.77788494
 H      4.49200639   -134.97892950    -11.19888134
 H      3.86202290   -135.83967597     -9.77392415
 H      3.21452240   -136.97178825    -12.39692188
 H      4.19253122   -135.57589207    -12.90999034
 H      1.95953955   -134.47247443    -11.89961056
 H      1.56456792   -136.07413267    -11.23106367
 H      1.48282696   -136.01028391    -14.10125695
 H      1.95533717   -134.31555708    -13.83125372
 H     -0.05797256   -133.76158888    -12.68303283
 H     -0.66614639   -135.42264397    -12.88124289
 H     -0.79200276   -135.51625132    -15.14447207
 H     -0.20548158   -133.84459517    -15.31717202
 H     -2.15477587   -132.97568315    -14.14443844
 H     -2.78658180   -134.62788019    -13.94611326
 H     -2.75692212   -133.63712297    -16.63891327
 H     -1.75658645   -132.34837634    -15.92706543
 H     -4.25158485   -132.06551989    -14.79287538
 H     -4.68918818   -133.47456022    -15.78855371
 H     -4.19078022   -131.95455464    -17.78155937
 H     -3.78467337   -130.65544792    -16.63453469
 H     -6.28446775   -130.89319024    -15.96843521
 H     -6.42104048   -132.17970042    -17.19093516
 H     -5.88596249   -130.46348765    -18.93116886
 H     -5.76431469   -129.23056160    -17.65313840
 H     -8.27099350   -129.76914679    -17.29936663
 H     -8.14003228   -130.95931316    -18.61641630
 H     -7.61326453   -129.25476500    -20.24347306
 H     -7.72569364   -127.99559876    -18.99042609
 H     -9.94044331   -128.38286342    -18.35753248
 H    -10.15312547   -129.42426153    -19.78530100
 H     -9.52581026   -127.41856281    -21.17866501
 H     -9.33969720   -126.47096855    -19.68344138
 H    -11.51298051   -126.57685371    -18.94962734
 H    -12.00823638   -127.54188872    -20.36090184
 H    -11.59349686   -125.50352966    -21.72227372
 H    -10.73245275   -124.73569870    -20.36680135
 H    -12.78512986   -124.72182176    -19.00009578
 H    -13.69245310   -125.13828231    -20.47372797
 H    -13.35625969   -123.63338669    -21.89758138
 H    -12.30717855   -122.68690487    -20.81505305
 H    -14.63692888   -122.70712070    -19.44535542
 H    -15.30259156   -123.51370974    -20.88569356
 H    -14.50708288   -121.11675328    -21.85520691
 H    -13.97134591   -120.76491961    -20.19464507
 H    -16.54917200   -121.00051286    -19.73515580
 H    -16.74585251   -121.33229316    -21.47282817
 H    -15.92613224   -119.08717143    -22.01941343
 H    -15.72238524   -118.73445568    -20.28668569
 H    -18.16412837   -118.98299133    -19.97385684
 H    -18.34589508   -119.33400895    -21.70937237
 H    -17.37038701   -116.95834777    -22.03211056
 H    -17.45961250   -116.77657898    -20.26370292
 H    -19.78135987   -117.05019399    -20.10115351
 H    -19.92704121   -117.22217886    -21.86678791
 H    -18.98183734   -114.71876868    -21.64040596
 H    -18.99468766   -114.99519087    -19.88208508
 H    -21.41345738   -115.25582598    -19.87495731
 H    -21.46066678   -114.98432872    -21.63345871
 H    -20.69475628   -112.89751188    -21.78935201
 H    -20.50287681   -112.74828066    -20.02606559
 H    -23.13366967   -113.07542337    -20.17970080
 H    -22.92005155   -113.18519367    -21.94338570
 H    -22.04523065   -110.92298323    -22.07057196
 H    -22.33369677   -110.71429018    -20.32658194
 H    -24.62205309   -110.98595134    -20.34832539
 H    -24.63691864   -111.22499231    -22.11210120
 H    -23.77695880   -108.90201181    -22.37276743
 H    -23.78004315   -108.71520241    -20.60263766
 H    -26.25455050   -109.00359796    -20.63951211
 H    -26.19448188   -109.18518046    -22.40916920
 H    -25.42455678   -107.21308920    -23.06193480
 H    -25.33275515   -106.60018221    -21.39334734
 H    -27.81077280   -106.85195023    -21.24074004
 H    -27.83769969   -107.45995556    -22.91342385
 H    -27.11645446   -105.79932884    -24.11049528
 H    -26.91696348   -104.73868630    -22.69504221
 H    -28.60973613   -104.34430358    -21.73537582
 H    -29.61603594   -105.29761553    -22.85198840
 H    -28.68962524   -103.43174109    -24.51049594
 H    -27.80939055   -102.76922267    -23.11245342
 H    -29.36984365   -101.50845408    -22.43461686
 H    -30.78918126   -102.83220864    -23.14754398
 H    -29.65287414   -100.87193538    -24.47909350
 H    -28.71559013   -100.52312509    -23.00664766
 H    -30.57883421    -99.96743527    -21.68030331
 H    -31.68891028   -100.26214476    -23.04013568
 H    -30.41880266    -98.30103925    -24.14024418
 H    -29.42100696    -98.19656451    -22.66995325
 H    -31.02895022    -97.61149694    -21.17848762
 H    -32.31632727    -97.70409288    -22.40419272
 H    -30.86321824    -95.69508763    -23.37767845
 H    -29.78540262    -95.93158161    -21.98102146
 H    -30.84649631    -95.54957384    -20.23114374
 H    -32.35029072    -95.14622833    -21.09380326
 H    -30.39139990    -93.27651248    -21.81023349
 H    -29.35595094    -94.22872937    -20.71963956
 H    -30.65046536    -93.74349611    -18.78286913
 H    -31.77542409    -92.75215914    -19.74202791
 H    -29.94585747    -91.19125349    -20.27445279
 H    -28.82094579    -92.18263171    -19.31528147
 H    -29.18209351    -92.35700601    -17.43409408
 H    -30.62354270    -91.31363479    -17.47730749
 H    -29.52357151    -89.36870974    -18.14646071
 H    -27.95245898    -90.20496980    -18.16972419
 H    -28.74019725    -90.31035166    -15.55428366
 H    -30.19021375    -89.43794546    -16.10621322
 H    -28.85796769    -87.49059830    -16.66576676
 H    -27.35124116    -88.37227664    -16.31836911
 H    -27.98416107    -88.52080572    -13.94322521
 H    -29.49119745    -87.63917700    -14.28940266
 H    -28.12964975    -85.67254748    -14.96253727
 H    -26.64628368    -86.58926651    -14.60544068
 H    -27.94885173    -86.14766090    -12.21632381
 H    -29.30886052    -85.57656271    -13.21256153
 H    -27.94622924    -83.67265157    -13.97933439
 H    -26.58677861    -84.24455477    -12.98279668
 H    -28.45801114    -83.68668502    -11.12617136
 H    -29.50028066    -83.21735233    -12.49060081
 H    -27.69076161    -81.39619399    -12.85290101
 H    -26.82729781    -82.06189423    -11.44593970
 H    -28.95228909    -81.32154518    -10.16398253
 H    -29.60709300    -80.73262435    -11.71080855
 H    -27.72279342    -79.09288283    -11.79225141
 H    -27.12162676    -79.73101474    -10.24317008
 H    -29.18907544    -78.98788300     -9.13189754
 H    -29.79210940    -78.34902370    -10.67995293
 H    -27.82356421    -76.75437135    -10.60336129
 H    -27.33075697    -77.48842807     -9.05850906
 H    -29.46879452    -76.67430997     -8.06683950
 H    -29.90996553    -75.96122037     -9.63691530
 H    -27.98285665    -74.44397326     -9.50640777
 H    -28.67725773    -74.62041919     -7.58951814
 H    -29.84511539    -74.15411535     -7.23059739
 H    -30.02104467    -73.57154283     -8.90329725
 H    -27.94629628    -72.14391611     -8.32805345
 H    -27.96642386    -72.87170467     -6.70380428
 H    -29.90033626    -72.08217308     -5.91373582
 H    -30.32591286    -71.30032919     -7.45512200
 H    -28.34467142    -69.81286872     -7.20262002
 H    -28.02835968    -70.55125135     -5.61422314
 H    -29.88079192    -70.01536552     -4.49351111
 H    -30.56938710    -69.14497722     -5.88510285
 H    -28.59960241    -67.56644064     -5.66969445
 H    -28.01953280    -68.52971181     -4.28987758
 H    -29.71366878    -68.23098022     -2.83722658
 H    -30.60454767    -67.18940569     -3.97288672
 H    -28.20815748    -65.90594343     -3.35207329
 H    -27.91057679    -67.34275361     -2.34445784
 H    -30.15251620    -66.02122318     -1.32522481
 H    -29.86221613    -64.88753464     -2.66639699
 H    -27.76273911    -64.15947664     -1.91695418
 H    -27.85106509    -65.22316793     -0.49251534
 H    -29.92114385    -63.32875863     -0.34558964
 H    -29.24645581    -62.76351131     -1.89270250
 H    -27.19396685    -62.29079789     -0.25671945
 H    -28.21268624    -62.95148551      1.04480633
 H    -29.79998590    -61.07036208      0.68317105
 H    -28.75000980    -60.44765253     -0.61222451
 H    -27.10032056    -60.20555571      1.44184641
 H    -28.40260928    -60.87966058      2.45075342
 H    -30.07314351    -59.60188338      2.33117661
 H    -29.16332247    -58.37161052      1.42182462
 H    -27.53365388    -57.93322009      2.96836629
 H    -28.21888064    -59.10628666      4.11842967
 H    -30.27787153    -57.73194035      4.24112680
 H    -29.56712754    -56.57634179      3.08886745
 H    -27.94439840    -56.48289548      5.30658144
 H    -29.04883583    -57.70841228      5.97485775
 H    -30.92248466    -56.17875739      5.93263305
 H    -29.88424149    -54.89668580      5.26434403
 H    -28.42424703    -54.65949529      6.99045859
 H    -29.24639105    -55.91346771      7.94957226
 H    -31.28441795    -54.55997448      8.03300533
 H    -30.48716529    -53.28884900      7.07545905
 H    -28.85842881    -52.56919186      8.22489891
 H    -29.19749764    -53.66139588      9.58885983
 H    -31.26493493    -52.39848871     10.00011974
 H    -31.11229229    -51.56040564      8.43724302
 H    -29.07386026    -50.42624643      9.43522054
 H    -29.34639401    -51.33629484     10.94047929
 H    -31.54315911    -50.06504073     11.09741114
 H    -31.13059805    -49.23728795      9.57659380
 H    -29.03546732    -48.97271404     11.60251273
 H    -29.90207009    -49.35898945     12.44147078
 H    -29.25200278    -47.31551942     10.21250732
 H    -28.14040837    -48.62070609     10.69116406
 H    -28.24729719    -47.43395505     13.02373291
 H    -29.09921331    -46.11992538     12.17766457
 H    -27.59800982    -45.48469748     10.67101709
 H    -26.40716986    -46.68534065     11.22655542
 H    -26.95793579    -44.83008988     13.29104774
 H    -28.06327403    -44.13509742     12.08130417
 H    -26.07449643    -43.63689153     10.65758970
 H    -25.02182652    -44.34683653     11.90503943
 H    -25.59277613    -42.72611272     13.55328398
 H    -26.68359409    -41.90249216     12.41309451
 H    -24.98855849    -41.29381367     10.89440452
 H    -23.76856168    -42.11565163     11.80607062
 H    -23.08567316    -42.49579745     12.97668068
 H    -23.61253524    -40.94122628     13.66515108
 H    -22.85207947    -39.46278888     12.23856587
 H    -22.11774821    -40.70704416     11.19892504
 H    -20.60871620    -41.38114208     12.99836870
 H    -21.31808743    -40.14698160     14.06696921
 H    -20.32324341    -38.42395881     12.62456249
 H    -19.94458876    -39.63166079     11.37302613
 H    -18.27786678    -40.43495103     13.25809580
 H    -18.90584347    -39.10277923     14.25771084
 H    -18.38268099    -37.29844514     13.21182356
 H    -17.57195003    -38.17674733     11.89289701
 H    -15.90733492    -39.09011038     13.38337562
 H    -16.65021182    -38.24600258     14.76318814
 H    -16.06913969    -36.10041753     13.46410099
 H    -15.26919338    -37.13324056     12.25512243
 H    -13.72341184    -37.81369841     14.17502187
 H    -14.64548138    -36.72948397     15.24391545
 H    -14.18856163    -34.74287040     14.21248969
 H    -13.17968355    -35.53862330     12.98073930
 H    -11.60506671    -36.55123587     13.88543118
 H    -11.94074749    -35.79565616     15.46171934
 H    -11.65430563    -33.57342692     14.63197391
 H    -11.29707568    -34.19565782     13.00302267
 H     -9.31450661    -35.21002596     14.65116490
 H    -10.10405505    -34.21597770     15.89886197
 H     -9.46212679    -32.23813557     14.39817329
 H     -8.72605383    -33.39734498     13.26561123
 H     -7.09591785    -34.05036360     14.99238512
 H     -7.83156904    -32.89130874     16.12537930
 H     -7.32570326    -30.97496452     14.87053153
 H     -6.53206634    -31.95243162     13.61237208
 H     -4.88985366    -32.57178169     15.49799545
 H     -5.83935082    -31.53769826     16.59225012
 H     -5.10460201    -29.63783804     15.01858254
 H     -4.22059330    -30.84679941     14.05670537
 H     -2.95322085    -30.93345437     16.44676501
 H     -4.11450488    -29.68767415     16.96417944
 H     -3.79674842    -27.95062235     16.04549830
 H     -2.70714839    -28.61089445     14.80248615
 H     -0.96850218    -29.04153035     16.43555611
 H     -2.00223402    -28.39297090     17.73133224
 H     -1.98227469    -26.18350537     16.64725425
 H     -1.95562129    -26.34259492     15.85727898
 H     -2.34020342    -26.48822876     14.63425168
 H     -0.72513696    -27.17155914     14.32947869
 H      0.53606181    -25.33943504     14.86037948
 H     -0.90961410    -24.37264433     15.23933008
 H     -1.99664426    -24.24753494     13.36922438
 H     -0.78052398    -25.20018887     12.48504758
 H      0.92560364    -23.51289955     12.87649209
 H     -0.24697556    -22.51529928     13.76986682
 H     -1.77866938    -21.96041711     12.44781331
 H     -1.04588243    -22.80790880     11.06468361
 H      0.91177515    -21.30507411     11.20599378
 H      0.16505280    -20.46865791     12.58841206
 H     -1.56593163    -19.96912583     10.56494792
 H     -0.46305508    -20.93454517      9.55504918
 H      1.32164281    -19.27869263      9.91043406
 H      0.22277606    -18.30944225     10.92103399
 H     -1.35700149    -17.77179073      9.40536771
 H     -0.51698079    -18.65182562      8.10607155
 H      1.09169568    -16.51634778      9.02621841
 H     -0.27471269    -16.24230436     10.13351017
 H     -1.61736451    -15.77662006      8.00372035
 H     -0.14231172    -16.09251942      7.05889575
 H      1.36989230    -14.83566807      7.50921517
 H      0.34176672    -13.82432879      8.55248757
 H     -0.95266792    -13.44513089      6.33630294
 H      0.13790900    -14.61400363      5.55358641
 H      1.65400607    -12.39953135      6.34299286
 H      0.09881243    -11.79175208      6.95963196
 H     -0.63159531    -11.81946415      4.50637443
 H      0.98424977    -12.43149670      4.07890804
 H      1.92097540    -10.27261865      4.94663559
 H      0.27003088     -9.73958884      5.34479143
 H     -0.11791940     -9.88262542      2.80614475
 H      1.57275614    -10.41039858      2.62911835
 H      0.78504611     -7.70498453      3.69228967
 H     -0.79262487     -8.47090134      3.38799967
 H     -0.28805466     -8.57524631      0.98346949
 H      1.20357523     -8.14923364      1.15317407
 H      2.12680569     -6.96590389      2.15566003
 H      1.54808380     -6.18825442      1.94626845
 H      2.92091388     -8.64306129      1.10092500
 H      2.82749389     -7.88219538      2.73035600
 H      3.94397990     -7.17637406     -0.10597634
 H      3.16198515     -8.77355139     -0.18197277
 H      4.52003070     -9.91123042      1.25254702
 H      5.52809705     -8.47377057      1.54542598
 H      6.03225591     -8.72192039     -0.99868733
 H      5.23975182    -10.53667799     -0.64441081
 H      5.32175520    -11.64215373     -0.00785479
 H      6.85398116    -11.00578218      0.63680133
 H      7.32254127    -11.13056737     -2.02709813
 H      5.65787577    -11.74625042     -2.16159652
 H      5.82884265    -13.69281747     -1.11524105
 H      7.49362172    -13.38090484     -0.56798626
 H      8.20909987    -13.45412864     -2.96126661
 H      6.52252752    -13.76237592     -3.43951761
 H      5.78766747    -15.47110193     -2.72913266
 H      7.29827562    -15.92803512     -1.90600344
 H      8.68722362    -16.19686523     -3.59800049
 H      7.49723564    -15.64911857     -4.80306018
 H      6.52125640    -18.01242090     -3.72150181
 H      8.00170656    -17.96917244     -2.73425130
 H      9.22011181    -18.19280367     -4.98295437
 H      7.63180892    -18.21255521     -5.78617941
 H      7.09210112    -20.31917607     -4.60054732
 H      8.68625919    -20.27564557     -3.80995778
 H     10.11184261    -20.43496408     -5.43526688
 H      8.83730119    -20.53676466     -6.67359135
 H      8.04377533    -22.64701622     -5.67447571
 H      9.32006761    -22.54027442     -4.43837261
 H     10.98730709    -22.87752818     -6.22214114
 H      9.73309947    -22.69467404     -7.47185882
 H      8.42835286    -24.50659215     -6.97705889
 H      9.64123866    -25.09346496     -5.81397892
 H     11.35590925    -25.27246120     -7.47903741
 H     10.23367905    -24.69745689     -8.73531608
 H      8.66901722    -26.05422389     -8.92590686
 H      9.31386127    -27.15024698     -7.68044462
 H     11.29173494    -27.38256815     -9.34110762
 H     10.43929285    -26.25068378    -10.41834804
 H      8.66730039    -28.15876780    -10.47355339
 H      9.72433979    -29.07956138     -9.37670629
 H     11.47154154    -29.14430711    -11.10955133
 H     10.41660650    -28.22365356    -12.20853984
 H      8.71084864    -29.67871981    -12.44859715
 H      9.48401229    -30.87685116    -11.38324936
 H     11.33273224    -31.38339434    -12.46975965
 H     11.54189297    -30.53472654    -13.04472746
 H     11.94058261    -29.41113877    -13.59867818
 H     10.56124147    -29.57169691    -14.71218875
 H     10.77076206    -30.61815720    -16.15214224
 H     11.51174503    -31.95270359    -15.23661134
 H     12.51992624    -30.60792324    -15.82261744
