1502
Starting Conformation (Frame 1)
 C      0.00000000      0.00000000      0.00000000
 C      1.54000000      0.00000000      0.00000000
 C      2.16637443      1.19672622      0.73966304
 C      3.70635727      1.19291024      0.74585159
 C      4.33165054      2.25367776      1.67071946
 C      3.89528890      3.69624240      1.35418226
 C      4.50363978      4.75487826      2.29269136
 C      4.17396073      6.20622713      1.89709285
 C      4.85950245      7.26681755      2.77844436
 C      4.69036724      8.70986810      2.26795597
 C      5.64381059      9.72344739      2.92765498
 C      5.37570040     11.18665688      2.52923945
 C      6.35265440     12.19654222      3.15955086
 C      7.79976589     12.07110423      2.64795176
 C      8.80963350     12.95608930      3.40198679
 C     10.25300246     12.84694738      2.87627386
 C     11.20170700     13.93079562      3.42109740
 C     12.57845538     13.96221400      2.73176674
 C     13.62831548     14.81498808      3.46808877
 C     15.07032651     14.59856339      2.97274592
 C     16.10899986     15.51177485      3.65009554
 C     15.62934726     16.96054899      3.85646141
 C     16.52772849     17.79050157      4.79224444
 C     15.76041184     18.80647035      5.65863500
 C     16.66109143     19.84775748      6.34863311
 C     16.07521243     21.27189276      6.36221596
 C     17.13085271     22.38200640      6.51992236
 C     16.54543993     23.80637067      6.52877256
 C     17.40669592     24.83285604      7.28782849
 C     16.97506277     26.29513054      7.07092731
 C     18.08688856     27.32407282      7.34791321
 C     17.57350455     28.66913461      7.89458097
 C     18.50974922     29.85865402      7.61158011
 C     18.09583412     31.16329219      8.31740836
 C     19.01735086     32.35923757      8.01389306
 C     18.66386564     33.63702871      8.79740951
 C     19.80709518     34.66660371      8.86524415
 C     20.15300324     35.30877996      7.50894136
 C     21.47327370     36.10155054      7.50980696
 C     22.05764455     36.34664540      6.10622610
 C     23.44758721     37.00967428      6.11344359
 C     23.90340438     37.52398629      4.73528762
 C     25.39923283     37.88320239      4.66414678
 C     26.33395608     36.66155814      4.59013473
 C     27.83049404     37.02042732      4.53368079
 C     28.77078219     35.80796238      4.66554041
 C     30.25681505     36.18157392      4.81955586
 C     31.16728025     34.99320547      5.18071171
 C     32.62835982     35.38756211      5.46589470
 C     33.50754006     34.22197182      5.95583489
 C     35.01321044     34.54369904      5.98821254
 C     35.89596865     33.36525875      6.43945129
 C     36.51084456     32.56253688      5.27791558
 C     37.58797781     31.55265922      5.71555821
 C     38.25411775     30.80183365      4.54760335
 C     39.52483838     30.02752044      4.94422425
 C     40.06773098     29.10539968      3.83672214
 C     41.38202881     28.39180446      4.20414979
 C     41.95653420     27.51662087      3.07472638
 C     43.26261711     26.79079537      3.44745252
 C     43.55081728     25.54196379      2.59366077
 C     45.04930460     25.27720611      2.35693493
 C     45.33703024     24.03703629      1.49045193
 C     46.75964712     24.00051048      0.90187136
 C     47.86721624     24.33117229      1.91949280
 C     49.06000504     25.09875784      1.31977013
 C     49.99096837     25.73042106      2.37139214
 C     51.33920512     26.21327709      1.80508150
 C     52.49785064     26.16423370      2.81836097
 C     53.82489838     26.73086515      2.28033392
 C     54.81382861     27.16102391      3.37968847
 C     55.99445036     28.00518543      2.86478689
 C     57.17979404     28.08764554      3.84446065
 C     58.42941303     28.77170345      3.25955283
 C     59.69243064     28.61617991      4.12684686
 C     60.84314180     29.56068843      3.73268004
 C     62.21239198     29.15403458      4.30834191
 C     63.30585638     30.22527245      4.13986332
 C     64.63292547     29.88148821      4.84150428
 C     65.80368277     30.80380327      4.45386754
 C     67.08063807     30.57783897      5.28448497
 C     68.17162256     31.64082878      5.05775719
 C     69.34191214     31.55998548      6.05549797
 C     70.40711277     32.65513780      5.86161910
 C     71.62162634     32.52057217      6.79887515
 C     72.78263308     33.47407827      6.46051225
 C     73.88725208     33.52114077      7.53252064
 C     75.10022464     34.38699629      7.14445909
 C     76.30655212     34.23468886      8.08953924
 C     77.38679032     35.31677352      7.90575075
 C     78.64281915     35.10117799      8.77033744
 C     79.74665974     36.15093886      8.54420021
 C     81.11152544     35.76368268      9.14317790
 C     82.16746147     36.88232041      9.07072970
 C     83.38925376     36.65014807      9.97898054
 C     84.48476317     37.72375747      9.84178724
 C     85.84560975     37.30897777     10.43140949
 C     86.89968140     38.43169045     10.42439696
 C     88.21611614     38.05934093     11.13147220
 C     89.33690802     39.10106593     10.95759122
 C     90.62448200     38.77159761     11.73553971
 C     91.76087207     39.78954411     11.52577191
 C     93.13835868     39.29895677     12.00894343
 C     94.16327014     40.42712841     12.22890990
 C     95.24521803     40.09557625     13.27344900
 C     96.53313714     40.92705856     13.12681496
 C     97.61886551     40.58856290     14.16518609
 C     98.93846978     41.35673145     13.96478235
 C    100.12247756     40.78829203     14.76889814
 C    101.33982261     41.72876595     14.84086920
 C    102.35600009     41.35528844     15.93608511
 C    103.61926396     42.23601742     15.94507766
 C    104.59070851     41.92610131     17.09913463
 C    105.45073689     43.12741299     17.53364749
 C    106.56276526     42.77112128     18.53766398
 C    107.59088259     43.89611860     18.75892350
 C    108.88865641     43.43237544     19.44618285
 C    109.83064142     44.58277735     19.84723107
 C    111.20197277     44.11614210     20.37001390
 C    112.01094603     45.21908189     21.07760564
 C    113.48946869     44.85825152     21.31291858
 C    114.16289062     45.67413804     22.43203971
 C    115.69121585     45.79488588     22.28629353
 C    116.29972424     46.99181385     23.04040292
 C    117.83797324     46.97128155     23.11088988
 C    118.45680579     48.26661042     23.66835684
 C    119.97724172     48.37856289     23.45077645
 C    120.67684842     49.35883305     24.41057897
 C    122.12935406     49.68899192     24.01965382
 C    122.78324476     50.77268525     24.89694266
 C    122.60654536     52.20484421     24.35907831
 C    123.44413094     53.26126635     25.10340529
 C    122.97341897     54.70945158     24.87364502
 C    123.74867314     55.75758138     25.69340407
 C    123.02516899     57.11073705     25.82421500
 C    121.74046217     57.05478164     26.67156226
 C    121.05176252     58.41981012     26.85592612
 C    119.72702079     58.35243040     27.63830667
 C    119.29904416     59.69381890     28.26209582
 C    117.93330751     59.64699560     28.97214581
 C    117.76554930     60.70575050     30.07781088
 C    116.63257255     60.39689627     31.07409034
 C    116.19884678     61.60578482     31.92383761
 C    115.03728192     61.30780515     32.89005456
 C    115.17623113     61.98735370     34.26501161
 C    113.84966024     62.11755831     35.03628098
 C    114.01652147     62.57866132     36.49612390
 C    112.71331705     63.07596270     37.14877202
 C    112.83996882     63.37088102     38.65495345
 C    111.61137736     64.07439438     39.26095012
 C    111.67571150     64.24023120     40.79064267
 C    110.93631186     65.48414898     41.31747919
 C    111.61638455     66.15143465     42.52736801
 C    110.85608350     67.37180865     43.07893813
 C    111.54640667     68.05117157     44.27623507
 C    110.84867271     69.33827453     44.75386806
 C    111.68841904     70.17962597     45.73292570
 C    110.91548204     71.34318710     46.38122646
 C    111.81479394     72.48077470     46.89962067
 C    111.09720351     73.83725546     47.02855447
 C    110.47733162     74.34544151     45.71359980
 C    109.20600223     75.19278679     45.90680325
 C    108.41994237     75.44809101     44.60736889
 C    107.02492427     76.06145561     44.82942373
 C    106.26769871     76.38319729     43.52762047
 C    106.11423969     75.18014285     42.57856286
 C    105.82121631     75.56838808     41.11739793
 C    105.01627132     74.51192673     40.33794109
 C    104.82789843     74.84325390     38.84584928
 C    103.98682246     73.80830932     38.07573181
 C    103.64648052     74.22629956     36.63314679
 C    102.85871402     73.16498286     35.84281093
 C    102.27029771     73.68062671     34.51635789
 C    101.45879144     72.62718958     33.73961612
 C    100.88728609     73.13691804     32.40351787
 C     99.67856626     72.33173352     31.89139069
 C     99.02938419     72.91522536     30.62265119
 C     97.82807222     72.10337263     30.10366688
 C     97.31660520     72.55465920     28.72296347
 C     96.08628935     71.77376373     28.22484181
 C     95.51059390     72.29404105     26.89462143
 C     94.15824541     71.66619930     26.50917585
 C     93.56460317     72.21354077     25.19783829
 C     92.25366070     71.52820495     24.76965066
 C     91.98444701     71.58240769     23.25433352
 C     90.62037156     71.00048619     22.83928471
 C     90.49204783     70.71974419     21.33053789
 C     89.37206924     69.72561684     20.97142960
 C     89.21633943     69.47684385     19.45965573
 C     88.14749181     68.42658614     19.10451701
 C     87.94013368     68.23089724     17.59114050
 C     87.06539072     67.01577382     17.23072431
 C     87.83723627     65.86624516     16.55660391
 C     86.94615417     64.69539084     16.10199107
 C     87.60544252     63.77517838     15.05788959
 C     86.64373000     62.74806489     14.43199272
 C     87.35038091     61.54965057     13.77165370
 C     86.44052732     60.71577270     12.85055970
 C     87.12040260     59.46432860     12.26467808
 C     86.28486836     58.74204312     11.19146504
 C     86.94219071     57.46225672     10.64221639
 C     86.37434199     56.99801481      9.28810145
 C     86.99063603     55.68645725      8.76695039
 C     86.39318257     54.41753207      9.40293643
 C     86.94328949     53.10425505      8.81617766
 C     86.11284840     51.85938992      9.17987866
 C     86.56006087     50.57507074      8.45729631
 C     85.68818114     49.34467555      8.76963169
 C     86.01363792     48.11110534      7.90708753
 C     85.00871779     46.95469043      8.06342074
 C     85.28821439     45.75305976      7.14170202
 C     84.33618786     44.56223766      7.35893050
 C     84.73383415     43.29276285      6.58310117
 C     83.63007574     42.22019729      6.52905951
 C     84.01750863     40.96243604      5.72935182
 C     83.16106515     39.72466264      6.05496134
 C     83.27466359     38.59347678      5.01615724
 C     82.29787178     37.42641203      5.25160923
 C     82.72228721     36.10859766      4.57719332
 C     81.78787243     34.92192040      4.87763652
 C     82.42062590     33.54339499      4.61138339
 C     81.42535884     32.37105357      4.69298667
 C     81.75860397     31.19971824      3.75037264
 C     80.67852381     30.10278833      3.70828191
 C     81.10202297     28.83581522      2.94210464
 C     79.94160783     27.86974128      2.63922205
 C     80.34213704     26.66221660      1.77143148
 C     79.14662768     25.86895641      1.21188197
 C     79.43796143     25.15367245     -0.12044438
 C     78.34976798     24.14932652     -0.54320233
 C     78.74351326     23.26706042     -1.74244008
 C     77.54476631     22.64762814     -2.48467278
 C     77.93392257     21.56892323     -3.51256048
 C     76.75313398     21.05126664     -4.35480151
 C     77.17532556     20.32257644     -5.64412880
 C     75.99765092     19.74808815     -6.45323055
 C     76.37307455     19.31062289     -7.88126459
 C     75.18885709     18.76555258     -8.70109835
 C     75.59526618     18.13760193    -10.04724457
 C     74.40434757     17.68249174    -10.91106606
 C     74.79736312     17.22250895    -12.32724210
 C     73.61463130     16.71086160    -13.17042798
 C     74.02010577     16.16597412    -14.55255970
 C     72.86455272     15.50968056    -15.33074729
 C     73.27861813     14.92948014    -16.69585436
 C     72.16790874     14.12649432    -17.39809250
 C     72.64636848     13.34681637    -18.63695431
 C     71.50449569     12.83707444    -19.53578115
 C     71.94140518     11.77480388    -20.56159368
 C     70.84443899     11.39147434    -21.57219926
 C     69.54827411     10.87207427    -20.92275320
 C     68.83105666      9.78201976    -21.74066536
 C     67.35227116      9.58384868    -21.35919234
 C     66.61806017      8.53876454    -22.21961860
 C     65.19110977      8.22009893    -21.73602292
 C     64.41753071      7.25875560    -22.65743187
 C     62.92815306      7.10758683    -22.29618094
 C     62.09892968      6.36059169    -23.35730622
 C     60.57758604      6.43587395    -23.13048888
 C     59.75098520      5.64049894    -24.15796620
 C     58.34609606      5.24892463    -23.66344012
 C     57.73822895      4.03929552    -24.39753479
 C     56.22591267      3.86201488    -24.16716325
 C     55.69192643      2.47086134    -24.55594407
 C     54.25212815      2.19784572    -24.08261186
 C     53.96834455      0.71877485    -23.76102792
 C     52.50083301      0.42750706    -23.39609924
 C     52.15727624     -1.07228832    -23.33142631
 C     50.71028216     -1.36509384    -22.89316490
 C     50.34222992     -2.86040754    -22.90637369
 C     48.87608930     -3.14792669    -22.53305821
 C     48.43582488     -4.59994368    -22.79652338
 C     47.00223677     -4.91424462    -22.33000430
 C     46.47665516     -6.28341519    -22.79982970
 C     45.10215504     -6.66045647    -22.21657221
 C     44.38356235     -7.78594014    -22.98371695
 C     43.06572009     -8.24534844    -22.33269023
 C     41.93028770     -8.51276772    -23.33811562
 C     40.54603613     -8.69038944    -22.68704104
 C     39.44007235     -9.11256741    -23.67203335
 C     38.01245723     -8.95145620    -23.11745400
 C     37.75966678     -9.71824477    -21.80606837
 C     36.30208639     -9.65299783    -21.31331870
 C     36.06588450    -10.35240281    -19.96178574
 C     34.58528134    -10.42525504    -19.54452463
 C     34.34701597    -11.14441131    -18.20376221
 C     32.86452809    -11.23642397    -17.79711327
 C     32.64215968    -11.52089185    -16.30003935
 C     31.17016838    -11.42896293    -15.85687948
 C     30.94922721    -11.70191891    -14.35745291
 C     29.64756404    -11.09990248    -13.79633865
 C     29.71271870    -10.75411681    -12.29707645
 C     28.33378658    -10.62125513    -11.62439971
 C     28.38898955    -10.07755382    -10.18462837
 C     27.14679134    -10.41544665     -9.33942304
 C     27.36740843    -10.28324841     -7.82105163
 C     26.19294021    -10.80092917     -6.97003398
 C     26.60064411    -11.27653910     -5.56320325
 C     25.41310628    -11.68182683     -4.67040106
 C     25.76319698    -11.79321536     -3.17486466
 C     24.57926752    -12.21304059     -2.28398992
 C     24.97585441    -12.55686233     -0.83619662
 C     23.89231158    -13.32334221     -0.05514379
 C     24.22913204    -13.54318412      1.43140306
 C     23.22683636    -14.44640850      2.17382416
 C     23.31190058    -14.34749357      3.70828821
 C     22.33293644    -15.27570110      4.45102638
 C     22.44633351    -15.20682045      5.98530033
 C     21.39820789    -16.05483303      6.72954985
 C     21.87216996    -16.57641245      8.09882516
 C     20.74350207    -17.15035595      8.97535106
 C     21.23779452    -17.84200305     10.25944579
 C     20.11571128    -18.48199088     11.09786381
 C     20.49890062    -18.73546780     12.56773299
 C     19.29456801    -18.81531473     13.52418864
 C     19.66833997    -18.69570746     15.01334566
 C     18.57047248    -19.18521474     15.97598245
 C     18.69013679    -18.61826226     17.40281297
 C     17.71114907    -19.24788757     18.41115568
 C     17.76885919    -18.61974629     19.81604289
 C     16.82088831    -19.27778509     20.83581548
 C     16.91552304    -18.68331934     22.25329731
 C     16.11252606    -19.46011506     23.31319554
 C     16.21798799    -18.87345188     24.73316177
 C     15.14216645    -19.39073970     25.70610643
 C     15.05757079    -18.59959052     27.02463840
 C     13.81769909    -18.93128219     27.87569586
 C     13.69378042    -18.08698845     29.15765226
 C     12.67009822    -18.63265493     30.17053076
 C     12.30394739    -17.63864253     31.28832900
 C     11.14080026    -18.10388538     32.18400630
 C     10.63942714    -17.03020162     33.16758557
 C      9.62919841    -17.55405164     34.20518812
 C      8.93873818    -16.44604206     35.02199866
 C      8.10626585    -16.96828728     36.20768401
 C      7.01889749    -15.98965556     36.68883888
 C      6.01761250    -16.60561757     37.68363492
 C      4.78636715    -15.72302200     37.96051025
 C      3.78752843    -16.33676986     38.95912668
 C      2.53477064    -15.47464596     39.20190292
 C      1.38811451    -16.22103524     39.90878534
 C      0.76031025    -17.34689488     39.06622860
 C     -0.73166939    -17.59111878     39.35940337
 C     -1.52040442    -18.15735378     38.16404778
 C     -2.99853536    -18.45773924     38.47468823
 C     -3.68619834    -19.36114989     37.43422255
 C     -5.20775857    -19.49600868     37.62984351
 C     -5.91826188    -20.26784196     36.50243123
 C     -7.31278989    -20.79590827     36.88718781
 C     -7.87168309    -21.85342360     35.91718796
 C     -8.50508977    -21.26280067     34.64378287
 C     -8.87220231    -22.31496397     33.58087141
 C     -9.31090671    -21.71578660     32.23175135
 C     -9.58598827    -22.76618865     31.13969564
 C     -9.63685189    -22.18814155     29.71320538
 C    -10.18490028    -23.16826980     28.65935929
 C    -10.16137957    -22.61891301     27.22086915
 C    -10.84312619    -23.53631954     26.18879027
 C    -10.95396665    -22.92175323     24.78108908
 C    -11.42292659    -23.91313453     23.69996018
 C    -11.54844820    -23.29477997     22.29515345
 C    -11.73253989    -24.32948598     21.16950087
 C    -11.67595841    -23.72988592     19.75215183
 C    -11.46603062    -24.77286973     18.63872690
 C    -11.12342848    -24.16378130     17.26641679
 C    -10.68714429    -25.19892814     16.21298092
 C    -10.61095175    -24.64028289     14.77990375
 C    -10.51058747    -25.72349743     13.68987014
 C    -10.10879391    -25.18309807     12.30490427
 C    -10.44272540    -26.13401664     11.14049729
 C    -10.36505697    -25.47436673      9.75109828
 C    -10.22800997    -26.47565882      8.58910333
 C     -9.98217665    -25.81592237      7.21946330
 C     -9.74438330    -26.81848074      6.07494111
 C     -9.19500140    -26.17906722      4.78617043
 C     -9.14961735    -27.13742414      3.58155751
 C     -8.71531655    -26.46787989      2.26447994
 C     -8.68030403    -27.42387607      1.05764714
 C     -8.22774996    -26.75866007     -0.25547223
 C     -8.33144328    -27.67404708     -1.48953638
 C     -8.18381892    -26.93443891     -2.83221535
 C     -8.56656633    -27.78208970     -4.05964867
 C     -8.67211269    -26.97731321     -5.36838653
 C     -7.31202406    -26.56644722     -5.96248085
 C     -7.41786023    -25.63491554     -7.18422036
 C     -6.05882301    -25.24828862     -7.79670501
 C     -5.81717686    -23.72947058     -7.87669814
 C     -4.56181062    -23.33625976     -8.67734843
 C     -4.48858316    -21.83950109     -9.03224449
 C     -3.23242929    -21.44600204     -9.83151664
 C     -3.20391773    -19.96895457    -10.26639347
 C     -2.72666233    -19.00151393     -9.16735486
 C     -2.32215455    -17.61046474     -9.68980641
 C     -1.72131758    -16.68745992     -8.61339708
 C     -1.52835987    -15.23071046     -9.07410127
 C     -0.90755957    -14.31261288     -8.00484740
 C     -0.52711938    -12.91380361     -8.52465302
 C     -0.17573986    -11.90691845     -7.41365586
 C      0.30319040    -10.53966847     -7.93600947
 C      0.46421634     -9.47130319     -6.83861880
 C      0.98351824     -8.11649657     -7.35478211
 C      0.98114257     -6.99963416     -6.29449313
 C      1.64773052     -5.69198241     -6.76065555
 C      1.54683896     -4.54022840     -5.74336326
 C      2.67225480     -3.49615194     -5.86560705
 C      2.60571091     -2.37692460     -4.80990725
 C      3.50615496     -1.16720079     -5.12194699
 C      3.37255323     -0.01042139     -4.11417123
 C      4.33681189      1.16174056     -4.37463546
 C      4.00553479      2.43504219     -3.57428651
 C      4.89235047      3.64409522     -3.92549688
 C      4.48244797      4.94844408     -3.21679808
 C      5.50925104      6.08743887     -3.35810041
 C      5.21239952      7.31182366     -2.47245880
 C      6.10095929      8.53301102     -2.77372773
 C      5.75993873      9.77816931     -1.93415295
 C      6.55965158     11.03504498     -2.32443862
 C      6.35277563     12.22919187     -1.37427257
 C      7.13183600     13.49431047     -1.77941435
 C      7.32855745     14.50294802     -0.63243964
 C      8.36465604     15.60136278     -0.93506930
 C      8.78079811     16.42643742      0.29687130
 C      9.41497126     17.78732532     -0.04577801
 C     10.54964395     18.20727323      0.90698725
 C     11.43137816     19.34829578      0.36642057
 C     12.03370450     20.24733064      1.46211182
 C     13.03839452     21.28892408      0.93553696
 C     13.86382247     21.97662371      2.03886734
 C     15.17293348     22.61357955      1.53675617
 C     16.18820344     22.92132578      2.65305325
 C     17.19439545     24.03116678      2.29607902
 C     18.35192427     24.17433452      3.30167836
 C     19.22774581     25.42065234      3.07534115
 C     20.18426450     25.73411584      4.24085075
 C     20.67299517     27.19411408      4.27472472
 C     21.64749494     27.50187057      5.42678208
 C     22.01105824     28.99254659      5.55833720
 C     23.19836338     29.26697564      6.49992904
 C     23.51926965     30.76187415      6.68404213
 C     24.68978257     31.03738490      7.64611974
 C     25.37753421     32.39703731      7.42264045
 C     26.58915651     32.64447509      8.34043452
 C     27.06192799     34.10976446      8.37228067
 C     28.19213929     34.38146203      9.38243059
 C     29.24957121     35.38422510      8.88453106
 C     30.45720129     35.54080044      9.82724723
 C     31.34911650     36.75451601      9.50633947
 C     32.32973453     37.12678830     10.63390393
 C     33.11618946     38.42559297     10.37661996
 C     34.08589810     38.80581091     11.51094773
 C     34.96895101     40.02775926     11.19684620
 C     35.96835396     40.38201875     12.31366935
 C     36.91290790     41.54660386     11.96272865
 C     37.51056916     42.25991099     13.18975512
 C     38.38300695     43.48023730     12.84153680
 C     38.46963532     44.52947232     13.96545913
 C     39.24489192     45.80186893     13.57612112
 C     39.18597880     46.91954607     14.63391459
 C     39.58155139     48.30879633     14.09996137
 C     39.52852633     49.42536586     15.15923511
 C     40.31420001     50.69247616     14.77355602
 C     40.06026165     51.89402720     15.70274405
 C     40.86100961     53.15521676     15.32884085
 C     40.67808353     54.32733207     16.31082035
 C     41.29635988     55.65217307     15.82694984
 C     40.95696009     56.86323342     16.71562335
 C     41.50791063     58.20112067     16.18826087
 C     41.17908637     59.41036098     17.08336560
 C     41.84895851     60.72241119     16.63459447
 C     41.29417351     61.97900562     17.33085882
 C     42.21188864     63.21106352     17.22393697
 C     41.66735788     64.46164086     17.93887932
 C     42.69867187     65.59517889     18.09081022
 C     43.83701564     65.27810842     19.07835252
 C     45.07452633     66.18065702     18.91843587
 C     45.77120995     66.52954483     20.24678417
 C     46.19859514     68.00460686     20.36138754
 C     46.29690576     68.51751347     21.81013246
 C     46.44306341     70.04626680     21.92481108
 C     46.62445421     70.55163408     23.36817566
 C     46.77084781     72.08036651     23.48283195
 C     47.16775587     72.56791049     24.88866439
 C     47.25393911     74.09994828     25.01917354
 C     45.89375236     74.78720420     25.24091958
 C     45.85668566     76.26102302     24.79585314
 C     44.73431372     77.08572246     25.45293157
 C     45.02293479     77.48585572     26.91176372
 C     43.88896409     78.28743913     27.57747724
 C     44.20326536     78.74156645     29.01503875
 C     43.03695076     79.46647451     29.71204560
 C     43.24402784     79.67707987     31.22345702
 C     41.98380519     80.15641988     31.96754844
 C     42.20712590     80.42868872     33.46674740
 C     41.04487174     81.17500430     34.14776012
 C     41.19703785     81.31168099     35.67411688
 C     39.89712409     81.70430934     36.40052392
 C     40.10677295     82.16341976     37.85546893
 C     38.82545862     82.67031665     38.54313827
 C     39.02940037     83.10291613     40.00699122
 C     37.73353483     83.12949552     40.83863178
 H     -0.36333333      0.00000000      1.02766186
 H     -0.36333333     -0.88998127     -0.51383093
 H     -0.36333333      0.88998127     -0.51383093
 H      1.88274777      0.97116200     -0.35702709
 H      1.88274777     -0.52778528      0.88998127
 H      1.62962592      1.33900355      1.67761730
 H      2.05048553      2.08354835      0.11659300
 H      4.05251115      0.94050127     -0.25642941
 H      4.04439642      0.43203786      1.44934483
 H      3.79107041      2.24472115      2.61718283
 H      3.53091624      2.87892255      2.06567963
 H      2.81851194      3.69929026      1.18494252
 H      4.40660697      4.01770877      0.44681617
 H      5.56244373      4.53050055      2.42187662
 H      3.99822822      4.68970652      3.25623264
 H      3.11564304      6.25992068      1.64178775
 H      5.11130775      6.74307479      1.75123287
 H      5.89913522      6.97272606      2.92257589
 H      4.35182854      7.29135668      3.74268761
 H      3.65072657      8.84889785      1.97144626
 H      5.33667661      8.84457592      1.40063941
 H      6.63940243      9.28153881      2.96782563
 H      5.29096373      9.91678101      3.94068075
 H      4.30013797     11.35992058      2.56452619
 H      5.73453450     11.33585216      1.51086877
 H      7.19987309     11.64512336      3.56729802
 H      6.09316894     12.31352159      4.21173104
 H      7.77148555     11.95625804      1.56438792
 H      8.24591524     11.18319326      3.09590807
 H      8.60870034     12.87183580      4.46998829
 H      8.66383176     13.98880082      3.08520805
 H     10.22400782     12.87411170      1.78699822
 H     10.66635322     11.89346142      3.20506812
 H     11.02682212     14.03247513      4.49216068
 H     10.96812767     14.87221219      2.92382931
 H     12.42530426     13.87430020      1.65616649
 H     13.15907801     13.11081977      3.08687973
 H     13.56622805     14.59089578      4.53299618
 H     13.39237492     15.86636963      3.30368408
 H     15.05971177     14.58334957      1.88290379
 H     15.42019012     13.63614049      3.34615940
 H     15.90583232     15.52661637      4.72089089
 H     15.64353289     15.97318854      4.52103635
 H     14.60890553     16.93260600      4.23858426
 H     15.64210791     17.46660544      2.89114072
 H     17.56755319     17.60228721      4.52496193
 H     16.35088146     17.46284367      5.81667864
 H     14.87549245     18.31395641      6.06168300
 H     15.45571348     19.63790008      5.02303803
 H     17.39083468     20.20494906      5.62200462
 H     17.17923110     19.35954562      7.17403026
 H     15.02238046     21.20677927      6.63681584
 H     16.60296037     21.86674753      5.61674301
 H     17.96984112     22.15300994      5.86283861
 H     17.47112469     22.38679812      7.55543769
 H     15.66282209     23.81021472      7.16835912
 H     16.25693441     24.06469932      5.50988548
 H     18.44844998     24.68245223      7.00458447
 H     17.29126930     24.65347684      8.35675309
 H     15.88879896     26.34645170      7.14506951
 H     17.28581472     26.59957855      6.07150516
 H     19.00898757     26.96337313      6.89214006
 H     18.22103763     27.40166077      8.42684052
 H     16.82784453     28.46469291      8.66288736
 H     17.10957942     29.21765490      7.07482554
 H     18.84449936     29.79262326      6.57635922
 H     19.36979705     29.78378071      8.27702110
 H     17.82600528     30.92557697      9.34638060
 H     17.22844500     31.57278483      7.79967107
 H     19.22352949     32.37010092      6.94362564
 H     19.94936213     32.22156273      8.56207244
 H     18.46689932     33.36050247      9.83318821
 H     17.76436487     34.06976979      8.35953565
 H     20.56173673     34.38983321      8.12902800
 H     20.55520235     34.30219745      9.56926385
 H     19.22198946     35.57276944      7.00732110
 H     20.69299532     34.57528483      6.91019814
 H     22.22667997     35.51207262      8.03229597
 H     21.31039195     37.03803555      8.04325364
 H     21.24673679     36.65517849      5.44642618
 H     22.48442172     35.41117036      5.74449735
 H     24.05809353     36.51768636      6.87062911
 H     23.32441723     38.06114878      6.37292486
 H     23.06495428     38.04007325      4.26757438
 H     24.18746514     36.66595460      4.12603308
 H     25.93761489     37.25043673      5.36973332
 H     25.55164203     38.82303748      5.19478926
 H     25.91717762     35.95402591      3.87334058
 H     26.37256998     36.19927888      5.57649514
 H     28.02392771     37.80044023      5.27006608
 H     28.05488062     37.39862622      3.53632616
 H     28.38688578     35.00629258      4.03462912
 H     28.76846994     35.48401628      5.70628705
 H     30.33209246     36.99961095      5.53596967
 H     30.62935765     36.51224388      3.85003568
 H     30.88905617     34.14555793      4.55446495
 H     31.67683239     35.22376212      6.11628654
 H     32.62656089     36.27436483      6.09967518
 H     33.11206464     35.62000133      4.51715783
 H     33.29808911     33.35044306      5.33561886
 H     33.24232221     34.00392162      6.99034618
 H     35.14277099     35.53405343      6.42468962
 H     35.38516268     34.54670543      4.96364312
 H     35.55207155     32.46483986      5.93045168
 H     35.78037332     33.24313792      7.51640265
 H     36.89254884     33.26687748      4.53879031
 H     35.72604223     31.95403474      4.82857112
 H     37.22599734     31.02676069      6.59901781
 H     38.49352492     32.10480614      5.96699051
 H     38.48154012     31.52250216      3.76209971
 H     37.54876899     30.06212176      4.16890897
 H     39.32791295     29.50102143      5.87809746
 H     40.33078973     30.74571807      5.09500417
 H     40.04445738     29.65174726      2.89382094
 H     39.41750003     28.23333001      3.76748201
 H     41.29334124     28.01306297      5.22237835
 H     42.19209744     29.11955041      4.15645645
 H     41.89217419     28.07582412      2.14131891
 H     41.35127436     26.61323496      2.99953043
 H     43.14808945     26.37061011      4.44666609
 H     44.07166106     27.52123039      3.45099792
 H     43.35166266     25.78664892      1.55031681
 H     42.87980662     24.74513412      2.91445223
 H     45.57506488     25.41442570      3.30184070
 H     45.41463738     26.00189279      1.62929410
 H     44.65286905     24.04552554      0.64195243
 H     45.15616428     23.14768025      2.09413507
 H     47.25236754     24.94381435      1.13746507
 H     46.81295789     24.72472704      0.08899478
 H     47.65483349     23.79403795      2.84387382
 H     47.84821672     25.40419117      2.11020073
 H     48.67115943     25.88664972      0.67469225
 H     49.65220747     24.40234345      0.72613447
 H     50.16567281     24.99739378      3.15895126
 H     49.49107206     26.60309872      2.79167463
 H     51.14914964     26.74087802      0.87040713
 H     51.96126174     25.33988480      1.60929725
 H     52.44836553     25.21388750      3.34986198
 H     52.36931162     26.98335848      3.52590059
 H     53.61184710     27.66083287      1.75320093
 H     54.24919787     26.00752413      1.58402385
 H     54.83251674     26.38625253      4.14616095
 H     54.45735905     28.09447204      3.81523876
 H     55.60593904     28.75049343      2.17075884
 H     56.68474809     27.34484741      2.33986524
 H     57.36629813     27.08983848      4.24157184
 H     56.90505230     28.75748242      4.65928305
 H     58.11157447     29.66689036      2.72502591
 H     58.90337535     28.08109229      2.56204587
 H     59.75401373     27.58016426      4.45998212
 H     59.59637351     29.27118143      4.99278337
 H     60.42808576     30.55404434      3.56217339
 H     61.64320874     28.96269694      3.29633262
 H     62.33271003     28.07841547      4.17924078
 H     62.22287510     29.39583700      5.37113149
 H     62.87990670     31.19391982      4.40137648
 H     63.61764123     30.23549028      3.09545641
 H     64.86849635     28.83717097      4.63654606
 H     64.49930909     30.02001214      5.91437789
 H     65.44510937     31.83312601      4.45831982
 H     66.13152720     30.53760582      3.44900091
 H     67.24859387     29.50423147      5.36967767
 H     66.92345776     31.00086276      6.27667709
 H     67.69851722     32.62280173      5.05707395
 H     68.63137268     31.45835255      4.08645278
 H     69.62667053     30.51362999      6.16573798
 H     69.00095134     31.94685722      7.01579792
 H     69.89700372     33.60616650      5.70854017
 H     70.99302553     32.41037812      4.97567388
 H     71.92526856     31.47389934      6.81830184
 H     71.31847455     32.82956781      7.79923543
 H     72.36745896     34.46142490      6.25833144
 H     73.28358883     33.10072314      5.56734413
 H     74.10511262     32.49994401      7.84524090
 H     73.51437712     34.09019362      8.38413271
 H     74.73273854     35.31724057      6.71121603
 H     75.68398478     33.84527159      6.40024243
 H     76.44839829     33.17386728      8.29602713
 H     76.08245258     34.75888556      9.01856949
 H     76.89176600     36.28398660      7.81886125
 H     77.93224371     35.10388852      6.98637021
 H     78.92182615     34.04904466      8.71314881
 H     78.39728845     35.35644565      9.80118810
 H     79.28111532     37.13592845      8.51008432
 H     80.22695095     35.94276018      7.58812385
 H     81.30724514     34.71868840      8.90280160
 H     81.05743542     35.88363829     10.22520605
 H     81.69612312     37.81847313      9.36999253
 H     82.51187639     36.96228645      8.03967015
 H     83.70055861     35.61067187      9.87564354
 H     83.09068628     36.83921918     11.01010108
 H     84.00542676     38.70258817      9.82671898
 H     85.00813718     37.56095312      8.89962251
 H     86.05560813     36.28520547     10.12174684
 H     85.77590325     37.35276358     11.51829670
 H     86.42394188     39.35062296     10.76693886
 H     87.25218520     38.56448898      9.40155503
 H     88.50031714     37.05432159     10.81959735
 H     88.04225255     38.07033323     12.20746041
 H     88.90939959     40.09259067     11.10663900
 H     89.72434390     39.02137691      9.94189289
 H     90.84826364     37.71401429     11.59575660
 H     90.95292433     39.67334801     12.25232966
 H     91.33834795     40.79243430     11.58729129
 H     92.18220786     39.63307767     10.53274905
 H     93.27164389     38.26957690     11.67620910
 H     93.15165362     39.33328014     13.09832176
 H     93.66806717     41.24187066     12.75717981
 H     94.50083854     40.77843418     11.25385511
 H     95.59595263     39.07945426     13.09294600
 H     94.79443603     40.15374033     14.26416214
 H     96.25253608     41.96638061     12.95601473
 H     97.08593586     40.55359700     12.26481726
 H     97.68684187     39.50390663     14.24885200
 H     97.31820833     41.00887197     15.12489727
 H     98.69977815     42.40006419     13.75842564
 H     99.45870284     40.92686675     13.10881861
 H    100.11323957     39.70269258     14.67148915
 H     99.98787599     41.06030742     15.81579357
 H    100.98230760     42.73662948     15.05180549
 H    101.84048351     41.71604032     13.87273867
 H    102.51189015     40.27692283     15.90565667
 H    101.93645493     41.63462078     16.90255048
 H    103.31309283     43.27566840     15.82895238
 H    104.24572517     41.94538237     15.10176419
 H    104.69032995     40.84383177     17.18200930
 H    104.16580919     42.32350179     18.02089026
 H    104.80748133     44.00525474     17.59460781
 H    106.21809173     43.29110495     16.77702903
 H    107.04995326     41.85666007     18.19927285
 H    106.10346282     42.59928085     19.51111769
 H    107.05140197     44.83705776     18.86706303
 H    108.23751527     43.94664788     17.88290240
 H    109.20657980     42.49809102     18.98343309
 H    108.67541259     43.26109863     20.50130906
 H    109.23317953     45.37131235     20.30478090
 H    110.30768691     44.96551655     18.94499035
 H    111.56821358     43.32640564     19.71405355
 H    111.06825849     43.71962226     21.37648919
 H    111.34002201     45.76336800     21.74222102
 H    112.40092334     45.89808267     20.31933416
 H    113.88113881     44.40609699     20.40173759
 H    113.54054780     44.13616630     22.12783199
 H    113.48018470     45.72081683     23.28046986
 H    114.34745465     46.68131085     22.05835663
 H    115.91933255     46.02192895     21.24489340
 H    116.13789413     44.83782791     22.55577182
 H    115.84992625     47.03656955     24.03225911
 H    116.05864688     47.90167514     22.49073561
 H    118.22267966     46.70543645     22.12629487
 H    118.13782380     46.21360998     23.83485358
 H    117.88339501     48.57125707     24.54385127
 H    118.38622456     49.03789560     22.90139043
 H    120.20052957     48.07377196     22.42835529
 H    120.47384911     47.70355634     24.14780389
 H    120.28940342     49.19004430     25.41531612
 H    120.43957465     50.37500501     24.09562547
 H    122.16173250     49.87394203     22.94594758
 H    122.75294155     48.82760565     24.25892842
 H    122.54258690     50.56149691     25.93885594
 H    122.03044003     51.52597555     25.12918989
 H    121.57156262     52.32556139     24.03917509
 H    123.26882271     52.33359264     23.50297519
 H    124.44812653     52.86253256     25.24867820
 H    122.98185679     53.44393681     26.07347441
 H    121.88653544     54.73316780     24.95252289
 H    123.27152440     55.01153903     23.86966478
 H    124.81131332     55.52258466     25.63280384
 H    123.42072154     55.69234385     26.73084892
 H    121.98056869     56.96908358     25.54700660
 H    123.09872138     57.63238579     24.86997571
 H    121.94536061     56.46697592     27.56632539
 H    120.96384678     56.56438958     26.08463452
 H    121.03753738     58.92943655     25.89250588
 H    121.63464385     59.00444685     27.56764885
 H    119.87159609     57.70319271     28.50183918
 H    118.96515305     57.92537993     26.98616755
 H    119.44488332     60.47888212     27.52013444
 H    119.93427019     59.88810670     29.12629495
 H    117.88987027     58.73795233     29.57202375
 H    117.15261470     59.61834907     28.21201548
 H    118.14265755     61.65678005     29.70173621
 H    118.35544098     60.39663730     30.94069954
 H    116.69222627     59.34277143     31.34494499
 H    115.68013266     60.59206826     30.58127581
 H    116.11602830     62.47309806     31.26884994
 H    116.96682655     61.78985868     32.67511911
 H    115.23270742     60.35218151     33.37656491
 H    114.11752791     61.23844643     32.30924311
 H    115.49212515     63.01858639     34.10730898
 H    115.93943420     61.45655588     34.83411155
 H    113.31261719     61.17240212     34.95650286
 H    113.26095134     62.91007535     34.57428686
 H    114.73201811     63.40070700     36.51625975
 H    114.40677700     61.74299360     37.07703704
 H    111.91477093     62.37920955     36.89390120
 H    112.48028437     64.06012546     36.74230007
 H    113.76660958     63.92065649     38.81982869
 H    112.88133786     62.42096592     39.18791678
 H    110.71442318     63.58317311     38.88375670
 H    111.61858335     65.11543203     38.93801252
 H    112.67576649     64.58272880     41.05650993
 H    111.49063258     63.26867246     41.24881230
 H    109.97380940     65.55114873     40.81033024
 H    111.53403000     66.36423964     41.08025896
 H    112.68720973     66.20644138     42.33138918
 H    111.43916855     65.53065568     43.40562080
 H    109.79646124     67.12132082     43.12950013
 H    111.00005855     68.20494636     42.39100446
 H    112.61033669     68.13658193     44.05519665
 H    111.40726912     67.42117237     45.15478031
 H    109.77489582     69.15390571     44.78720457
 H    111.05929797     70.12953673     44.03439525
 H    112.70852390     70.23161136     45.35242130
 H    111.68708939     69.68063104     46.70199861
 H    109.93811811     70.97426291     46.69228063
 H    110.78722266     72.12735137     45.63507907
 H    112.56920014     72.69353527     46.14218801
 H    112.30290487     72.14239934     47.81359541
 H    110.12508733     73.66809651     47.49166934
 H    110.11062190     73.74768069     46.57387538
 H    109.96710024     73.51206397     45.23064451
 H    111.28216797     74.70080179     45.07012678
 H    109.38174049     75.89322120     46.72326372
 H    108.38596323     74.52509870     46.17105438
 H    108.36170845     74.51174235     44.05242745
 H    108.96301020     76.18670557     44.01777084
 H    107.11439241     76.85812571     45.56794402
 H    106.36531001     75.28299355     45.21283713
 H    106.83203968     75.96980012     42.69172452
 H    106.71511340     77.27135447     43.08141770
 H    105.82104281     74.31251932     43.16963392
 H    107.07867404     74.98987371     42.10764458
 H    106.48365914     76.38877642     40.84129567
 H    104.78505370     75.90036882     41.05216111
 H    104.20286722     74.16277590     40.97399728
 H    105.67927303     73.67851074     40.10567718
 H    105.78140934     75.19186576     38.44912934
 H    104.08704233     75.63838504     38.76219102
 H    103.11823840     73.55260589     38.68259051
 H    104.59651367     72.91817181     37.92070975
 H    104.54608525     74.63579951     36.17366760
 H    102.87575713     74.99608238     36.67213211
 H    102.07266140     72.77125733     36.48717223
 H    103.54327323     72.36112039     35.57210108
 H    103.03370109     74.27055709     34.00911296
 H    101.41353600     74.31452167     34.74491106
 H    100.81409045     72.10274319     34.44489380
 H    102.15621070     71.92038489     33.29002352
 H    101.66659133     73.69994602     31.88991994
 H    100.04584012     73.79525078     32.61954258
 H     99.00541920     72.15335682     32.72993394
 H    100.04014335     71.37819330     31.50652309
 H     99.82254923     73.19270947     29.92839490
 H     98.46539012     73.80447172     30.90416781
 H     97.20035907     71.83820805     30.95441005
 H     98.20548745     71.19525693     29.63357795
 H     98.17758827     72.71381901     28.07375140
 H     96.77693868     73.49347018     28.84743832
 H     95.38343243     71.67733296     29.05236417
 H     96.41381431     70.78326501     27.90902592
 H     96.33970290     72.48151181     26.21232166
 H     94.98351339     73.22768064     27.09109850
 H     93.52510429     71.64470559     27.39617661
 H     94.33860779     70.64722543     26.16674095
 H     94.36209260     72.26731260     24.45674504
 H     93.17754982     73.21453754     25.38835117
 H     91.61554305     71.42995435     25.64786060
 H     92.49492040     70.53797228     24.38321435
 H     92.91093441     71.34213459     22.73280698
 H     91.67497463     72.59543259     22.99721993
 H     89.86472905     71.37047343     23.53225934
 H     90.67586877     69.91409251     22.90834139
 H     91.40778676     70.23427122     20.99313871
 H     90.37393880     71.67203623     20.81353680
 H     88.48374081     69.98788324     21.54605028
 H     89.70114345     68.72398896     21.24810948
 H     90.20932607     69.34485218     19.02993986
 H     88.74156860     70.35170109     19.01545144
 H     87.26241805     68.61978634     19.71066725
 H     88.55925301     67.76170496     18.34525043
 H     88.91918461     68.18274746     17.11444263
 H     87.39062773     69.09010407     17.20655393
 H     86.20243773     67.00512709     17.89653119
 H     87.50984041     66.12799370     17.68062535
 H     88.76948849     65.71405923     17.10052049
 H     88.05898499     66.15797205     15.53004513
 H     86.06208046     65.10659908     15.61473196
 H     86.64515951     64.13097405     16.98456453
 H     88.63042056     63.57892040     15.37253674
 H     87.61267165     64.29424313     14.09944318
 H     85.71136485     63.25662765     14.18671909
 H     86.44931218     61.96779483     15.16784620
 H     88.14084589     61.20730200     14.43953286
 H     87.78881693     61.88552686     12.83194046
 H     85.85619128     61.39996433     12.23530918
 H     85.76976415     60.12528759     13.47466233
 H     87.67422451     58.96982028     13.06270240
 H     87.81277514     59.78341644     11.48563814
 H     85.86943687     59.49199299     10.51834404
 H     85.47335679     58.21090185     11.68889636
 H     87.34273450     56.89497601     11.48236951
 H     87.75671416     57.75291027      9.97876175
 H     86.27388982     57.86978500      8.64155207
 H     85.39188151     56.55868964      9.46091582
 H     87.27484109     55.07676004      9.62461979
 H     87.99580070     55.90062923      8.40380531
 H     85.30905918     54.52669835      9.43224861
 H     86.77716985     54.33017926     10.41931394
 H     88.02498061     53.19829292      8.72025482
 H     86.50241232     52.95824323      7.83007023
 H     85.05773701     52.10270632      9.05483035
 H     86.79591387     51.07482857      9.50543211
 H     87.64827167     50.52334749      8.49225295
 H     86.23226509     50.63387756      7.41941786
 H     84.64170467     49.64686553      8.72878790
 H     85.92813223     49.00107495      9.77584345
 H     87.09717345     48.00284768      7.85880693
 H     85.62038262     48.28036470      6.90468963
 H     84.00155607     47.37113550      8.04613568
 H     85.18656138     46.47373760      9.02527106
 H     86.35732998     45.54233947      7.16794709
 H     84.99610580     46.02407490      6.12714627
 H     83.32012069     44.94715201      7.44581221
 H     84.61660768     44.06409910      8.28700523
 H     85.80864433     43.14739548      6.69150507
 H     84.49193883     43.44411878      5.53111351
 H     82.68421976     42.71279705      6.30366666
 H     83.56734737     41.74334492      7.50720928
 H     85.03089749     40.67606993      6.01066562
 H     83.99112798     41.20945303      4.66803817
 H     82.11633493     40.03249633      6.09828790
 H     83.46778527     39.34208295      7.02843736
 H     84.32686555     38.46628032      4.76161433
 H     82.71862532     38.88828725      4.12620880
 H     81.31820391     37.84175933      5.48790881
 H     82.86541809     36.57482114      5.62682134
 H     83.78768081     35.96079834      4.75380539
 H     82.54045973     36.19762399      3.50615967
 H     80.75744682     35.26493759      4.78456517
 H     81.97017660     34.59255794      5.90056640
 H     83.43211274     33.54632738      5.01756779
 H     82.46245224     33.38791471      3.53334051
 H     80.51627453     32.65571544      4.16323830
 H     81.19300730     32.19113522      5.74262573
 H     82.82838568     31.00112423      3.81539200
 H     80.89419297     31.01684712      3.11205315
 H     79.70307867     30.58461860      3.64160090
 H     80.73746566     29.52809485      4.63259423
 H     82.11781415     28.57769015      3.24150358
 H     81.08309955     29.05808605      1.87517560
 H     79.09327480     28.45408150      2.28288292
 H     79.66936661     27.36053351      3.56371768
 H     81.28520454     26.26676986      2.14871860
 H     80.47682203     27.00663915      0.74608614
 H     78.40977165     26.57896442      0.83633993
 H     78.71024674     25.28806688      2.02443290
 H     80.41324096     24.67277256     -0.04517734
 H     79.46186791     25.90164341     -0.91295174
 H     77.37579493     24.61215201     -0.38423989
 H     78.43804618     23.26342112      0.08566856
 H     79.76538482     22.91921807     -1.59116478
 H     78.69678202     23.87554682     -2.64557933
 H     76.78494048     23.41867827     -2.61213417
 H     77.14336971     21.83953777     -1.87314132
 H     78.67975185     20.91628419     -3.05879737
 H     78.36548033     22.06414896     -4.38239343
 H     76.15856010     21.90723329     -4.67402400
 H     76.14453371     20.39968138     -3.72779087
 H     77.99876194     19.65005226     -5.40378786
 H     77.51326002     21.06791987     -6.36410343
 H     75.21099366     20.50140488     -6.49547109
 H     75.62602041     18.86326895     -5.93642715
 H     77.31220109     18.75925285     -7.83508644
 H     76.50641225     20.20503499     -8.48982688
 H     74.33430354     19.42484909     -8.54889344
 H     74.94804792     17.76794560     -8.33382290
 H     76.46876054     17.50702193     -9.88148427
 H     75.85311439     18.94162417    -10.73656492
 H     73.64721464     18.46636528    -10.89126648
 H     73.99462878     16.77055444    -10.47678405
 H     75.67796198     16.58497812    -12.24850140
 H     75.03949194     18.10501418    -12.91940605
 H     72.77917058     17.39908280    -13.04214327
 H     73.33261297     15.72443906    -12.80227551
 H     74.90201986     15.53763036    -14.42801388
 H     74.26413521     17.01120815    -15.19608831
 H     71.98556774     16.14816096    -15.24227036
 H     72.65559071     14.53932100    -14.88037277
 H     74.21562378     14.38748519    -16.56794076
 H     73.42941341     15.75736964    -17.38864565
 H     71.23534371     14.68425517    -17.31250455
 H     72.06541454     13.16723133    -16.89073714
 H     73.58884848     12.85754506    -18.39109861
 H     72.80647420     14.05703676    -19.44815907
 H     70.77742478     13.64036471    -19.65491401
 H     71.03119510     11.98907342    -19.04082577
 H     72.58873428     11.05727028    -20.05740069
 H     72.49936594     12.27301366    -21.35441572
 H     70.36274809     12.30589287    -21.91848329
 H     69.92049489     11.89118348    -21.28113556
 H     69.30128576     11.52192043    -20.08323147
 H     69.72881960      9.86072076    -20.55851785
 H     69.57790523      9.07015699    -22.09218863
 H     68.35007480     10.25619519    -22.59618515
 H     66.89116979     10.56577805    -21.25288982
 H     67.31188139      9.05827457    -20.40512708
 H     67.26548361      7.66868354    -22.32871467
 H     66.42734761      8.97497026    -23.20015584
 H     64.69427190      9.15905164    -21.49185098
 H     65.06792495      7.13717780    -21.72162408
 H     65.08368686      6.44308973    -22.93854599
 H     64.11751448      7.80703770    -23.55044755
 H     62.52256214      8.09860986    -22.09254065
 H     62.65793657      6.05572380    -22.38927880
 H     62.66408559      5.48661280    -23.68112668
 H     61.94537898      7.02848649    -24.20491387
 H     60.31981596      7.46325777    -22.87331757
 H     60.32196840      5.77828316    -22.29962549
 H     60.22490307      4.66942990    -24.30123790
 H     59.75504049      6.18926037    -25.09974348
 H     57.90212826      6.11459259    -23.17190012
 H     58.44998169      4.43639745    -22.94433834
 H     58.50754490      3.27273343    -24.49046233
 H     57.42564516      4.36259140    -25.39044523
 H     55.74908161      4.83824624    -24.25493836
 H     56.07586847      3.47362391    -23.15982061
 H     56.38440001      1.71954879    -24.17632609
 H     55.65128158      2.41098900    -25.64353926
 H     53.64933830      3.08170880    -24.29125140
 H     54.27302301      2.01773927    -23.00779789
 H     54.80627720      0.32641985    -23.18481057
 H     53.88670400      0.17317621    -24.70111139
 H     51.86061905      0.95555406    -24.10277630
 H     52.31714914      0.80233738    -22.38919187
 H     52.95572371     -1.58395099    -22.79404101
 H     52.10154805     -1.45539598    -24.35035853
 H     50.04630211     -0.68486026    -23.42656228
 H     50.63311116     -1.18220476    -21.82139243
 H     51.16281698     -3.41934833    -22.45657145
 H     50.21488380     -3.17289799    -23.94282566
 H     48.24211656     -2.43444349    -23.05948036
 H     48.76287023     -3.01020592    -21.45773759
 H     49.22114627     -5.26631883    -22.43971186
 H     48.30941032     -4.73011140    -23.87131439
 H     46.35432625     -4.09295171    -22.63625571
 H     47.00172693     -5.89960687    -21.86399896
 H     47.26387299     -7.02237996    -22.65043369
 H     46.24036549     -6.21386868    -23.86163499
 H     44.45299758     -5.78691281    -22.27670591
 H     45.23826044     -6.94077371    -21.17206392
 H     45.10859328     -8.57068372    -23.19960503
 H     44.00374149     -7.37487550    -23.91905752
 H     42.50631861     -7.36026280    -22.02971598
 H     43.30767210     -8.84114807    -21.45258681
 H     42.34018582     -9.07670402    -24.17600546
 H     41.55516846     -7.55345368    -23.69462949
 H     40.42138772     -7.91605072    -21.93009829
 H     40.51383534     -9.67106139    -22.21233519
 H     39.83564066     -9.89876911    -24.31508280
 H     39.17269227     -8.24727514    -24.27856215
 H     37.94590532     -7.98503063    -22.61776165
 H     38.08195822     -8.71172815    -22.05641674
 H     38.61280607     -9.55973042    -21.14642715
 H     37.67386662    -10.77927090    -22.04050789
 H     35.64412537     -9.81745309    -22.16663093
 H     36.12321865     -8.65922152    -20.90281294
 H     36.87404560    -10.07345045    -19.28564877
 H     36.08474092    -11.42986914    -20.12552562
 H     33.99865945    -10.72403982    -20.41326074
 H     34.27196741     -9.43358278    -19.21814985
 H     35.08949077    -10.79070192    -17.48841555
 H     34.47577266    -12.21521585    -18.36155748
 H     32.70609301    -12.18942009    -17.29233935
 H     32.53988053    -10.25204493    -17.45991619
 H     33.31765279    -10.88615985    -15.72652008
 H     32.87933164    -12.56787870    -16.11117962
 H     30.55656113    -11.94172781    -16.59759421
 H     30.88905301    -10.37655964    -15.81787348
 H     31.71355853    -11.16551968    -13.79515982
 H     31.05559165    -12.77287559    -14.18471499
 H     28.84319522    -11.30348249    -14.50319506
 H     29.78209167    -10.02258627    -13.69942581
 H     30.66243206    -10.25639125    -12.10108209
 H     29.66522825    -11.68299428    -11.72871803
 H     27.70868992    -11.44975279    -11.95748497
 H     27.88717341     -9.67883463    -11.94138595
 H     29.08032290     -9.23513160    -10.16265137
 H     28.75986091    -10.86901200     -9.53336162
 H     26.89119284    -11.46143986     -9.50873815
 H     26.32398175     -9.78209250     -9.67100545
 H     27.90872498     -9.35608221     -7.63279852
 H     27.96837812    -11.12906838     -7.48709955
 H     25.86403507    -11.75426809     -7.38363562
 H     25.37965810    -10.07788835     -7.03235714
 H     27.28853563    -10.54460079     -5.13991662
 H     27.10639203    -12.23730334     -5.65938600
 H     24.72877210    -12.28757194     -5.26442091
 H     24.90494552    -10.77469458     -4.34331741
 H     26.37169431    -10.93159585     -2.90019610
 H     26.33827639    -12.70689131     -3.02459845
 H     24.05466702    -13.03271141     -2.77494213
 H     23.90749065    -11.36067187     -2.18258281
 H     25.67121874    -11.79612888     -0.48143888
 H     25.46998435    -13.52842465     -0.83770108
 H     23.49137498    -14.10398140     -0.70163609
 H     23.09803994    -12.62376701      0.20529255
 H     24.62326516    -12.61055855      1.83509679
 H     24.99152287    -14.31926151      1.49896124
 H     23.00571579    -15.30575335      1.54079010
 H     22.31351829    -13.87662024      2.34497157
 H     23.38928911    -13.29477448      3.98012184
 H     24.20788093    -14.87432770      4.03656403
 H     22.36067648    -16.25536075      3.97395464
 H     21.33034059    -14.85712189      4.36331654
 H     22.51851528    -14.15904732      6.27695298
 H     23.35357782    -15.73094391      6.28580382
 H     21.33231805    -17.02611437      6.23927332
 H     20.43587269    -15.54749617      6.66157725
 H     22.37252434    -15.76128066      8.62161158
 H     22.57958864    -17.38833206      7.93016761
 H     20.11113677    -17.78092436      8.35037297
 H     20.15581410    -16.31917558      9.36504587
 H     22.00372952    -17.21371022     10.71407937
 H     21.67206290    -18.80348159      9.98545676
 H     19.44655895    -19.01667221     10.42373399
 H     19.56589274    -17.68562740     11.59946602
 H     21.01348821    -17.85177502     12.94507460
 H     21.17287371    -19.59137593     12.60353162
 H     18.52548405    -19.42991133     13.05634157
 H     18.91062210    -17.80665542     13.67680558
 H     20.38724399    -17.88364652     15.12213003
 H     20.12823450    -19.63263364     15.32761680
 H     18.17626324    -20.12753193     15.59553878
 H     17.77503994    -18.44023937     15.99595147
 H     18.90472560    -17.55200494     17.33107054
 H     19.51664690    -19.12232169     17.90371728
 H     17.71142540    -20.32746524     18.26078285
 H     16.71441876    -18.85370643     18.21303976
 H     17.80250992    -17.53586247     19.70575461
 H     18.67882669    -18.96332390     20.30799164
 H     16.89899705    -20.35961747     20.72793721
 H     15.80219856    -18.96271627     20.60975611
 H     16.94195222    -17.59695936     22.16830620
 H     17.84020731    -19.03453964     22.71123105
 H     16.28994169    -20.52531072     23.16493257
 H     15.05408604    -19.24432629     23.16745629
 H     16.11084929    -17.79083897     24.66555557
 H     17.20261872    -19.11689514     25.13233303
 H     15.05266656    -20.46926723     25.57622906
 H     14.19462977    -18.91456007     25.45406036
 H     15.10211202    -17.53613915     26.78971870
 H     15.91319537    -18.87126350     27.64286197
 H     13.69160708    -20.01386622     27.89027717
 H     13.27874779    -18.00440123     28.07196907
 H     13.91026765    -17.04865241     28.90647193
 H     14.42841227    -18.44737015     29.87775022
 H     12.80725779    -19.71111994     30.24927383
 H     11.66927594    -18.42016665     29.79462718
 H     12.14309563    -16.65952526     30.83715710
 H     13.13965443    -17.58434722     31.98600068
 H     11.29634832    -19.15439230     32.42964835
 H     10.21215266    -17.99541569     31.62369570
 H     10.55882287    -16.08478779     32.63111968
 H     11.37100832    -16.93165035     33.96956851
 H      9.99571120    -18.50559304     34.59033399
 H      8.67312301    -17.70854970     33.70503795
 H      8.64231445    -15.65045714     34.33842159
 H      9.65536622    -16.05586543     35.74470638
 H      8.68690731    -17.73290510     36.72374125
 H      7.19062313    -17.41058524     35.81516532
 H      6.51106393    -15.58428375     35.81369388
 H      7.50351135    -15.18037591     37.23502186
 H      6.57637884    -17.18915050     38.41532440
 H      5.34591236    -17.26273894     37.13126691
 H      4.42570939    -15.32991993     37.00998579
 H      5.09391036    -14.89718564     38.60200186
 H      4.35009988    -16.75098675     39.79580926
 H      3.24567213    -17.13648757     38.45420756
 H      2.17632110    -15.11197774     38.23853088
 H      2.81754656    -14.62744513     39.82671372
 H      1.81047668    -16.79779671     40.73161971
 H      1.53253732    -17.29111396     39.75987738
 H      1.56497598    -17.91624458     38.60098244
 H      0.14249673    -16.89184960     38.29205792
 H     -1.23153158    -16.62446737     39.42123245
 H     -0.81316633    -18.10424642     40.31760913
 H     -0.92696730    -18.94842342     37.70563616
 H     -1.67388331    -17.35419593     37.44329700
 H     -3.40739192    -17.61953664     39.03891578
 H     -3.04427020    -19.36152636     39.08228774
 H     -3.01079140    -20.18205303     37.19330036
 H     -3.87395329    -18.77011333     36.53782762
 H     -5.61602029    -18.50636066     37.83482923
 H     -5.38695198    -20.14729893     38.48530288
 H     -5.32681000    -21.15271462     36.26730348
 H     -5.97089918    -19.62247463     35.62560153
 H     -7.84556817    -20.00444289     37.41428348
 H     -7.18438030    -21.65144196     37.55026630
 H     -7.07527051    -22.56046785     35.68499100
 H     -7.47953288    -21.64646631     34.92145361
 H     -7.84695110    -20.48108000     34.26448579
 H     -9.46889160    -20.82882855     34.90996748
 H     -9.35588765    -23.15368063     34.08157377
 H     -7.95297821    -22.65684536     33.10522012
 H     -8.62300614    -20.91034718     31.97453518
 H    -10.31665246    -21.31169744     32.34702248
 H    -10.16658625    -23.57599755     31.58152765
 H     -8.84186456    -22.64512338     30.35247070
 H     -8.80360176    -21.49560303     29.59410622
 H    -10.57692117    -21.64923890     29.59507971
 H    -11.06729824    -23.65723149     29.07214289
 H     -9.41802203    -23.91526389     28.45442620
 H     -9.19904158    -22.13482530     27.05454210
 H    -10.95991496    -21.88365735     27.12167069
 H    -11.78275604    -23.89043638     26.61281505
 H    -10.26201998    -23.50659553     25.26708964
 H    -10.00101291    -22.45292579     24.53577293
 H    -11.73767587    -22.16439114     24.79848223
 H    -12.25682549    -24.48891674     24.10144176
 H    -10.59591949    -24.58441203     23.46856059
 H    -10.66862749    -22.67784979     22.11236211
 H    -12.44118839    -22.66973539     22.27431484
 H    -12.46426611    -25.06734473     21.49850118
 H    -10.77498935    -24.82014825     20.99500880
 H    -10.83972395    -23.03211060     19.70831644
 H    -12.60694878    -23.19319212     19.56962322
 H    -12.12030727    -25.62190330     18.83662606
 H    -10.42684057    -25.10052053     18.66751895
 H    -10.38030796    -23.38033723     17.41503468
 H    -12.03120109    -23.72889538     16.84817866
 H    -11.36514584    -26.05062232     16.26803470
 H     -9.67459192    -25.52458442     16.45127839
 H    -10.11574175    -23.66994698     14.81617067
 H    -11.62724770    -24.51578582     14.40608157
 H    -11.22814729    -26.51055638     13.92170223
 H     -9.50145283    -26.13511979     13.70759881
 H     -9.28893485    -24.47708751     12.43711705
 H    -10.96755684    -24.66652037     11.87621593
 H    -11.44940823    -26.52295579     11.29352024
 H     -9.72889589    -26.95762738     11.15508414
 H     -9.45819916    -24.87114532      9.70828668
 H    -11.23589484    -24.83043562      9.62824007
 H    -10.92914176    -27.29323729      8.75667314
 H     -9.20968122    -26.86438224      8.58992349
 H     -9.23343019    -25.03382925      7.34519751
 H    -10.91795541    -25.37184930      6.88002669
 H    -10.48016829    -27.61802417      6.16125890
 H     -8.74245104    -27.23327934      6.18527630
 H     -8.40483301    -25.48005848      5.06025200
 H    -10.00622826    -25.63773662      4.29937256
 H    -10.08808528    -27.69084311      3.54831020
 H     -8.32285419    -27.83257946      3.72757720
 H     -7.85918200    -25.82605219      2.47230400
 H     -9.54387196    -25.86131986      1.89885602
 H     -9.58338081    -28.03392919      1.07733329
 H     -7.80540945    -28.06668860      1.15486609
 H     -7.36173831    -26.13224236     -0.04163895
 H     -9.04381969    -26.13696408     -0.62374425
 H     -9.28991777    -28.19179923     -1.45266680
 H     -7.52258456    -28.40329344     -1.44428927
 H     -7.35003264    -26.23724618     -2.74961553
 H     -9.10330536    -26.38044944     -3.02126652
 H     -9.49411771    -28.30925468     -3.83638755
 H     -7.77120856    -28.50577811     -4.23792120
 H     -8.06208284    -26.07951078     -5.26881556
 H     -9.59244573    -26.39403621     -5.33880547
 H     -6.64286288    -27.42544791     -5.91307323
 H     -6.90587294    -25.75433286     -5.35947875
 H     -8.16243248    -24.86887386     -6.96767403
 H     -7.74378988    -26.22694715     -8.03942118
 H     -5.44262954    -26.14534556     -7.85748704
 H     -5.54794024    -24.58030460     -7.10323825
 H     -6.12653822    -23.28295185     -6.93170260
 H     -6.42736859    -23.32745806     -8.68549477
 H     -4.53625079    -23.93259626     -9.58939529
 H     -3.68427446    -23.56146194     -8.07128386
 H     -4.76369358    -21.26384360     -8.14848394
 H     -5.20261888    -21.64146238     -9.83164029
 H     -3.07522924    -22.19090911    -10.61158176
 H     -2.38002222    -21.44586414     -9.15217714
 H     -3.70381671    -19.37636643     -9.50020792
 H     -3.90896277    -19.83976061    -11.08756363
 H     -1.85115019    -19.43597509     -8.68483855
 H     -3.52746749    -18.89158708     -8.43610444
 H     -3.07555074    -17.28059322    -10.40512379
 H     -1.35882791    -17.69973489    -10.19193451
 H     -1.01118817    -17.26642732     -8.02296252
 H     -2.52966809    -16.33921277     -7.97044034
 H     -2.42545150    -14.91866489     -9.60884809
 H     -0.67259445    -15.19493299     -9.74825668
 H     -0.07707127    -14.84251842     -7.53838271
 H     -1.66831146    -14.09708109     -7.25457904
 H     -1.34606855    -12.54271424     -9.14086317
 H      0.37218499    -13.00727452     -9.13343446
 H      0.47082216    -12.40529074     -6.69137987
 H     -1.09999923    -11.60098620     -6.92350273
 H     -0.35506597    -10.23368870     -8.74913611
 H      1.31901924    -10.65398199     -8.31432704
 H      0.96952856     -9.92769138     -5.98746113
 H     -0.52862181     -9.13844256     -6.53600321
 H      0.44528583     -7.86919911     -8.26979568
 H      2.04629828     -8.21799250     -7.57454827
 H      1.37869745     -7.40817980     -5.36543954
 H     -0.04836078     -6.67731877     -6.13849428
 H      1.30350465     -5.47320483     -7.77146954
 H      2.72737621     -5.84163852     -6.76891626
 H      1.77524141     -4.93599989     -4.75376878
 H      0.52523759     -4.16039370     -5.75586265
 H      2.81517353     -3.26833116     -6.92190811
 H      3.58684323     -3.92898741     -5.46029057
 H      2.39809534     -2.83141007     -3.84117677
 H      1.79221737     -1.70220615     -5.07652168
 H      3.39148241     -0.91760586     -6.17677047
 H      4.54037740     -1.45011257     -4.92587337
 H      3.36783786     -0.43079788     -3.10850659
 H      2.42658337      0.49830073     -4.29975905
 H      4.33325806      1.37755937     -5.44305000
 H      5.33760197      0.85669906     -4.06890862
 H      3.77739359      2.14546612     -2.54851983
 H      3.12961018      2.90366604     -4.02289298
 H      4.98158445      3.70006454     -5.01039537
 H      5.87777614      3.48507174     -3.48760674
 H      4.27579947      4.72007179     -2.17121571
 H      3.57728565      5.32676217     -3.69183134
 H      5.84224648      6.12197447     -4.39541489
 H      6.35809121      5.86588276     -2.71119759
 H      4.93700084      6.95761074     -1.47908637
 H      4.37497738      7.85587507     -2.90930226
 H      6.16098175      8.65475399     -3.85524331
 H      7.09641932      8.33951712     -2.37407859
 H      5.61096048      9.46459345     -0.90091742
 H      4.83603295     10.20911969     -2.31987290
 H      6.57382073     11.10831163     -3.41188114
 H      7.57868810     10.92145173     -1.95462632
 H      6.39583502     11.86260869     -0.34866901
 H      5.36770462     12.65406156     -1.56719964
 H      7.01813737     13.63742621     -2.85397961
 H      8.18448184     13.33904471     -1.54292060
 H      7.62521799     13.95287930      0.26059839
 H      6.37833186     15.00516140     -0.45090988
 H      8.19114130     15.96670053     -1.94725553
 H      9.35957029     15.16038927     -0.87352254
 H      8.95230724     15.74073698      1.12663001
 H      7.96417470     17.10338735      0.54779955
 H      8.81902074     18.25566775     -0.82910320
 H     10.42561447     17.61145019     -0.41424542
 H     11.19208812     17.34323871      1.07672181
 H     10.10549412     18.52096166      1.85167265
 H     11.08498280     20.28522507      0.80262438
 H     12.07775104     18.94267072     -0.41189197
 H     12.41219677     19.60842666      2.26001238
 H     11.24291802     20.88737620      1.85338976
 H     12.62123546     21.74388219      0.03715429
 H     13.96600860     20.77427309      0.68500460
 H     14.19998239     21.21385463      2.74120618
 H     13.21968487     22.68793394      2.55580495
 H     14.96038840     23.15020001      0.61211404
 H     15.88803829     21.81544632      1.33748633
 H     16.23156066     22.06273674      3.32316145
 H     15.83814217     23.79455060      3.20353988
 H     16.64938460     24.84956549      1.82566779
 H     17.91816704     23.62357168      1.59030220
 H     18.71740565     23.17736783      3.54780998
 H     17.96650072     24.65258470      4.20213683
 H     18.57202844     26.27077100      2.88710463
 H     19.85470915     25.24483457      2.20121010
 H     20.64951951     24.80235279      4.56249559
 H     19.59988403     26.15057879      5.06131286
 H     19.81877562     27.84584703      4.09127687
 H     21.40884092     27.32771821      3.48176761
 H     22.37365062     26.69122859      5.48725941
 H     21.24882190     28.34006478      5.99826286
 H     21.09746530     29.57838431      5.45713393
 H     22.69884764     29.24997335      4.75287013
 H     23.98179012     28.54041726      6.28439373
 H     22.85749950     29.13970885      7.52740896
 H     22.58182619     31.29797880      6.83200011
 H     24.00479326     31.12242455      5.77719582
 H     25.49498761     30.34008185      7.41479033
 H     24.34311173     30.86688806      8.66535973
 H     24.60486389     33.15376482      7.28683157
 H     25.98347428     32.33022749      6.51905145
 H     27.19117584     31.73616028      8.36567212
 H     26.22085291     32.86421998      9.34251468
 H     26.18469706     34.75118715      8.45679597
 H     27.57944607     34.32333822      7.43704739
 H     28.92789722     33.58181653      9.29683080
 H     27.76443833     34.37587134     10.38499762
 H     28.73338908     36.22332321      8.41808668
 H     29.87383528     34.88451158      8.14380116
 H     30.76957849     34.54825008     10.15184585
 H     30.14296006     36.12398601     10.69283781
 H     30.70452481     37.61193060      9.31284072
 H     31.92904327     36.52676324      8.61196057
 H     32.78518356     36.21011486     11.00857178
 H     31.76580865     37.60578209     11.43431167
 H     32.42290016     39.17687798      9.99843909
 H     33.87743816     38.22186283      9.62356322
 H     34.61979583     37.90750971     11.82096090
 H     33.50140540     39.18809882     12.34780149
 H     34.34184210     40.79710710     10.74635944
 H     35.73649520     39.72225995     10.48575824
 H     36.43264979     39.45990938     12.66330298
 H     35.41742062     40.84460039     13.13256536
 H     36.32390962     42.33773056     11.49872481
 H     37.65616756     41.18316465     11.25309704
 H     37.83498903     41.50182438     13.90260605
 H     36.73204957     42.87435530     13.64193367
 H     37.86682036     44.06441607     12.07970575
 H     39.33170534     43.12079004     12.44295300
 H     38.62813188     44.00819133     14.90951684
 H     37.52392452     45.07012189     14.00326287
 H     38.92415628     46.10737687     12.58018260
 H     40.30830368     45.56326649     13.55811232
 H     39.34680823     46.47203255     15.61471301
 H     38.19510911     47.37239757     14.59923350
 H     39.09562882     48.45640893     13.13549791
 H     40.66341809     48.33027644     13.96880101
 H     39.98736009     49.05152751     16.07455825
 H     39.18239348     50.33940795     14.67672178
 H     40.09341881     50.92912686     13.73271400
 H     41.37828868     50.48178022     14.88043220
 H     40.08365355     51.54098381     16.73372086
 H     39.07267038     52.29748893     15.47917724
 H     40.80313910     53.29027719     14.24879007
 H     41.89982006     53.00065689     15.62053261
 H     40.73653381     53.93591197     17.32643537
 H     39.69252139     54.76250390     16.14531281
 H     41.03904957     55.78696256     14.77636753
 H     42.37927653     55.58276600     15.92978079
 H     41.07201065     56.56636128     17.75808693
 H     39.92034234     57.14458903     16.53025166
 H     41.31704810     58.25170210     15.11629398
 H     42.58285932     58.22357756     16.36737256
 H     41.35817226     59.12768071     18.12072769
 H     40.12598390     59.65846708     16.95100792
 H     41.74133068     60.80986447     15.55345240
 H     42.20520339     61.24622060     17.52161943
 H     41.19264279     61.76473545     18.39475723
 H     40.31342986     62.19956268     16.90943687
 H     42.57325628     63.28127286     16.19798177
 H     43.05672987     63.06866489     17.89778111
 H     42.34382749     64.71088442     18.75641618
 H     40.85334675     64.87120758     17.34076480
 H     43.22831221     65.70577728     17.14458133
 H     43.69504529     65.17090591     17.96698596
 H     44.18104774     64.26116369     18.88976479
 H     43.44058562     65.34555391     20.09146374
 H     44.73534126     67.21007810     18.80291222
 H     45.61034992     65.87176766     18.02089453
 H     45.84302619     65.62123425     20.84504358
 H     45.15978792     67.26322514     20.77211865
 H     45.37807306     68.62781109     20.00577540
 H     47.07246523     68.15843451     19.72830925
 H     46.80854410     67.76251631     22.40704576
 H     45.28620610     68.65963718     22.19273804
 H     45.73563303     70.51070390     21.23783186
 H     47.45925092     70.31595886     21.63718435
 H     47.34380413     69.90451535     23.87004521
 H     45.66245460     70.48871124     23.87679877
 H     46.02227495     72.54543383     22.84138744
 H     47.76721060     72.35613403     23.13741414
 H     47.96259220     71.92298742     25.26337688
 H     46.29654073     72.48585426     25.53854973
 H     46.51519646     74.54293288     24.35124844
 H     48.16236530     74.43596426     24.51921842
 H     45.33807006     74.21560097     25.98428149
 H     45.34903849     74.78178152     24.29680232
 H     46.34494601     76.33807356     23.82437743
 H     46.40655793     76.85375077     25.52688959
 H     44.55012060     76.68188399     26.44846529
 H     43.78710871     76.80224332     24.99408273
 H     46.05317764     77.83639089     26.97360839
 H     44.90111204     76.60330800     27.53975157
 H     42.94072837     77.81064915     27.32924280
 H     43.90286390     79.30016342     27.17461708
 H     45.22072736     79.13196820     29.03642904
 H     44.13300103     77.87429343     29.67154498
 H     42.12029995     78.91135055     29.51282543
 H     43.44446729     80.29945759     30.28490638
 H     44.26468179     80.02411479     31.38449200
 H     43.10221386     78.72001984     31.72547781
 H     41.13523258     79.56778503     31.61893183
 H     42.21827143     81.09528681     32.46920017
 H     43.13983330     80.98135479     33.57951758
 H     42.28791247     79.47088412     33.98073562
 H     40.10847933     80.72529636     33.81756017
 H     41.07716718     82.21848990     33.83439961
 H     42.22403143     81.60534376     35.89124901
 H     40.99305277     80.34149479     36.12713877
 H     39.08272752     81.10474432     35.99385452
 H     39.70247963     82.75946255     36.20852067
 H     40.96152151     82.83929756     37.88181492
 H     40.31925916     81.28499219     38.46482483
 H     38.01504369     81.97978999     38.30968467
 H     38.58907134     83.65642294     38.14336904
 H     39.94088363     83.69786214     40.06476255
 H     39.14137403     82.20648231     40.61688326
 H     37.28064525     82.13803721     40.83743137
 H     37.03771401     83.84731164     40.40426624
 H     37.96504169     83.42195041     41.86282645
1502
Final Conformation Chain 1 (Simulation Frame 2)
 C      0.00000000      0.00000000      0.00000000
 C      1.54000000      0.00000000      0.00000000
 C      2.16637443      0.26858590     -1.38098396
 C      3.68707724      0.03181651     -1.43578560
 C      4.26269561     -0.01479588     -2.86340277
 C      5.80140142      0.01392238     -2.91961386
 C      6.38553465     -0.37675115     -4.28992862
 C      7.87421927     -0.02137511     -4.46059195
 C      8.69159991     -1.09054888     -5.20916149
 C     10.17569615     -0.72558531     -5.39852874
 C     10.97738233     -1.76222727     -6.20740001
 C     12.50356832     -1.64382034     -6.03906668
 C     13.29185654     -2.83270139     -6.61937997
 C     14.81890243     -2.63341154     -6.61558247
 C     15.59391289     -3.71688693     -7.38826602
 C     15.28882128     -3.74917662     -8.89739706
 C     16.05062959     -4.84402842     -9.66716821
 C     16.04672213     -4.65338041    -11.19531678
 C     16.25166869     -5.95668389    -11.98966995
 C     16.11188438     -5.78961677    -13.51418591
 C     16.65871379     -6.97767901    -14.32725770
 C     18.00235697     -7.52474968    -13.81059854
 C     18.52692128     -8.74122413    -14.59585149
 C     19.96741896     -9.14727159    -14.23295771
 C     20.37333694    -10.54139915    -14.74602586
 C     21.57992607    -11.15289335    -14.00994332
 C     21.80487659    -12.64669956    -14.30917614
 C     23.19146990    -13.16797000    -13.88818193
 C     23.34214096    -14.69740050    -13.98687633
 C     24.71579047    -15.22229258    -13.52951944
 C     25.03010111    -16.65261400    -14.00595356
 C     26.26322326    -17.28100761    -13.33057868
 C     26.52013211    -18.74498641    -13.73352273
 C     28.01125200    -19.12445957    -13.79803310
 C     28.26620631    -20.61571282    -14.08571702
 C     29.68397835    -20.92014470    -14.60421838
 C     29.87788083    -22.37108996    -15.08250665
 C     28.84379041    -22.82963625    -16.12749101
 C     29.06140700    -24.26718693    -16.63512381
 C     27.97830678    -24.75630589    -17.61454024
 C     28.29489866    -26.11226537    -18.27237265
 C     27.64072712    -26.30663759    -19.65290843
 C     27.90284503    -27.68791929    -20.28136292
 C     27.56552336    -28.87147570    -19.35561547
 C     27.85330458    -30.25219431    -19.97399892
 C     26.98969232    -31.38924004    -19.39702327
 C     27.23866835    -32.75984758    -20.05356413
 C     26.85054922    -33.95839625    -19.16787534
 C     27.29786751    -35.32160547    -19.72748859
 C     26.73515312    -36.53026917    -18.95671978
 C     27.06753041    -37.89108365    -19.59649263
 C     26.66790119    -39.10290109    -18.73428908
 C     25.30251011    -39.71168549    -19.10400352
 C     24.92674499    -40.95546090    -18.27730931
 C     23.60255521    -41.61519311    -18.70494799
 C     23.29533142    -42.93497214    -17.97323980
 C     21.90150535    -43.51253226    -18.28190334
 C     21.68792380    -44.94581477    -17.76067003
 C     20.29417397    -45.52345614    -18.06952574
 C     20.13242952    -47.00680331    -17.68857968
 C     18.71237196    -47.38374576    -17.22711362
 C     18.32905939    -48.84777728    -17.51221568
 C     16.95273739    -49.25499508    -16.95408360
 C     16.37600173    -50.53684659    -17.58323595
 C     17.19227801    -51.80650833    -17.27786386
 C     17.25328802    -52.80801429    -18.44613763
 C     18.17502360    -54.01467165    -18.18926889
 C     17.89255362    -55.22377978    -19.10023993
 C     18.40600864    -56.56336242    -18.54034505
 C     18.43348558    -57.70483438    -19.57373113
 C     19.26634269    -58.92459747    -19.13769554
 C     19.50849605    -59.95119357    -20.25977495
 C     20.13775959    -61.27095508    -19.77618736
 C     20.01329505    -62.42996220    -20.78257251
 C     20.46689251    -63.79294586    -20.22748251
 C     20.54945196    -64.90553168    -21.28905526
 C     20.39976819    -66.32807196    -20.71846440
 C     20.81773052    -67.44223587    -21.69598487
 C     20.87408400    -68.84405837    -21.06091167
 C     21.10460424    -69.98149960    -22.07318034
 C     21.31647814    -71.36269417    -21.42586973
 C     21.75681162    -72.45735421    -22.41552917
 C     22.18784353    -73.77369802    -21.74243892
 C     22.61766937    -74.87206220    -22.73261358
 C     23.03506064    -76.19313734    -22.06019630
 C     23.13182999    -77.38602777    -23.02934444
 C     23.73698901    -78.65547031    -22.40173133
 C     23.86527360    -79.83786531    -23.38003860
 C     24.14492544    -81.18909958    -22.69625441
 C     24.70281341    -82.26712076    -23.64400509
 C     24.91196400    -83.63960053    -22.97755531
 C     25.32547852    -84.75455748    -23.95606271
 C     25.23493878    -86.17318005    -23.36368397
 C     25.82375345    -87.26952767    -24.27083290
 C     25.98592043    -88.63538292    -23.57819929
 C     26.44781089    -89.76381139    -24.51889392
 C     26.21589677    -91.17980105    -23.95961837
 C     26.80045142    -92.30298670    -24.83617405
 C     26.72508056    -93.70123951    -24.19523076
 C     27.20572494    -94.83878249    -25.11532692
 C     27.28427401    -96.21268591    -24.42408207
 C     27.76935111    -97.34935069    -25.34293646
 C     27.52078036    -98.76042064    -24.77840641
 C     28.40197748    -99.85283141    -25.41222842
 C     28.68567875   -101.04679608    -24.48187260
 C     29.08675289   -102.33625494    -25.22216672
 C     29.22205616   -103.56755302    -24.30718143
 C     29.55954791   -104.87027565    -25.05592242
 C     29.36685665   -106.14489142    -24.21341146
 C     29.96664267   -107.41272470    -24.84937963
 C     30.08451355   -108.60385635    -23.88040499
 C     30.59621271   -109.89860013    -24.53873811
 C     30.87414278   -111.04006301    -23.54303867
 C     31.92639210   -112.05363098    -24.02991784
 C     32.04715075   -113.30632249    -23.14234738
 C     32.84212536   -114.45676492    -23.78740365
 C     32.59443760   -115.83078029    -23.13753248
 C     33.52768226   -116.94344315    -23.65001248
 C     33.17508234   -118.34775035    -23.12542255
 C     34.26329501   -119.40557722    -23.38694789
 C     33.80293143   -120.85337397    -23.13485677
 C     34.95722936   -121.84703590    -22.90718978
 C     34.61726989   -123.29997100    -23.28798785
 C     35.85062303   -124.18137092    -23.55923351
 C     35.52870219   -125.67974671    -23.71035259
 C     36.73549132   -126.54072979    -24.12744745
 C     36.36227665   -127.96398347    -24.58204593
 C     37.52972710   -128.96659262    -24.52344277
 C     37.23339861   -130.31377219    -25.20820304
 C     38.43882706   -131.27102167    -25.25527422
 C     39.30807869   -131.12202246    -26.51773247
 C     40.37662728   -132.21969017    -26.67562335
 C     41.51639654   -131.84980288    -27.64294409
 C     42.63605853   -132.90402649    -27.72399706
 C     43.95514647   -132.37262670    -28.31494652
 C     44.67181111   -131.34301354    -27.42170045
 C     46.02654522   -130.86659886    -27.97786997
 C     46.70287883   -129.77409140    -27.12898818
 C     48.22351064   -129.66384878    -27.34607219
 C     48.88799621   -128.52179103    -26.55502033
 C     50.38397896   -128.74701468    -26.26707955
 C     50.94442504   -127.86308710    -25.13740162
 C     52.48140556   -127.76823705    -25.12024511
 C     53.04011668   -126.85158096    -24.01607867
 C     54.31576613   -127.38938074    -23.34147517
 C     55.15941768   -126.30643965    -22.64355637
 C     56.29748960   -126.86553811    -21.76959916
 C     57.34699176   -125.81533241    -21.36068204
 C     58.38039707   -126.32698266    -20.33995313
 C     59.54448243   -125.35164433    -20.08457021
 C     60.50682158   -125.80299111    -18.97021415
 C     61.95787653   -125.32503150    -19.16410626
 C     63.01892678   -126.33788016    -18.69516068
 C     64.46941868   -125.84860844    -18.86334641
 C     65.53108605   -126.87134580    -18.41784592
 C     66.98131350   -126.41960144    -18.67155318
 C     68.02353139   -127.54258927    -18.51573208
 C     69.48235783   -127.04935955    -18.52797317
 C     70.50534535   -128.12923224    -18.92668550
 C     71.84435840   -127.56546433    -19.43738090
 C     71.70849994   -126.63993624    -20.66071252
 C     72.77812213   -125.53427082    -20.73151053
 C     72.47852459   -124.43859404    -21.77138250
 C     73.38833313   -123.20131108    -21.65745579
 C     73.13607436   -122.13642606    -22.74096185
 C     71.67626741   -121.65154606    -22.81482029
 C     71.30039447   -120.99834787    -24.15782128
 C     70.18206859   -119.94502513    -24.05077719
 C     69.68971421   -119.41386432    -25.40984134
 C     68.61746882   -118.31382170    -25.30123158
 C     68.19550219   -117.71451323    -26.65562204
 C     67.06886941   -116.66949834    -26.55441703
 C     66.86381705   -115.84322044    -27.83770124
 C     65.76227543   -114.77301355    -27.72428491
 C     65.52837191   -113.97506167    -29.02049552
 C     64.84310848   -112.61323618    -28.80267588
 C     64.59745870   -111.82098345    -30.10020885
 C     63.90222476   -110.46404540    -29.88348578
 C     63.58013583   -109.70999422    -31.18704458
 C     62.91405942   -108.33868415    -30.96921230
 C     62.47148031   -107.64356813    -32.27018788
 C     62.02660178   -106.18165022    -32.07919284
 C     61.47637356   -105.52225572    -33.35749164
 C     60.94523580   -104.09232303    -33.14586654
 C     60.13780977   -103.54151954    -34.33594163
 C     59.66521229   -102.08731498    -34.15280038
 C     58.57300505   -101.65359475    -35.14807427
 C     57.75740146   -100.43053690    -34.68924936
 C     56.84885277    -99.83767953    -35.78225413
 C     55.96520398    -98.67289501    -35.29847543
 C     55.01501920    -98.11807908    -36.37593920
 C     53.99427011    -97.09490011    -35.84417225
 C     52.54484730    -97.61432384    -35.81298746
 C     51.50876454    -96.55508544    -35.39328931
 C     50.06536019    -96.89004702    -35.81279454
 C     49.06968367    -95.73278192    -35.61039455
 C     47.59433196    -96.17343314    -35.58275697
 C     46.59109768    -95.01085388    -35.69907740
 C     45.12266959    -95.42795015    -35.49573126
 C     44.10649120    -94.31164884    -35.80044896
 C     42.63963141    -94.71976937    -35.56945114
 C     41.61875024    -93.82722500    -36.29935948
 C     40.15026947    -94.19591872    -36.01788272
 C     39.61500607    -93.65743266    -34.67805965
 C     38.11439852    -93.91966642    -34.45220480
 C     37.49513431    -93.07930401    -33.31999331
 C     35.96217663    -93.19063543    -33.22383677
 C     35.33571656    -92.29328655    -32.14036422
 C     33.79639299    -92.25800505    -32.16931553
 C     33.17522988    -91.22879010    -31.20678086
 C     31.64381549    -91.11113600    -31.31870708
 C     31.01307679    -90.14864351    -30.29529274
 C     29.47311729    -90.15926609    -30.29184476
 C     28.84050952    -89.00059642    -29.49881764
 C     27.30052841    -89.00815111    -29.49986930
 C     26.66924270    -88.16497054    -28.37642599
 C     25.19975226    -87.78135677    -28.63145210
 C     24.61280401    -86.81815987    -27.58295628
 C     23.07602713    -86.85420940    -27.49012718
 C     22.49197895    -85.92740905    -26.40775532
 C     21.06621446    -86.30370214    -25.96368423
 C     20.39647137    -85.25659356    -25.05450449
 C     18.86288815    -85.20341469    -25.18448341
 C     18.20865339    -84.04294336    -24.41190127
 C     16.67351779    -84.13257425    -24.32868470
 C     15.99456020    -82.83181969    -23.86108001
 C     14.46200535    -82.83583605    -24.01227358
 C     13.81459188    -81.44612890    -23.86677494
 C     12.52612460    -81.26599112    -24.69079099
 C     11.72774435    -79.99785175    -24.33581000
 C     10.34032440    -79.92471485    -25.00012685
 C      9.73811523    -78.50786145    -25.03847504
 C      8.24914896    -78.47049801    -25.42986156
 C      7.68732404    -77.04949589    -25.62144897
 C      6.33541570    -77.00442607    -26.35759608
 C      5.72019508    -75.59580485    -26.45188216
 C      4.57604626    -75.47927475    -27.47606194
 C      3.99253250    -74.05990747    -27.60454623
 C      2.73921135    -73.97619810    -28.49548891
 C      2.20330658    -72.54559899    -28.68989120
 C      1.05316519    -72.44059910    -29.70859125
 C      0.45960881    -71.02562556    -29.83951380
 C     -0.74912847    -70.93887478    -30.78979191
 C     -1.47985583    -69.58381503    -30.75170487
 C     -2.70317026    -69.50543380    -31.68388413
 C     -3.55354998    -68.23534569    -31.49592004
 C     -4.87306661    -68.24182581    -32.28991870
 C     -5.56387008    -66.86767362    -32.36799771
 C     -7.01168426    -66.92318844    -32.88987144
 C     -7.62403421    -65.54162957    -33.18638891
 C     -7.63240352    -64.58766585    -31.97747073
 C     -8.88007075    -63.68845917    -31.89775982
 C     -8.69379635    -62.43480400    -31.02297381
 C     -9.93246641    -61.52158702    -30.96525688
 C     -9.80983703    -60.36259110    -29.95863357
 C    -11.04732658    -59.44764273    -29.90305392
 C    -10.84335249    -58.16803182    -29.07083372
 C    -11.97740936    -57.13679851    -29.21940323
 C    -11.66383522    -55.76607946    -28.59139006
 C    -12.82327777    -54.75642243    -28.68019124
 C    -12.78849582    -53.66553554    -27.59374934
 C    -14.16813540    -53.06633563    -27.26336457
 C    -14.10492417    -51.75301908    -26.46161400
 C    -15.43033678    -51.37370514    -25.77531789
 C    -15.30251815    -50.22463846    -24.75801353
 C    -16.29850825    -50.31140704    -23.58665750
 C    -16.29593583    -49.07442870    -22.66933641
 C    -17.42992062    -49.06491959    -21.62742083
 C    -17.37902045    -47.87013150    -20.65711644
 C    -18.56339465    -47.81020717    -19.67463651
 C    -18.56055141    -46.56742725    -18.76519164
 C    -19.87661825    -46.35179328    -17.99508122
 C    -19.83961970    -45.16802307    -17.01074429
 C    -21.20838905    -44.82169947    -16.39582117
 C    -21.15261837    -43.71518331    -15.32618964
 C    -22.52420208    -43.10307513    -14.98606953
 C    -22.47432249    -42.02684744    -13.88568506
 C    -23.38587999    -40.81478406    -14.15320196
 C    -23.13162227    -39.62057516    -13.21468284
 C    -24.09617106    -38.43928445    -13.42868730
 C    -23.67398240    -37.14694065    -12.70535872
 C    -23.48029259    -37.31379059    -11.18672599
 C    -23.17687724    -35.99833130    -10.44570913
 C    -22.92196851    -36.17365194     -8.93710573
 C    -22.74136798    -34.84816529     -8.17417153
 C    -22.53646196    -35.02119925     -6.65770433
 C    -22.23868931    -33.70715244     -5.91190782
 C    -21.57148060    -33.90404585     -4.53798442
 C    -21.02017278    -32.60677020     -3.91771384
 C    -20.30399867    -32.81198509     -2.56990766
 C    -19.31951726    -31.68513484     -2.20575814
 C    -18.16385394    -32.13398098     -1.29220495
 C    -17.44338523    -30.97512920     -0.57835105
 C    -16.18485772    -31.40387283      0.19875088
 C    -15.80762254    -30.45578705      1.35219224
 C    -14.84038075    -31.07292566      2.37941337
 C    -14.56955258    -30.17652281      3.60199834
 C    -14.13163861    -30.94888427      4.86028651
 C    -13.72005668    -30.04590438      6.03792297
 C    -12.97954912    -30.78711880      7.16657248
 C    -12.55264512    -29.88093067      8.33626306
 C    -12.01127994    -30.64753442      9.55726365
 C    -11.94998353    -29.80828266     10.84703078
 C    -11.24413534    -30.51334891     12.02017182
 C    -11.25454169    -29.70794916     13.33273532
 C    -10.24291178    -30.20631369     14.38146680
 C    -10.30390921    -29.44801875     15.72044705
 C     -9.34490811    -29.99480029     16.79420067
 C     -9.34486822    -29.18570922     18.10453332
 C     -8.99764453    -30.01664763     19.35376391
 C     -8.63791876    -29.17020305     20.58896791
 C     -8.48750196    -29.98699508     21.88582009
 C     -8.19380882    -29.13315701     23.13333959
 C     -7.54351060    -29.91590047     24.28920502
 C     -6.76297185    -29.03422016     25.28167623
 C     -5.88738640    -29.82732697     26.26956878
 C     -5.44022268    -29.01686534     27.50033949
 C     -4.12837911    -29.51451417     28.13517183
 C     -3.76105449    -28.80506502     29.45174105
 C     -2.37748625    -29.19157414     30.00667315
 C     -2.00566609    -28.47410303     31.31762126
 C     -0.63453895    -28.88209795     31.88784099
 C     -0.35215083    -28.32823242     33.29677318
 C      0.99812093    -28.77580090     33.88672965
 C      1.44858259    -27.95785047     35.11132811
 C      2.94264769    -28.11104642     35.45176972
 C      3.45279796    -27.10418777     36.49942537
 C      4.97283688    -27.16544496     36.73886062
 C      5.43151898    -26.46939032     38.03374234
 C      6.94859985    -26.21422223     38.10413320
 C      7.37829187    -25.31179394     39.27570819
 C      8.86193395    -24.90069380     39.23825354
 C      9.34150076    -24.16950657     40.50592105
 C     10.72745064    -23.51329478     40.36404424
 C     11.27506124    -22.91669241     41.67392524
 C     12.38761659    -21.87173196     41.46928348
 C     12.73421099    -21.06932793     42.73720307
 C     13.71974602    -19.91092552     42.49549132
 C     14.04779890    -19.09369522     43.75886614
 C     14.96751582    -17.88549152     43.50203038
 C     15.02510902    -16.88277946     44.66944271
 C     13.71463670    -16.10530508     44.89259263
 C     13.91482053    -14.69554806     45.47920287
 C     12.79740722    -13.70071482     45.11410793
 C     12.96652828    -12.30803058     45.74926827
 C     11.68217263    -11.45831032     45.74680621
 C     11.89289301    -10.00326102     46.20509481
 C     10.64165316     -9.11598834     46.06817862
 C     10.67715993     -7.84473089     46.93665071
 C      9.30812400     -7.15836106     47.09862931
 C      8.89665614     -6.28973187     45.89539303
 C      7.45565847     -5.75226547     45.97448523
 C      6.97481066     -5.05726716     44.68709923
 C      5.49767238     -4.62331444     44.72380810
 C      4.90196601     -4.31099804     43.33845891
 C      3.52685311     -3.61956812     43.38934268
 C      2.91464893     -3.34007583     42.00417478
 C      1.62123777     -2.50534304     42.04786368
 C      1.08969289     -2.10074398     40.66029039
 C     -0.32995748     -1.50435127     40.68284141
 C     -0.84574812     -1.06245663     39.30070931
 C     -2.35339041     -0.75044367     39.26517580
 C     -2.91292626     -0.52386787     37.84842493
 C     -4.44726848     -0.62002432     37.75815933
 C     -4.98833066     -0.66536168     36.31704995
 C     -6.46904989     -1.07642378     36.21655863
 C     -7.09149847     -0.84136827     34.82770778
 C     -8.62776300     -0.94590848     34.80398767
 C     -9.22693217     -1.04700889     33.38893466
 C    -10.72261060     -0.68775431     33.31489291
 C    -11.24633149     -0.47844219     31.88188737
 C    -12.77340393     -0.62364907     31.74563497
 C    -13.28093863     -0.56596839     30.29281651
 C    -14.79499930     -0.80743356     30.14819681
 C    -15.25483174     -1.05088194     28.69875312
 C    -16.78371132     -1.12917333     28.53142804
 C    -17.24893278     -1.23592651     27.06726522
 C    -18.77345114     -1.37931175     26.90330045
 C    -19.23640878     -1.51170991     25.44051511
 C    -20.76646695     -1.51852792     25.26594280
 C    -21.23094618     -1.36765559     23.80543036
 C    -22.74011708     -1.10199915     23.65236224
 C    -23.16202884     -0.68696259     22.23062558
 C    -23.15113918     -1.84173571     21.21181233
 C    -23.43066202     -1.40133059     19.76284362
 C    -23.45175397     -2.56027040     18.74893355
 C    -22.47779261     -2.37884651     17.56991504
 C    -22.68481087     -3.38824652     16.42542605
 C    -21.97226875     -3.00447833     15.11523305
 C    -22.15331525     -4.02952346     13.98028607
 C    -21.53469700     -3.59448857     12.63877345
 C    -20.01890287     -3.84667048     12.53692824
 C    -19.47301561     -3.80922194     11.09741280
 C    -17.98951721     -4.20538695     10.97957485
 C    -17.36904409     -3.90707436      9.60203258
 C    -15.89942270     -4.34746771      9.46836631
 C    -15.35320533     -4.27853289      8.03014012
 C    -13.82480389     -4.43975500      7.93217846
 C    -13.29287463     -4.50286287      6.48834029
 C    -11.75636461     -4.52596395      6.38732889
 C    -11.22366374     -4.53304151      4.94241378
 C     -9.70703070     -4.28931652      4.83276729
 C     -9.15557574     -4.40773303      3.39977219
 C     -7.68443682     -3.97532814      3.25702666
 C     -6.94474517     -4.64781594      2.08561024
 C     -5.44768467     -4.29572695      2.00534073
 C     -4.78990113     -4.65932462      0.66119879
 C     -3.30602621     -4.25958390      0.56158660
 C     -2.61585651     -4.73079090     -0.73194722
 C     -1.21391405     -4.13124686     -0.94805890
 C     -0.56214556     -4.52851581     -2.28558468
 C      0.84831978     -3.94595737     -2.49249819
 C      1.66408764     -4.65488609     -3.58955920
 C      3.15168657     -4.25769223     -3.61933271
 C      3.90756130     -4.75352603     -4.86608940
 C      5.42029259     -4.46649470     -4.83681432
 C      6.14956188     -4.81559041     -6.14750059
 C      7.67682213     -4.62855841     -6.08350716
 C      8.40584924     -4.97542831     -7.39491890
 C      9.88571569     -5.35773911     -7.20668035
 C     10.53047939     -5.99742030     -8.45033937
 C     11.83203386     -6.76606882     -8.15583063
 C     12.64780072     -7.12128574     -9.41278941
 C     13.49187705     -8.40148986     -9.27061845
 C     14.22743874     -8.81312867    -10.55945610
 C     15.51108322     -9.62805665    -10.31501952
 C     15.90933701    -10.53753122    -11.49224079
 C     17.14542683    -11.41370973    -11.21657220
 C     17.21885330    -12.68399903    -12.08408225
 C     18.36720933    -13.63690388    -11.70348961
 C     18.67019287    -14.70879584    -12.76690326
 C     19.77883527    -15.69773524    -12.36130384
 C     20.29282063    -16.57219335    -13.52007132
 C     21.31609917    -17.64062762    -13.09234566
 C     21.56402504    -18.73022914    -14.15201603
 C     22.60816843    -19.78285300    -13.73566571
 C     22.60884568    -21.04664929    -14.61567622
 C     23.72142614    -22.05252206    -14.26641317
 C     23.73563788    -23.30626297    -15.16057857
 C     24.70032638    -24.40672539    -14.68103862
 C     24.57385493    -25.73170109    -15.45566393
 C     25.57886685    -26.81261473    -15.01614516
 C     25.45299409    -28.13728543    -15.79138936
 C     25.92422288    -29.37248776    -15.00156746
 C     25.58288475    -30.71451429    -15.67540206
 C     25.93259918    -31.94950050    -14.82445618
 C     25.58779710    -33.29142775    -15.49672310
 C     25.70207084    -34.50870838    -14.56036346
 C     25.40500297    -35.85574085    -15.24509274
 C     24.66666881    -36.86557534    -14.34692964
 C     24.73411351    -38.31897119    -14.85159956
 C     23.93684180    -39.31796122    -13.99254383
 C     24.19741355    -40.79433782    -14.34470072
 C     23.04096350    -41.74065057    -13.97225548
 C     23.43548578    -43.22887759    -13.93860292
 C     22.29815033    -44.16855788    -13.49693672
 C     22.57260464    -45.65811682    -13.77530518
 C     21.36766050    -46.57823785    -13.50495929
 C     21.68744084    -48.08004068    -13.62297954
 C     20.44775173    -48.99140220    -13.55824085
 C     20.75662435    -50.44004548    -13.13677867
 C     19.78588533    -51.48294572    -13.72126549
 C     20.21075738    -52.94227523    -13.47339232
 C     20.86094424    -53.62116981    -14.69321165
 C     20.77920825    -55.15884963    -14.67176404
 C     21.87970550    -55.85612026    -15.49293361
 C     21.78352242    -57.39311296    -15.49143086
 C     23.07179750    -58.10177938    -15.94940380
 C     22.99862425    -59.63862347    -15.88340447
 C     24.37373711    -60.32904832    -15.82033180
 C     24.31545173    -61.85812558    -15.99389887
 C     25.69729189    -62.53625783    -16.04137963
 C     25.67853522    -63.95502599    -16.63999894
 C     24.65747303    -64.90002699    -15.97969211
 C     24.36683439    -66.17504061    -16.79299982
 C     23.06420313    -66.89124585    -16.39075381
 C     22.78470516    -68.17813418    -17.18912673
 C     21.35036289    -68.71541981    -17.02916922
 C     21.11522670    -70.08230435    -17.69845066
 C     19.76142924    -70.72699311    -17.34743948
 C     19.31943082    -71.82903240    -18.32812639
 C     17.87169644    -72.31034898    -18.11836580
 C     17.37956855    -73.30111686    -19.18971502
 C     18.33536515    -74.48324860    -19.43592104
 C     17.93540188    -75.37471475    -20.62626447
 C     19.01055751    -76.40096412    -21.02931858
 C     18.89047836    -77.75265924    -20.30123802
 C     20.01408611    -78.74934569    -20.64141702
 C     19.96198915    -80.05438751    -19.82548089
 C     21.00726553    -81.10185232    -20.25187830
 C     20.81938865    -82.47964691    -19.59007444
 C     21.82843844    -83.54349570    -20.06086552
 C     21.60629631    -84.93542673    -19.44055843
 C     22.36409968    -86.06862351    -20.15693759
 C     21.65955088    -86.59070652    -21.42289190
 C     22.34435405    -87.81316257    -22.06183308
 C     21.43583393    -88.61400210    -23.01306767
 C     22.19295961    -89.60734557    -23.91397248
 C     21.34717894    -90.17601550    -25.06847217
 C     22.11814583    -91.13143012    -25.99819953
 H     -0.36333333      0.00000000      1.02766186
 H     -0.36333333     -0.88998127     -0.51383093
 H     -0.36333333      0.88998127     -0.51383093
 H      1.88274777     -0.67743853     -0.78211316
 H      1.88274777      0.93925154     -0.43408583
 H      1.62962592      1.09559220     -1.84580824
 H      2.05048553     -0.62786947     -1.99011245
 H      3.90736627     -0.90225322     -0.91898150
 H      4.13642235      0.82639872     -2.03146008
 H      3.82589667      0.80342098     -3.43596530
 H      5.00794594     -0.80904156     -2.90671276
 H      6.18484391     -0.67132632     -2.16363364
 H      6.13378137      1.02712112     -2.69366723
 H      5.81056447      0.13031573     -5.06477860
 H      7.30497551     -0.93793459     -4.12319036
 H      8.47004151     -0.86674076     -4.11642224
 H      8.12667380     -0.10140931     -5.51792881
 H      8.11555448     -1.41890309     -6.07429452
 H      8.85007878     -1.93376684     -4.53687590
 H     10.55229745     -0.32287601     -4.45826458
 H     10.24481661      0.03718405     -6.17409644
 H     10.38254153     -2.05681341     -7.07197126
 H     11.15179458     -2.63139019     -5.57317909
 H     12.72178125     -1.50378290     -4.98035395
 H     12.84350227     -0.77227080     -6.59848272
 H     13.95624788     -2.45644703     -7.39727251
 H     13.16740039     -3.68515294     -5.95159480
 H     15.10790241     -2.21768683     -5.65030946
 H     15.07445423     -1.92793331     -7.40621116
 H     14.88060615     -4.29618135     -7.97453513
 H     15.59460371     -4.62907422     -6.79159704
 H     15.28526662     -2.72425271     -9.26836653
 H     14.30191980     -4.18996859     -9.03820867
 H     16.00057815     -5.76705515     -9.08957275
 H     17.09067305     -4.53309868     -9.76582064
 H     16.25157623     -3.60463315    -11.41040741
 H     15.05738496     -4.91476567    -11.57080275
 H     15.62797458     -6.73149351    -11.54382726
 H     17.30007625     -6.24447893    -11.91146765
 H     17.09201038     -5.94002841    -13.96676670
 H     15.05410046     -5.67477978    -13.75084102
 H     16.32117232     -7.90036446    -13.85522242
 H     16.85704902     -7.80061636    -13.64057200
 H     17.94793370     -7.59741938    -12.72438621
 H     18.78813217     -6.82244100    -14.08884277
 H     18.40215127     -8.54188858    -15.66018122
 H     17.93260678     -9.61137434    -14.31705247
 H     20.06655351     -9.12558022    -13.14769192
 H     20.64981656     -8.42113360    -14.67472363
 H     20.03106603    -10.64056608    -15.77613097
 H     19.88190053    -11.29124671    -14.12609126
 H     21.44592619    -10.99270983    -12.94013713
 H     22.21583618    -11.64618814    -14.74504778
 H     21.69632222    -12.80135491    -15.38267401
 H     21.04368590    -13.22055298    -13.78061113
 H     23.41650091    -12.77971741    -12.89484363
 H     23.92832554    -12.79503442    -14.59956285
 H     22.91048679    -15.02398878    -14.93298138
 H     22.79268219    -15.14991524    -13.16139134
 H     24.98545108    -14.71504535    -12.60319153
 H     25.44803981    -14.98369033    -14.30086883
 H     24.74641520    -16.73448364    -15.05520075
 H     25.10129671    -17.29769957    -13.13022769
 H     26.21387711    -17.06975519    -12.26238517
 H     27.15673354    -16.81975331    -13.75127317
 H     26.39801990    -18.82975385    -14.81333896
 H     25.78203575    -19.37253819    -13.23403045
 H     28.50752464    -18.71491035    -12.91821328
 H     28.43944587    -18.68010829    -14.69653293
 H     27.59735883    -20.92940144    -14.88717974
 H     28.04139126    -21.18240910    -13.18216098
 H     30.39759102    -20.36050111    -13.99952340
 H     29.74814787    -20.58951038    -15.64087803
 H     28.93594255    -22.90381065    -14.95188913
 H     29.93406308    -23.01635588    -14.20582230
 H     28.72316830    -22.03378931    -16.86245900
 H     27.89521918    -23.00112890    -15.61866600
 H     29.27678298    -24.90458717    -15.77754925
 H     29.91656534    -24.26624086    -17.31099609
 H     27.77801547    -23.95891387    -18.33018635
 H     27.07326028    -24.96996127    -17.04590836
 H     28.66708924    -26.78814768    -17.50246533
 H     29.06881029    -25.95623475    -19.02391455
 H     27.77065247    -25.38864228    -20.22606112
 H     26.57740435    -26.49511481    -19.50485093
 H     28.43081275    -28.30185203    -19.55168034
 H     28.93299268    -27.71288979    -20.63671104
 H     26.60538145    -28.67169788    -18.87988830
 H     28.34115230    -28.94203950    -18.59304057
 H     28.82723232    -30.21298028    -20.46187903
 H     27.08330633    -30.46253169    -20.71626631
 H     25.96076050    -31.03640672    -19.32696652
 H     27.36018829    -31.62912521    -18.40038500
 H     28.31475873    -32.90126868    -20.15420985
 H     26.77883251    -32.75510249    -21.04180928
 H     25.88238826    -33.74909809    -18.71294827
 H     27.74648994    -34.55008352    -18.98000199
 H     28.32411704    -35.22642203    -20.08224487
 H     26.64704761    -35.57937091    -20.56300666
 H     25.67777686    -36.35069707    -18.76227365
 H     27.26977305    -36.61240129    -18.01039222
 H     28.11678148    -37.88391697    -19.89165499
 H     26.44225563    -38.01606745    -20.48052346
 H     25.67116382    -38.92313487    -18.33142593
 H     27.37667132    -39.18599273    -17.91037120
 H     25.24139396    -39.78210885    -20.19000783
 H     24.52030938    -39.04637519    -18.73845705
 H     25.15960939    -40.75507745    -17.23149831
 H     25.52684791    -41.79476442    -18.62880055
 H     23.58169919    -41.66781605    -19.79347720
 H     22.78012437    -40.99099537    -18.35554180
 H     23.50840788    -42.79682640    -16.91323311
 H     23.94666848    -43.71024243    -18.37674446
 H     21.73165476    -43.44234532    -19.35629832
 H     21.15805608    -42.91300310    -17.75659584
 H     22.07986124    -45.00319492    -16.74519351
 H     22.24186106    -45.63027210    -18.40314313
 H     20.04632065    -45.28603915    -19.10407970
 H     19.57178886    -45.04959471    -17.40490924
 H     20.56873399    -47.15659232    -16.70100605
 H     20.67207033    -47.60916167    -18.41936843
 H     17.99702102    -46.92354197    -17.90871871
 H     18.56244839    -46.98901157    -16.22222166
 H     19.17015027    -49.48273526    -17.23383738
 H     18.13477751    -48.94952016    -18.57992488
 H     16.24212120    -48.46018827    -17.18081425
 H     17.04048659    -49.36652457    -15.87336104
 H     17.16830748    -51.02770649    -18.14839801
 H     16.02764234    -50.29862213    -18.58822094
 H     17.45481284    -51.79901206    -16.21997953
 H     18.10178030    -51.78187633    -17.87811285
 H     17.44757818    -52.25277513    -19.36377635
 H     16.28694470    -53.30670303    -18.52090472
 H     17.98898605    -54.37915154    -17.17899941
 H     19.20904302    -53.67940962    -18.26991136
 H     17.75482095    -54.86077992    -20.11874904
 H     16.97549422    -55.70362746    -18.75840918
 H     18.14557182    -56.61536419    -17.48319394
 H     19.49031621    -56.58719930    -18.64901378
 H     18.85063286    -57.31617674    -20.50272703
 H     17.40939880    -58.03607481    -19.74585332
 H     19.02869508    -59.14778583    -18.09759431
 H     20.32201945    -58.66661054    -19.22189368
 H     19.78220447    -59.41051371    -21.16578211
 H     18.58132168    -60.49860706    -20.42943977
 H     19.62516623    -61.58172757    -18.86582012
 H     21.18978911    -61.08886455    -19.55669491
 H     20.25821881    -62.05033964    -21.77453978
 H     18.98206970    -62.78292559    -20.77302695
 H     20.05790325    -63.90749092    -19.22363630
 H     21.55579893    -63.79805149    -20.17893635
 H     21.03584642    -64.49816909    -22.17538260
 H     19.66716966    -65.53816833    -21.19185019
 H     19.57514459    -66.32643957    -20.00565780
 H     21.32428398    -66.59001274    -20.20391840
 H     21.75518090    -67.14946642    -22.16881976
 H     20.04249959    -67.54003472    -22.45595355
 H     19.98533598    -68.97682975    -20.44398484
 H     21.76363508    -68.90060789    -20.43353537
 H     21.89023960    -69.67265498    -22.76273968
 H     20.17866432    -70.14164327    -22.62552920
 H     20.57536824    -71.48862101    -20.63656716
 H     22.31643600    -71.38851215    -20.99283660
 H     22.53023427    -72.04347822    -23.06254082
 H     20.89392240    -72.74255441    -23.01734562
 H     21.46368895    -74.01372113    -20.96392170
 H     23.16897824    -73.62313820    -21.29209859
 H     23.26026373    -74.42003484    -23.48815560
 H     21.72313658    -75.27307164    -23.20916634
 H     22.30810413    -76.42638677    -21.28223169
 H     24.01741729    -76.05277090    -21.60922769
 H     23.64946492    -77.05505005    -23.92968206
 H     22.12070291    -77.70141235    -23.28674413
 H     23.28981669    -78.79806426    -21.41796109
 H     24.81133250    -78.50599638    -22.29429017
 H     24.26502748    -79.46173469    -24.32175118
 H     22.87167765    -80.25365043    -23.54734019
 H     23.48852211    -81.27750063    -21.83056398
 H     25.18391638    -81.19799697    -22.36683269
 H     25.47262973    -81.81108254    -24.26650969
 H     23.88866810    -82.62302714    -24.27535132
 H     24.03588472    -83.86184473    -22.36829952
 H     25.79309403    -83.57969821    -22.33871136
 H     26.09214609    -84.35895714    -24.62226179
 H     24.45014461    -85.04099062    -24.53902634
 H     24.29417549    -86.25808256    -22.81975750
 H     26.06735002    -86.31015455    -22.67344524
 H     26.77465765    -86.91280461    -24.66659779
 H     25.12996040    -87.44294159    -25.09343780
 H     25.08000658    -88.84005951    -23.00764904
 H     26.83708330    -88.57676700    -22.89982923
 H     27.25377217    -89.38017079    -25.14447069
 H     25.60549962    -90.05207347    -25.14779510
 H     25.21649845    -91.21768710    -23.52618136
 H     26.95649919    -91.36673328    -23.18201667
 H     27.80151553    -92.00709767    -25.14989421
 H     26.16425313    -92.41929676    -25.71357003
 H     25.73535156    -93.82372690    -23.75530650
 H     27.48072563    -93.76039699    -23.41190393
 H     28.12788340    -94.52008775    -25.60128726
 H     26.43965239    -95.01588681    -25.87022221
 H     26.38139679    -96.34900068    -23.82882499
 H     28.25388437    -96.65576431    -24.65132045
 H     28.62331518    -96.98676025    -25.91510212
 H     26.95910268    -97.60862891    -26.02438512
 H     26.51021119    -98.79358689    -24.37128242
 H     28.24028941    -98.94179803    -23.97996482
 H     29.42172678    -99.47391905    -25.48032225
 H     28.02383363   -100.06023146    -26.41327410
 H     27.75419194   -101.32691704    -23.98997366
 H     29.41202673   -100.73233015    -23.73245296
 H     29.80793311   -102.07640066    -25.99706985
 H     28.19398777   -102.75841145    -25.68352810
 H     28.37216191   -103.58259157    -23.62486654
 H     30.14510711   -103.47013266    -23.73570421
 H     30.34117368   -104.65432551    -25.78429505
 H     28.66301413   -105.20946273    -25.57484371
 H     28.42039164   -106.06270577    -23.67904315
 H     30.18490064   -106.20837751    -23.49586457
 H     30.95686285   -107.16787410    -25.23358294
 H     29.32294468   -107.72015773    -25.67353849
 H     29.15762241   -108.67581264    -23.31137501
 H     30.91436624   -108.41163928    -23.20033359
 H     31.43797584   -109.64579473    -25.18342738
 H     29.79054980   -110.31844281    -25.14101663
 H     30.04523924   -111.08830341    -22.83685754
 H     31.79516340   -110.81072756    -23.00710372
 H     32.76181036   -111.50075905    -24.45946291
 H     31.47077067   -112.67836648    -24.79817214
 H     31.04250367   -113.65125580    -22.89779625
 H     32.56889345   -113.02850712    -22.22653999
 H     33.73608830   -114.03847127    -24.24996249
 H     32.21819423   -114.91720169    -24.55343755
 H     31.52277022   -115.94445279    -22.97410792
 H     33.11273311   -115.85497988    -22.17894803
 H     34.54171368   -116.54626317    -23.69571100
 H     33.20369656   -117.22855884    -24.65093321
 H     32.09519982   -118.47850711    -23.19511050
 H     33.48207218   -118.41071022    -22.08144300
 H     35.23161724   -118.96882341    -23.14261581
 H     34.23940065   -119.66762601    -24.44470944
 H     32.81409567   -120.98025694    -23.57554322
 H     33.74384718   -121.01166497    -22.05803134
 H     35.67692463   -121.38704242    -22.23003048
 H     35.43522316   -122.04288223    -23.86701589
 H     34.09826219   -123.29061798    -24.24644678
 H     33.95875269   -123.70988086    -22.52220132
 H     36.58740338   -123.98927271    -22.77926365
 H     36.26541388   -123.90177378    -24.52767246
 H     34.64811820   -125.77881151    -24.34506356
 H     35.31169385   -126.08506691    -22.72205965
 H     37.59682207   -126.23397077    -23.53406037
 H     36.93797571   -126.35867778    -25.18288913
 H     35.49697132   -127.89730040    -25.24151545
 H     36.10233585   -128.54855940    -23.69954847
 H     38.05577462   -128.82532820    -23.57929322
 H     38.20595459   -128.75404203    -25.35147575
 H     36.74531624   -130.11340982    -26.16200099
 H     36.55960405   -130.88290724    -24.56774524
 H     38.92335585   -131.26028642    -24.27894610
 H     39.33886600   -130.68060395    -25.42684582
 H     39.45902802   -130.05914948    -26.70645268
 H     38.77340040   -131.56763508    -27.35657008
 H     39.91546180   -133.18166327    -26.45194019
 H     41.17614714   -132.02507014    -25.96078698
 H     41.82564594   -130.82595134    -27.43272315
 H     41.13479462   -131.91210047    -28.66206086
 H     42.17487579   -133.88946762    -27.78969538
 H     43.23202395   -132.84175519    -26.81347660
 H     43.92420631   -131.28320464    -28.29756042
 H     43.82661471   -132.25710375    -29.39115934
 H     44.65217318   -131.70767597    -26.39469721
 H     44.12914031   -130.39967788    -27.48274328
 H     45.90778328   -130.66342224    -29.04216075
 H     46.75415860   -131.66632802    -27.83962365
 H     46.62315905   -130.05713394    -26.07940174
 H     46.17357796   -128.83552546    -27.29341008
 H     48.42113793   -129.71069366    -28.41698255
 H     48.70254817   -130.50850236    -26.85091224
 H     48.48991866   -128.53081624    -25.54035151
 H     48.63341216   -127.57777563    -27.03681063
 H     50.85666671   -129.11508295    -27.17767938
 H     50.47266438   -129.49838005    -25.48242358
 H     50.23219979   -127.86886800    -24.31229449
 H     51.05131115   -126.84730147    -25.51799972
 H     52.82682149   -127.61561257    -26.14273892
 H     52.87863095   -128.70902867    -24.73916361
 H     52.50512200   -127.06449235    -23.09057911
 H     52.86337464   -125.81638171    -24.30801146
 H     54.98326170   -127.76211951    -24.11840211
 H     54.03435289   -128.20898272    -22.68029502
 H     54.48752029   -125.65793525    -22.08133227
 H     55.67047886   -125.72340941    -23.40971054
 H     56.79655273   -127.66033165    -22.32398100
 H     55.86051494   -127.27645409    -20.85948862
 H     56.82379961   -124.91193328    -21.04724947
 H     57.96647984   -125.59345816    -22.22965059
 H     58.70696478   -127.31933867    -20.65089214
 H     57.89627952   -126.39252314    -19.36556376
 H     59.13312980   -124.34821544    -19.97493687
 H     60.21021538   -125.37915855    -20.94720721
 H     60.71569956   -126.86404897    -19.10669202
 H     60.01473809   -125.65016412    -18.00969463
 H     61.93649914   -124.27701185    -19.46293366
 H     62.41158003   -125.91972949    -19.95694133
 H     62.72799063   -127.32724212    -19.04817495
 H     63.03980587   -126.33257528    -17.60537358
 H     64.52468811   -124.81559938    -18.51992600
 H     64.72584378   -125.89383065    -19.92178919
 H     65.24679190   -127.85047035    -18.80332218
 H     65.54389189   -126.89954120    -17.32828590
 H     67.07529599   -125.37882486    -18.36163157
 H     67.18358885   -126.50035032    -19.73957205
 H     67.64395492   -128.43414837    -19.01487543
 H     68.15026671   -127.74749061    -17.45269229
 H     69.54983377   -126.16312003    -17.89700051
 H     69.74689784   -126.78705926    -19.55233499
 H     70.11439964   -128.67019634    -19.78843911
 H     70.62240377   -128.81649844    -18.08879380
 H     72.14977518   -126.75505493    -18.77552200
 H     71.73744629   -126.48786370    -19.56166560
 H     70.87231575   -125.96266737    -20.48692277
 H     71.50109526   -127.25629300    -21.53546256
 H     73.74607516   -125.97841546    -20.49934146
 H     72.53774999   -124.77659023    -19.98569464
 H     71.42718883   -124.16368732    -21.68641535
 H     72.66819342   -124.84705230    -22.76399903
 H     74.41417014   -123.54196117    -21.51704228
 H     73.07481467   -122.62427120    -20.78749536
 H     72.24501533   -122.42113448    -23.30047496
 H     73.55106581   -122.49923814    -23.68130726
 H     71.32079163   -121.47845520    -21.79905629
 H     71.07811658   -122.43473616    -23.28057653
 H     71.70308458   -121.61331749    -24.96265235
 H     71.75360141   -120.00776528    -24.19589499
 H     70.38705184   -119.31418031    -23.18583981
 H     69.23484212   -120.46437238    -23.90537967
 H     69.56640123   -120.26096095    -26.08461627
 H     70.44690861   -118.73884031    -25.80871378
 H     68.92660398   -117.60886482    -24.52949895
 H     67.67600609   -118.78030544    -25.01116115
 H     68.05645155   -118.53157242    -27.36356215
 H     68.99551479   -117.06235939    -27.00601498
 H     67.29163159   -116.00509908    -25.71952144
 H     66.13219826   -117.19282752    -26.36239171
 H     66.89155927   -116.52172559    -28.69032139
 H     67.68051790   -115.12577991    -27.91756877
 H     65.87889670   -114.26099710    -26.76912072
 H     64.79422910   -115.27319867    -27.75258950
 H     65.51261772   -114.67511969    -29.85582214
 H     66.35572584   -113.27682074    -29.14716467
 H     65.31413169   -112.12509575    -27.94947248
 H     63.79006574   -112.79049310    -28.58408732
 H     64.20343322   -112.50617810    -30.85077677
 H     65.55094185   -111.41769417    -30.44127722
 H     64.37285541   -109.96965631    -29.03367037
 H     62.85154896   -110.64907110    -29.66000008
 H     63.16042710   -110.42044881    -31.89922353
 H     64.50904847   -109.30195376    -31.58544674
 H     63.44413050   -107.82356195    -30.16810445
 H     61.87846023   -108.50399243    -30.67204655
 H     61.98276741   -108.38293141    -32.90469686
 H     63.35951679   -107.26229635    -32.77429406
 H     62.74427318   -105.68778612    -31.42410047
 H     61.04394462   -106.18125389    -31.60750995
 H     60.80452166   -106.22837309    -33.84546018
 H     62.31506014   -105.30279230    -34.01820384
 H     61.65943885   -103.54954668    -32.52666719
 H     59.98872181   -104.15527248    -32.62700399
 H     59.45793635   -104.32132857    -34.67911796
 H     60.83448531   -103.28924014    -35.13537787
 H     60.49491490   -101.50521253    -33.75173889
 H     58.84005524   -102.08220136    -33.44062785
 H     57.83530585   -102.45304131    -35.21724850
 H     59.03760806   -101.50261626    -36.12247128
 H     58.44861971    -99.68664202    -34.29309569
 H     57.07568596   -100.74937251    -33.90076484
 H     56.34439695   -100.65894860    -36.29131349
 H     57.47503907    -99.29916934    -36.49358914
 H     56.57803504    -98.00729446    -34.69059879
 H     54.93789570    -98.87250184    -35.60326192
 H     54.55668805    -98.95982407    -36.89507109
 H     55.60281954    -97.53196155    -37.08237887
 H     54.51493822    -96.40444750    -35.18063633
 H     53.44500533    -97.55414039    -35.02228019
 H     52.55195017    -98.62597183    -35.40725617
 H     52.16623139    -97.63535713    -36.83490116
 H     51.73522563    -95.62717715    -35.91845746
 H     51.59780655    -96.39544810    -34.31872548
 H     49.87894815    -97.94076442    -35.59066059
 H     49.97298433    -96.72363972    -36.88604908
 H     49.53379051    -94.81446311    -35.97011029
 H     48.86229041    -95.64158661    -34.54419970
 H     47.51453418    -97.06510505    -34.96094227
 H     47.28883480    -96.41232851    -36.60143282
 H     46.93570094    -94.33803493    -36.48435649
 H     46.57102704    -94.47898323    -34.74786198
 H     45.07213624    -96.09657485    -34.63637837
 H     44.79009520    -95.95776372    -36.38836324
 H     44.40207869    -93.82319036    -36.72896194
 H     44.13585005    -93.58938636    -34.98462118
 H     42.57844160    -95.25770585    -34.62341723
 H     42.33511316    -95.37879059    -36.38250689
 H     41.97540758    -93.65889750    -37.31550976
 H     41.55826072    -92.87462783    -35.77305190
 H     40.08909085    -94.61809828    -35.01482659
 H     39.91580481    -95.11006808    -36.56327916
 H     39.93845919    -92.62204919    -34.57101223
 H     40.04117514    -94.25628424    -33.87316419
 H     37.89875886    -94.94808153    -34.74196658
 H     37.54801713    -93.23725565    -35.08594580
 H     37.85183309    -92.05414851    -33.41960349
 H     36.87816471    -93.73444624    -32.70498341
 H     35.68779761    -94.24071531    -33.32457604
 H     35.52503323    -92.62061856    -34.04364554
 H     35.79966978    -91.30878052    -32.20032481
 H     35.54532477    -92.73499890    -31.16616989
 H     33.43255790    -93.27735450    -32.29835321
 H     33.48339142    -91.65029527    -33.01832603
 H     33.73517528    -90.29757269    -31.29277661
 H     33.26324786    -91.61315986    -30.19060532
 H     31.22583525    -92.11638081    -31.37232971
 H     31.40768226    -90.57010617    -32.23501915
 H     31.61954019    -89.24375699    -30.25678926
 H     31.02103148    -90.63317993    -29.31894179
 H     29.13741889    -91.19551191    -30.33185970
 H     29.12472371    -89.62997345    -31.17873326
 H     29.37037093    -88.08235734    -29.75216303
 H     28.96021014    -89.20755361    -28.43536078
 H     26.96266099    -90.02881523    -29.32045262
 H     26.95682999    -88.67872500    -30.48040479
 H     27.20130072    -87.21530078    -28.32037589
 H     26.78713293    -88.70353795    -27.43613506
 H     24.67477674    -88.66217282    -29.00113277
 H     25.17642209    -86.99931034    -29.39037179
 H     25.34588081    -86.03534082    -27.38829568
 H     23.94286250    -87.38354826    -26.93517981
 H     22.75639877    -87.89624451    -27.50015394
 H     22.66793002    -86.34059813    -28.36062141
 H     23.00377480    -84.96682562    -26.46644501
 H     22.67757104    -86.37903489    -25.43323509
 H     21.02434715    -87.38402215    -25.82491888
 H     20.37317738    -86.01159685    -26.75265451
 H     20.58482925    -84.26816111    -25.47357800
 H     20.84764727    -85.32350860    -24.06452334
 H     18.48420022    -86.22545865    -25.19551020
 H     18.57664165    -84.18623166    -25.45188131
 H     18.79391446    -83.14052746    -24.58857901
 H     18.22656411    -84.28539032    -23.34935777
 H     16.40288971    -85.15986788    -24.08470057
 H     16.26153147    -83.86994428    -25.30305259
 H     16.45568243    -81.99611511    -24.38744884
 H     16.16257803    -82.72352599    -22.78956590
 H     14.08516444    -83.79533554    -23.65808202
 H     14.22153089    -82.71870172    -25.06894362
 H     14.40816631    -80.73025910    -24.43536955
 H     13.82627064    -81.17129952    -22.81205583
 H     11.91333223    -82.15907894    -24.56839957
 H     12.80248547    -81.15587917    -25.73940914
 H     12.42715482    -79.16682042    -24.24464025
 H     11.23157569    -80.16176746    -23.37922843
 H      9.86485978    -80.90132313    -24.90918918
 H     10.47735247    -79.68407437    -26.05436376
 H     10.51832815    -77.81205970    -25.34706494
 H      9.39950359    -78.25207066    -24.03447642
 H      7.73137703    -79.25919408    -24.88399460
 H      8.17141792    -78.65848105    -26.50071182
 H      8.40862327    -76.47063735    -26.19829401
 H      7.56020790    -76.59578418    -24.63855163
 H      5.69459369    -77.78392423    -25.94549202
 H      6.51394974    -77.20194070    -27.41457932
 H      6.50750572    -74.89598136    -26.73204108
 H      5.32723480    -75.32708381    -25.47133577
 H      3.92243376    -76.34375805    -27.35961746
 H      5.00950680    -75.48359828    -28.47615857
 H      4.81988268    -73.35120743    -27.64109658
 H      3.38122405    -73.85968827    -26.72459496
 H      2.08062186    -74.80613930    -28.23944693
 H      3.05146289    -74.06773731    -29.53578672
 H      3.04866794    -71.88708421    -28.88944690
 H      1.71108332    -72.23575862    -27.76803698
 H      0.35345834    -73.25497072    -29.52068381
 H      1.47146442    -72.54469885    -30.70973510
 H      1.28204713    -70.31162332    -29.88305703
 H     -0.14848464    -70.82603927    -28.95719433
 H     -1.40948383    -71.78084464    -30.58214424
 H     -0.38482759    -71.00703063    -31.81484783
 H     -0.73209295    -68.79080092    -30.76060917
 H     -2.05506299    -69.53045437    -29.82737302
 H     -3.27532477    -70.42698859    -31.57675805
 H     -2.34690645    -69.41617574    -32.71014389
 H     -2.88115721    -67.38083816    -31.41973053
 H     -4.11971411    -68.33587048    -30.56993249
 H     -5.33786091    -69.22095497    -32.17427983
 H     -4.64127573    -68.07155313    -33.34128933
 H     -4.80694651    -66.11571455    -32.59098713
 H     -6.01326723    -66.65436918    -31.39812998
 H     -7.52107083    -67.75294973    -32.39984948
 H     -6.98191400    -67.09919558    -33.96515523
 H     -6.88354688    -64.94593002    -33.72016842
 H     -6.92256616    -64.77702171    -32.85259648
 H     -6.66210036    -64.65016615    -31.48481924
 H     -8.41138564    -64.91425198    -31.28853797
 H     -9.75774578    -64.30094820    -32.10426340
 H     -8.79199456    -62.91190141    -32.65756285
 H     -7.72691504    -61.99138950    -31.26093206
 H     -8.70521260    -62.74182424    -29.97716875
 H    -10.81366358    -62.14768210    -30.82526940
 H    -10.01115336    -60.99037585    -31.91379420
 H     -8.82017738    -59.91859081    -30.06604645
 H    -10.69305701    -60.36848368    -29.31989438
 H    -11.93793679    -60.07597163    -29.89227244
 H    -11.05319825    -58.82436741    -30.79725378
 H     -9.87288585    -57.74329058    -29.32752300
 H    -11.74275156    -57.99687196    -28.47932242
 H    -12.92964921    -57.66467628    -29.16759279
 H    -11.87989732    -56.65809895    -30.19379439
 H    -10.64622201    -55.48808794    -28.86576949
 H    -11.73488626    -55.86117655    -27.50787343
 H    -13.74663460    -55.27050529    -28.41329991
 H    -12.88975003    -54.40039350    -29.70825974
 H    -11.76491913    -53.30112839    -27.50658170
 H    -13.09658461    -54.11297995    -26.64877590
 H    -14.88568852    -53.88273737    -27.18147603
 H    -14.45994842    -52.40673042    -28.08059534
 H    -13.33598295    -51.11881154    -26.90276045
 H    -13.83308469    -51.99187570    -25.43343561
 H    -15.84288786    -52.26816933    -25.30858947
 H    -16.11958260    -51.01092399    -26.53783348
 H    -14.68382499    -49.44330899    -25.19942381
 H    -14.81527995    -50.61175873    -23.86311866
 H    -16.32189680    -51.34192073    -23.23226433
 H    -17.28554732    -50.03121795    -23.95455415
 H    -16.28094878    -48.18286251    -23.29622166
 H    -15.39444207    -49.10345491    -22.05731806
 H    -17.49909763    -50.05959304    -21.18703549
 H    -18.36306762    -48.82818393    -22.13858901
 H    -17.17258852    -46.96864402    -21.23401000
 H    -16.57013767    -48.03991787    -19.94649612
 H    -18.73485775    -48.81283955    -19.28293674
 H    -19.44583390    -47.47792363    -20.22143504
 H    -18.32551678    -45.69601766    -19.37634142
 H    -17.78802739    -46.69890496    -18.00755039
 H    -20.19867728    -47.31165548    -17.59129595
 H    -20.62634048    -45.98186785    -18.69448937
 H    -19.36449423    -44.32285155    -17.50878133
 H    -20.32797457    -45.47572032    -16.08611900
 H    -21.69622114    -45.75053364    -16.10020838
 H    -21.80893285    -44.32177465    -17.15577007
 H    -20.51161767    -42.91428003    -15.69466223
 H    -20.72126829    -44.13730786    -14.41852893
 H    -23.24520846    -43.91394400    -14.88242841
 H    -22.82335119    -42.45384721    -15.80893825
 H    -21.62833537    -41.36969697    -14.08707782
 H    -22.32814310    -42.52376678    -12.92662159
 H    -24.35125598    -41.18216529    -14.50131147
 H    -22.92663059    -40.20577118    -14.93185034
 H    -22.05480392    -39.47409710    -13.13038325
 H    -23.54340364    -39.86118255    -12.23455827
 H    -25.10629508    -38.83581847    -13.53120672
 H    -23.81196215    -37.92690616    -14.34781395
 H    -22.60476856    -37.00155827    -12.85945522
 H    -22.83061326    -37.37819851    -12.05470651
 H    -22.92258916    -38.23374373    -11.01136038
 H    -24.46335977    -37.39071744    -10.72222499
 H    -23.85428351    -35.23041604    -10.81924211
 H    -22.14784808    -35.71201570    -10.66301620
 H    -22.26466171    -37.03196890     -8.79803827
 H    -23.87719019    -36.36451611     -8.44800205
 H    -23.50861846    -34.15126963     -8.51145944
 H    -21.75621340    -34.44709966     -8.41232446
 H    -21.82714382    -35.83330055     -6.49814473
 H    -23.49517025    -35.28293276     -6.20996113
 H    -22.69676073    -33.76215429     -4.92436270
 H    -21.21340727    -33.41152781     -6.13440011
 H    -20.78534184    -34.65178529     -4.64272973
 H    -22.32593166    -34.26548424     -3.83922417
 H    -21.76610826    -31.82219137     -4.04466390
 H    -20.10971931    -32.33212214     -4.45038910
 H    -19.65539146    -33.68379545     -2.65567118
 H    -21.05879101    -32.99451436     -1.80500794
 H    -19.79832845    -30.72945735     -2.41911322
 H    -18.43038256    -31.79275840     -2.82701224
 H    -17.77918070    -33.08246178     -1.66705247
 H    -18.55735873    -32.27392906     -0.28539388
 H    -18.19710486    -30.28876237     -0.19246600
 H    -16.82023831    -30.45773006     -1.30779334
 H    -15.61180371    -32.08773061     -0.42738620
 H    -16.50102428    -31.91979432      1.10537303
 H    -16.71597261    -30.20296848      1.89907698
 H    -15.37699106    -29.55030289      0.92469375
 H    -14.05401363    -31.59811207      1.83728239
 H    -15.39704664    -31.78329431      2.99064121
 H    -15.51929339    -29.76233288      3.94043461
 H    -13.90916561    -29.36616208      3.29328401
 H    -13.39138477    -31.69270445      4.56557344
 H    -15.00546112    -31.45073304      5.27583679
 H    -14.45350928    -29.24464483      6.12809184
 H    -12.74147557    -29.61956256      5.81721578
 H    -12.24138193    -31.44974688      6.71476144
 H    -13.70668346    -31.37872819      7.72278645
 H    -13.38653704    -29.22365327      8.58265846
 H    -11.70126115    -29.28206588      8.01283409
 H    -11.33102530    -31.42156463      9.20197383
 H    -12.85296410    -31.11158550     10.07138851
 H    -12.87999702    -29.24664862     10.93502006
 H    -11.11306738    -29.11475616     10.76522398
 H    -10.33617914    -30.98284581     11.64163754
 H    -11.91307853    -31.27950004     12.41212520
 H    -12.25460843    -29.29868951     13.47581936
 H    -10.53788658    -28.89193661     13.23984307
 H     -9.29561933    -30.40080887     13.87856657
 H    -10.62314864    -31.13307712     14.81115212
 H    -11.35085460    -29.32820770     15.99910573
 H     -9.85083527    -28.46670709     15.57955195
 H     -8.37809957    -30.18203309     16.32694793
 H     -9.75293445    -30.93187808     17.17301424
 H    -10.37842322    -28.96420150     18.37061298
 H     -8.80641080    -28.25384275     17.93193993
 H     -8.14539711    -30.65322685     19.11597990
 H     -9.85775964    -30.63862693     19.60164242
 H     -9.35898327    -28.35669826     20.66881734
 H     -7.63957435    -28.75779234     20.44293417
 H     -7.90803986    -30.88255948     21.66157007
 H     -9.48201912    -30.27382960     22.22752403
 H     -8.85433797    -28.26621775     23.11858928
 H     -7.15686738    -28.80074508     23.08481370
 H     -6.75888087    -30.54935447     23.87545122
 H     -8.30741645    -30.53990132     24.75307008
 H     -7.36372054    -28.15182497     25.50208436
 H     -5.82952625    -28.72935555     24.80856222
 H     -5.36241488    -30.60473073     25.71445771
 H     -6.53928387    -30.28807769     27.01175371
 H     -6.29862965    -28.45802904     27.87308531
 H     -4.66147578    -28.32105863     27.18807950
 H     -3.41483274    -29.71404227     27.33570944
 H     -4.33747674    -30.43837015     28.67449390
 H     -4.65982362    -28.73212444     30.06410837
 H     -3.40183003    -27.80403225     29.21301280
 H     -1.66552761    -29.19365449     29.18131833
 H     -2.44576320    -30.19363051     30.43013659
 H     -2.87321680    -28.49401220     31.97721157
 H     -1.75162702    -27.44051879     31.08253026
 H      0.08344478    -28.90854636     31.06814602
 H     -0.72652661    -29.87742880     32.32253027
 H     -1.24746559    -28.46277502     33.90374087
 H     -0.12929027    -27.26489727     33.20873042
 H      1.75851359    -28.68326324     33.11126864
 H      0.91142162    -29.81979119     34.18784009
 H      0.59089419    -27.82846358     35.77142632
 H      1.79094163    -26.98266466     34.76505811
 H      3.51343244    -28.04881658     34.52525355
 H      3.09209075    -29.09080168     35.90547270
 H      2.72151932    -27.04847095     37.30579204
 H      4.26971902    -26.53384959     36.05732318
 H      5.46988938    -27.23119430     35.77101981
 H      5.19225029    -28.06013450     37.32151694
 H      4.74997439    -26.75352834     38.83552944
 H      5.38183444    -25.39149513     37.87955607
 H      7.27564673    -25.82419790     37.14027566
 H      7.44710969    -27.16354567     38.30002333
 H      6.84630949    -25.63516015     40.17043108
 H      7.09903411    -24.28533601     39.03801254
 H      9.11153516    -24.61052880     38.21766375
 H      9.46366762    -25.76192156     39.52860391
 H      8.95337466    -24.70025669     41.37526704
 H      8.94004211    -23.15625979     40.48973754
 H     10.76794349    -23.00245231     39.40201498
 H     11.48284578    -24.29864786     40.39047767
 H     11.10008628    -23.63327740     42.47641494
 H     10.73170370    -21.99553866     41.88449201
 H     12.08765124    -21.20567472     40.66027881
 H     13.30188906    -22.39489571     41.18909507
 H     12.79717590    -21.76323785     43.57543003
 H     11.93360503    -20.35221404     42.91852532
 H     13.41273308    -19.38238642     41.59300062
 H     14.71443691    -20.33202455     42.34932146
 H     14.22686324    -19.78836342     44.57951958
 H     13.18775450    -18.46688682     43.99452447
 H     14.61696323    -17.37209751     42.60668717
 H     15.97976545    -18.25435263     43.33652459
 H     15.12305916    -17.44394432     45.59874339
 H     14.11528745    -16.99143998     45.25979651
 H     12.88402182    -16.80828066     44.82931349
 H     13.62012452    -15.35924052     44.10357100
 H     14.73886536    -14.21768944     44.94939039
 H     14.17079827    -14.79635602     46.53391286
 H     11.83775705    -14.20245974     45.23829969
 H     12.92368979    -13.41115126     44.07088904
 H     14.00879566    -12.00718186     45.64311387
 H     12.71542860    -12.38112993     46.80742962
 H     10.85125420    -12.09216688     46.05648414
 H     11.50871225    -11.10225605     44.73130788
 H     12.79173567     -9.61883565     45.72301701
 H     12.03122578    -10.00107028     47.28627900
 H      9.78237784     -9.67589413     46.43730113
 H     10.49881122     -8.88544269     45.01245854
 H     11.66618817     -7.39552503     46.84644410
 H     10.50210591     -8.13278203     47.97322325
 H      8.56158101     -7.92625230     47.30140161
 H      8.71564168     -7.36053380     46.20633402
 H      9.11470274     -6.84362553     44.98228981
 H      9.48823613     -5.37444936     45.91516753
 H      7.28182122     -5.38511168     46.98595877
 H      6.77129035     -6.57401508     45.76361118
 H      7.27373939     -5.66843573     43.83550390
 H      7.45862731     -4.08266353     44.62252974
 H      5.30076499     -4.15897661     45.69009887
 H      4.94800315     -5.21616329     43.99271715
 H      5.21457243     -5.09319303     42.64668710
 H      5.29638368     -3.35141971     43.00417739
 H      3.56492938     -2.83615347     44.14625197
 H      2.78026493     -4.36178068     43.67187872
 H      3.04645845     -4.22790307     41.38571779
 H      3.44902604     -2.50243880     41.55595015
 H      1.76863536     -1.68114319     42.74576665
 H      0.93623980     -2.89499289     41.29483595
 H      1.14566218     -2.96997098     40.00499515
 H      1.72609745     -1.30787521     40.26729120
 H     -0.39083429     -0.79544502     41.50858105
 H     -1.03975790     -2.31512214     40.84695709
 H     -0.60246028     -1.84202479     38.57877821
 H     -0.33659968     -0.13926517     39.02396861
 H     -2.60151044     -0.15741107     40.14543076
 H     -2.89936779     -1.69332305     39.29659506
 H     -2.50886108     -1.29530997     37.19290345
 H     -2.58362453      0.45592598     37.50249953
 H     -4.87499991     -0.07259455     38.59807984
 H     -4.72952932     -1.67055125     37.82759989
 H     -4.37243558     -1.35620295     35.74127952
 H     -4.90952360      0.33428839     35.88974541
 H     -7.02697975     -0.53801885     36.98267508
 H     -6.54045767     -2.14834132     36.40093247
 H     -6.38581073     -1.18794382     34.07273083
 H     -7.25957603      0.22847241     34.70405161
 H     -9.02126120     -0.40806689     35.66653366
 H     -8.90083016     -1.99864161     34.87670134
 H     -8.63170367     -1.75690418     32.81460747
 H     -9.17045263     -0.06382001     32.92176265
 H    -10.88816617      0.21379507     33.90472346
 H    -11.29452170     -1.51150863     33.74203048
 H    -10.85472583     -1.27842545     31.25357869
 H    -10.87850416      0.48142731     31.51932206
 H    -13.24347584     -0.09066185     32.57210761
 H    -13.02382395     -1.68271637     31.80700492
 H    -12.62608518     -1.18172386     29.67628414
 H    -13.23218656      0.46874010     29.95355028
 H    -15.30880394     -0.23358735     30.91943305
 H    -14.98833701     -1.86986297     30.29640036
 H    -14.55397296     -1.74032403     28.22804453
 H    -15.23832102     -0.09822512     28.16934554
 H    -17.23349892     -0.32138991     29.10872958
 H    -17.12271734     -2.08818534     28.92318164
 H    -16.61538891     -1.96243334     26.55843325
 H    -17.13086338     -0.25920571     26.59803596
 H    -19.25844481     -0.66625985     27.56996239
 H    -19.05502558     -2.39293935     27.18856336
 H    -18.57371310     -2.21297997     24.93341082
 H    -19.16048524     -0.53285091     24.96704845
 H    -21.18646264     -0.73187774     25.89274828
 H    -21.14470185     -2.48630593     25.59525131
 H    -20.61664007     -2.01692879     23.18159359
 H    -21.08461007     -0.33024518     23.50465571
 H    -23.03279957     -0.35352584     24.38872130
 H    -23.27346458     -2.03223256     23.84808207
 H    -22.40915182     -1.04872688     21.53033793
 H    -22.84577545      0.34311218     22.06621827
 H    -23.61345405     -2.71281973     21.67611567
 H    -22.11464446     -2.06970908     20.96320251
 H    -22.85025989     -0.50124293     19.56017258
 H    -24.49334857     -1.17655490     19.67188650
 H    -24.02335545     -3.38228202     19.17982640
 H    -22.43118252     -2.92014950     18.61846913
 H    -21.52410999     -2.02779525     17.96406284
 H    -22.89105016     -1.62807566     16.89637118
 H    -23.75405488     -3.47087753     16.23051742
 H    -22.29835230     -4.35529821     16.74723468
 H    -20.96435178     -2.66858112     15.35890585
 H    -22.52509152     -2.18783918     14.65091905
 H    -23.20078325     -4.32984999     13.95355098
 H    -21.53193436     -4.89765008     14.20015411
 H    -20.64538234     -3.00004036     12.84817918
 H    -22.17043092     -2.82437331     12.20189261
 H    -19.81033183     -4.84323671     12.92609900
 H    -19.50602026     -3.10350795     13.14746970
 H    -19.90974119     -2.95054646     10.58746457
 H    -19.77719471     -4.72556235     10.59155182
 H    -17.82088704     -5.08925929     11.59474438
 H    -17.38365665     -3.38060350     11.35476180
 H    -17.68478216     -2.91081500      9.29239284
 H    -17.74261031     -4.64396979      8.89102387
 H    -15.80006410     -5.34461471      9.89723195
 H    -15.27955484     -3.64754247     10.02869523
 H    -15.67346317     -3.33572092      7.58669848
 H    -15.77491867     -5.10849302      7.46319740
 H    -13.52458677     -5.26215340      8.58150931
 H    -13.35992394     -3.51616307      8.27709086
 H    -13.78912806     -3.72651318      5.90600560
 H    -13.53930666     -5.48076284      6.07471860
 H    -11.37445701     -5.22529420      7.13109215
 H    -11.38350895     -3.52501788      6.60455141
 H    -11.78856793     -3.80100509      4.36526046
 H    -11.38229600     -5.52674309      4.52349496
 H     -9.20741507     -4.89104825      5.59197949
 H     -9.51505658     -3.23315340      5.02188472
 H     -9.83362862     -3.88251754      2.72709622
 H     -9.12298037     -5.46363179      3.13122917
 H     -7.11990131     -4.40154900      4.08632483
 H     -7.64039728     -2.88744083      3.30861854
 H     -7.59687914     -4.62898519      1.21241686
 H     -6.73552130     -5.68159672      2.36060600
 H     -5.02763691     -4.35367632      3.00948303
 H     -5.35494863     -3.27623859      1.63098325
 H     -5.45802991     -4.34934712     -0.14230472
 H     -4.65669258     -5.74058752      0.62618426
 H     -2.81289876     -4.53756754      1.49306415
 H     -3.25026984     -3.17907101      0.42936288
 H     -3.28345919     -4.52915913     -1.56965319
 H     -2.44189108     -5.80414795     -0.65618000
 H     -0.67219170     -4.17705178     -0.00331618
 H     -1.32915969     -3.09046856     -1.25071211
 H     -1.31145190     -4.43857380     -3.07206446
 H     -0.23468641     -5.56560117     -2.21261576
 H      1.40863361     -4.06723347     -1.56543804
 H      0.75063414     -2.88484421     -2.72183719
 H      1.01592194     -4.81077309     -4.45192831
 H      1.99271463     -5.61957638     -3.20293674
 H      3.52438661     -4.24787574     -2.59507771
 H      3.23084120     -3.25710759     -4.04437970
 H      3.28472079     -4.56748726     -5.74105184
 H      4.07586548     -5.82532986     -4.76115963
 H      5.79759145     -4.71714407     -3.84539087
 H      5.57116427     -3.40350664     -5.02494760
 H      5.54993525     -4.45016971     -6.98117656
 H      6.23859680     -5.90004128     -6.21183634
 H      8.03423164     -5.04688062     -5.14256881
 H      7.89281538     -3.56054328     -6.11162476
 H      7.84616698     -4.54125689     -8.22338190
 H      8.42621017     -6.06024161     -7.49915681
 H      9.95909326     -6.03562804     -6.35627908
 H     10.45039990     -4.44930717     -6.99695880
 H     10.23225882     -5.42081369     -9.32594734
 H     10.15811029     -7.01763839     -8.54305556
 H     11.67911383     -7.36866821     -7.26051535
 H     12.62499402     -6.04053506     -7.97440587
 H     12.67652953     -6.24580277    -10.06148365
 H     12.14435327     -7.93912090     -9.92833409
 H     12.87729697     -9.16626665     -8.79574185
 H     14.34905868     -8.17809038     -8.63545522
 H     15.27020417     -8.50823471    -10.47125216
 H     13.49728710     -9.23203238    -11.25191423
 H     15.30037305    -10.37938495     -9.55396301
 H     16.28360961     -8.95007516     -9.95219165
 H     15.80223047     -9.96902366    -12.41605210
 H     15.23180286    -11.39118247    -11.51032405
 H     17.04761447    -11.84000212    -10.21816971
 H     18.03087816    -10.77923863    -11.25558958
 H     16.97113868    -12.41295981    -13.11037422
 H     16.48505263    -13.39770265    -11.70956425
 H     18.39266083    -13.72639035    -10.61746733
 H     19.30342065    -13.20270522    -12.05431705
 H     18.67264282    -14.22937411    -13.74580510
 H     17.88044315    -15.45923988    -12.73184428
 H     19.60734560    -15.99999973    -11.32818842
 H     20.73846549    -15.18619133    -12.43568576
 H     20.43475581    -15.93534879    -14.39321702
 H     19.53848345    -17.32761475    -13.74010293
 H     20.95439149    -18.11609004    -12.18064228
 H     22.26571432    -17.14470895    -12.89135874
 H     21.66729767    -18.24652003    -15.12333486
 H     20.70104996    -19.39591136    -14.16754638
 H     22.40989461    -20.07284370    -12.70382615
 H     23.15316876    -20.09592701    -14.62620448
 H     22.54456862    -20.73782503    -15.65903427
 H     21.73373580    -21.64358893    -14.35887715
 H     23.76404031    -22.15358387    -13.18194531
 H     24.66880374    -21.65629885    -14.63190304
 H     23.60281857    -22.99072727    -16.19541974
 H     22.90401224    -23.94652685    -14.86636611
 H     24.58494209    -24.51768850    -13.60285790
 H     25.71908172    -24.09173553    -14.90691236
 H     24.50766095    -25.50201482    -16.51913117
 H     23.65971385    -26.23077934    -15.13415656
 H     25.61035145    -26.82868046    -13.92671842
 H     26.56167011    -26.54490319    -15.40412491
 H     25.34327529    -27.90534164    -16.85075892
 H     24.56212566    -28.65725190    -15.43912763
 H     25.52741001    -29.30354504    -13.98870694
 H     27.01360640    -29.36179442    -14.96650751
 H     25.81748092    -30.63453742    -16.73684840
 H     24.51559918    -30.89830996    -15.55202999
 H     25.60599695    -31.76430062    -13.80116151
 H     27.01427750    -32.08276736    -14.84211851
 H     25.91146273    -33.24697720    -16.53660997
 H     24.50687424    -33.42638343    -15.45808726
 H     25.24090464    -34.25201301    -13.60666894
 H     26.75931771    -34.72455565    -14.40628877
 H     25.91430955    -35.87009361    -16.20868021
 H     24.32892219    -35.93064569    -15.40174339
 H     23.86610474    -36.33997757    -13.82640668
 H     25.37598697    -37.25950561    -13.61906516
 H     25.75772478    -38.52631258    -15.16357633
 H     24.06663028    -38.41579127    -15.70786588
 H     22.96837567    -38.87449444    -13.76122029
 H     24.48753874    -39.49068659    -13.06788236
 H     25.27128649    -40.93227468    -14.47067829
 H     23.68985864    -41.01759572    -15.28312702
 H     22.10430630    -41.27351699    -14.27649144
 H     23.04447355    -41.87709688    -12.89083508
 H     24.39047341    -43.31867911    -13.42088262
 H     23.54464949    -43.57782979    -14.96545035
 H     21.38528388    -43.86674512    -14.01043832
 H     22.16247044    -44.06027247    -12.42084879
 H     23.59762237    -45.87922050    -13.47772861
 H     22.45898157    -45.83348555    -14.84508815
 H     20.47738327    -46.10908220    -13.92376643
 H     21.25056551    -46.68159653    -12.42620735
 H     22.63269692    -48.27018207    -13.11461235
 H     21.78716807    -48.32721287    -14.67989032
 H     19.66999078    -48.55724026    -14.18648547
 H     20.41214302    -49.45200320    -12.57098265
 H     21.44676912    -50.41193770    -12.29356448
 H     21.23007287    -50.94791902    -13.97702325
 H     19.62888201    -51.25238341    -14.77496895
 H     19.54039856    -52.19973484    -12.93765232
 H     20.53600387    -53.03324712    -12.43703386
 H     21.21300697    -53.08103043    -13.87878440
 H     21.57150261    -52.92304047    -15.13572969
 H     20.07785015    -53.84966207    -15.41616042
 H     19.77062460    -55.44433344    -14.37283592
 H     21.49446001    -55.52989540    -13.93770684
 H     22.82951972    -55.36606464    -15.27892789
 H     21.64227996    -55.74218901    -16.55064283
 H     20.74099992    -57.67144236    -15.64563714
 H     22.11659386    -57.75642400    -14.51923309
 H     23.92006205    -57.61659190    -15.46655770
 H     23.15754451    -57.99208666    -17.03047501
 H     22.03842058    -59.95389185    -16.29171165
 H     23.57549602    -59.97250323    -15.02094098
 H     24.99539192    -59.79009236    -15.10536902
 H     24.82904208    -60.27707150    -16.80931905
 H     23.63874321    -62.08398157    -16.81800727
 H     23.92516766    -62.29289672    -15.07370737
 H     25.61577900    -63.51397004    -15.56647492
 H     26.14879920    -62.32668004    -17.01107974
 H     25.05635950    -63.94126049    -17.53487764
 H     24.64595533    -64.21518449    -16.87279999
 H     23.72015904    -64.35803316    -15.85405296
 H     25.04235891    -65.19163455    -15.00248800
 H     25.31460533    -66.57567271    -17.15261652
 H     23.74094025    -65.90400210    -17.64323194
 H     22.28288838    -66.14053457    -16.27209533
 H     23.23045683    -67.39616762    -15.43916897
 H     23.71158642    -68.74772572    -17.25662936
 H     22.45770881    -67.89633804    -18.19000850
 H     20.65939423    -67.87584929    -17.10521947
 H     21.26266645    -69.16991377    -16.04233358
 H     21.96016028    -70.72927784    -17.46262755
 H     21.06291982    -69.93150826    -18.77670134
 H     18.99001684    -69.95938407    -17.40907759
 H     19.81648375    -71.10564112    -16.32680503
 H     20.17880376    -72.46581401    -18.53809625
 H     18.38142583    -71.52083353    -18.78992729
 H     17.23755071    -71.43591815    -17.97231817
 H     17.84366130    -72.93294300    -17.22411152
 H     18.19384960    -73.47868911    -19.89222087
 H     17.18517391    -72.74538353    -20.10703241
 H     18.67026540    -74.86024084    -18.46957810
 H     19.19326729    -74.11847133    -20.00075859
 H     17.65431841    -74.72940358    -21.45852980
 H     17.07808763    -75.97877473    -20.32923954
 H     19.40081896    -76.86265283    -20.12232379
 H     19.81266654    -75.87258048    -21.54461639
 H     17.84123841    -78.04792429    -20.29748653
 H     19.84721872    -77.97313809    -19.82780696
 H     20.96340305    -78.21393519    -20.62615467
 H     19.83366792    -79.14059330    -21.64265354
 H     18.92855606    -80.39979453    -19.79702004
 H     20.30108518    -79.83887901    -18.81223365
 H     21.96192704    -80.59531969    -20.39381526
 H     20.48068379    -82.00087440    -20.57214532
 H     19.76004047    -82.73418049    -19.62315142
 H     21.14367162    -82.40828338    -18.55187995
 H     22.81922274    -83.08971511    -20.08387957
 H     21.27148820    -84.39266392    -20.45687029
 H     20.53952886    -85.15736932    -19.46969111
 H     21.94325288    -84.90662894    -18.40434853
 H     23.37915829    -85.72725662    -20.35997614
 H     22.47269088    -85.79786162    -21.20717373
 H     21.30725036    -85.73383946    -21.99714200
 H     21.61843620    -87.67856284    -21.36831882
 H     22.60881379    -88.51171364    -21.26798961
 H     22.19636060    -87.76399658    -23.14061973
 H     20.89626090    -87.90934878    -23.64585882
 H     20.72477772    -89.18058248    -22.41183084
 H     22.92688687    -90.13318037    -23.30327735
 H     22.70584368    -89.04206386    -24.69211547
 H     20.79138727    -89.35565989    -25.52257822
 H     20.64844803    -90.90352671    -24.65543154
 H     22.50688888    -91.96816581    -25.41780982
 H     22.94592465    -90.59629921    -26.46351354
 H     21.44730831    -91.50606036    -26.77132902
1502
Final Conformation Chain 2 (Simulation Frame 3)
 C      0.00000000      0.00000000      0.00000000
 C      1.54000000      0.00000000      0.00000000
 C      2.16637443      0.36521501      1.35862911
 C      3.70443251      0.29078133      1.37953303
 C      4.33412513      0.71892908      2.71810567
 C      4.38397070      2.24380559      2.92755025
 C      4.88879534      2.66877110      4.31900863
 C      5.13846323      4.18188517      4.45954954
 C      3.87072880      5.04276011      4.30676291
 C      4.07517409      6.52731165      4.66159930
 C      4.87246544      6.75719397      5.95893527
 C      4.94519114      8.23194296      6.39645827
 C      5.99059325      8.50923677      7.49274408
 C      7.44855352      8.35554668      7.02122397
 C      8.46208107      9.17390685      7.84259388
 C      9.91711092      9.03827074      7.35670193
 C     10.92940137      9.86385148      8.17235167
 C     12.39730498      9.63057412      7.76931238
 C     12.90496104      8.20410652      8.05051608
 C     14.36341090      7.96192711      7.61938599
 C     14.95267975      6.63119754      8.12289471
 C     14.89997827      6.46179331      9.65264134
 C     15.85991668      5.38782566     10.19735386
 C     15.78168168      5.19354198     11.72304490
 C     16.36281935      3.85479750     12.21461606
 C     16.16284201      3.60028973     13.72021723
 C     16.47299892      2.15679723     14.15808944
 C     17.57780085      2.04974660     15.22558786
 C     17.87734357      0.60742348     15.67456244
 C     19.27214569      0.42325053     16.30082705
 C     19.62858420     -1.04128675     16.61655188
 C     20.90458612     -1.20697061     17.46270077
 C     21.34702270     -2.67023639     17.64898852
 C     22.80365141     -2.82867642     18.12304502
 C     23.19790324     -4.27826296     18.46196148
 C     24.68808595     -4.45786101     18.80649019
 C     24.97266825     -5.62935744     19.76472243
 C     24.77479920     -7.01900609     19.13122070
 C     25.21916511     -8.18680483     20.03143459
 C     24.85696565     -9.57744029     19.47776993
 C     25.37825128    -10.74732166     20.33289499
 C     25.07339089    -12.13757478     19.74479942
 C     25.24832635    -13.29370996     20.74697158
 C     24.07946003    -13.44583311     21.73803670
 C     24.20561698    -14.66274417     22.67335049
 C     23.39449380    -14.53794122     23.97646346
 C     23.59927648    -15.70827004     24.95625656
 C     23.40228043    -15.32844853     26.43562405
 C     23.75716190    -16.45475646     27.42410247
 C     23.68981690    -16.03371111     28.90389485
 C     23.94461584    -17.18467480     29.89483384
 C     23.92554328    -16.75409263     31.37329088
 C     22.55006790    -16.89968165     32.05039599
 C     22.57477679    -16.67445305     33.57363647
 C     21.22087550    -16.92005352     34.26517945
 C     21.32399086    -17.13027365     35.78727496
 C     19.96622605    -17.12353226     36.51393120
 C     20.07083780    -17.31312593     38.03863137
 C     18.71207205    -17.48182025     38.74354119
 C     18.81691657    -17.67550432     40.26771116
 C     17.50447192    -17.40220569     41.02560094
 C     17.32982171    -18.24772698     42.30082290
 C     15.96004585    -18.07619575     42.98338508
 C     15.64434469    -19.15647626     44.03454006
 C     16.59923585    -19.15283065     45.24274931
 C     16.82974643    -20.54335870     45.86314965
 C     18.07758287    -20.62938048     46.76153958
 C     18.17531364    -21.93357641     47.57463347
 C     18.95068141    -21.79038306     48.89747152
 C     19.16837547    -23.12018169     49.64302158
 C     20.24742199    -23.05402527     50.73978133
 C     20.59705406    -24.42058391     51.35774162
 C     21.41012325    -24.32848221     52.66236254
 C     21.48514876    -25.65068581     53.44833253
 C     22.01472099    -25.49554191     54.88606812
 C     22.35591502    -26.82976550     55.57529525
 C     22.63315244    -26.70210353     57.08474609
 C     22.99831432    -28.03241355     57.76924012
 C     23.40801228    -27.88500397     59.24640565
 C     23.49760778    -29.22058167     60.00785482
 C     24.15174257    -29.10674686     61.39736888
 C     24.47319185    -30.46340397     62.05139629
 C     25.16243537    -30.34948608     63.42382700
 C     25.36467163    -31.69925199     64.13715195
 C     25.95031482    -31.57625802     65.55612854
 C     26.02308835    -32.91058838     66.32154771
 C     26.78777802    -32.82652605     67.65563288
 C     26.77545782    -34.13466238     68.46817676
 C     27.41475720    -34.01121863     69.86376192
 C     27.59621193    -35.35659598     70.59083411
 C     28.10214398    -35.22263045     72.03917316
 C     28.14284592    -36.55288059     72.81401373
 C     28.34922443    -36.38798565     74.33118794
 C     28.51815696    -37.71818101     75.08857958
 C     28.97104471    -37.55304858     76.55118820
 C     29.16337607    -38.88411632     77.30143303
 C     29.34652145    -38.72516828     78.82222010
 C     29.75746002    -40.02275302     79.54263896
 C     30.06561916    -39.83719813     81.04003915
 C     30.40193325    -41.14675555     81.77729906
 C     30.66946318    -40.96686243     83.28317628
 C     30.88927923    -42.28845294     84.04257040
 C     30.89191487    -42.13728647     85.57513092
 C     31.50277724    -43.33761773     86.32189193
 C     32.11893870    -42.97851817     87.68680679
 C     32.24735577    -44.17332141     88.64990298
 C     32.77694941    -43.79804209     90.04643297
 C     32.85345227    -44.98332881     91.02665881
 C     32.94516115    -44.56735203     92.50657530
 C     33.31903284    -45.71849606     93.45877664
 C     33.90856083    -45.25295740     94.80314656
 C     34.17262511    -46.39607429     95.80072053
 C     34.88150737    -45.94875773     97.09261597
 C     35.74742048    -47.04352966     97.74320716
 C     36.29424155    -46.66645790     99.13259682
 C     36.86084598    -47.85775620     99.92718336
 C     37.04119213    -47.57872055    101.43091684
 C     37.78615981    -48.69262956    102.18975138
 C     37.78312260    -48.51827941    103.71984706
 C     38.80373128    -49.40791774    104.45367372
 C     38.56842618    -49.50957949    105.97219155
 C     39.81159079    -49.94315426    106.77103738
 C     39.48699867    -50.64104218    108.10490110
 C     40.61543609    -51.54947164    108.62738069
 C     40.40630039    -52.04022013    110.07203573
 C     41.39654534    -53.13478889    110.51127845
 C     41.00140763    -53.84963279    111.81682983
 C     42.18199803    -54.51400772    112.54923153
 C     41.75966815    -55.46348828    113.68577195
 C     42.93018872    -56.23013850    114.32898968
 C     43.22476797    -57.59085526    113.67075495
 C     44.24379767    -58.45149735    114.44047808
 C     44.87369467    -59.57793988    113.60026560
 C     45.97129415    -60.36910536    114.33574677
 C     46.89950193    -61.16833641    113.40233364
 C     47.80201827    -60.29091171    112.51509628
 C     48.78405816    -61.08906141    111.63751170
 C     49.63054653    -60.21658575    110.69207864
 C     50.91839747    -60.89916107    110.19495603
 C     51.71534498    -60.06547646    109.17444409
 C     53.21947268    -60.39365544    109.13573455
 C     54.08135335    -59.30431113    108.47083553
 C     55.49644190    -59.77379249    108.08520404
 C     56.34350325    -58.69726071    107.38152342
 C     57.82473404    -58.69131028    107.80285455
 C     58.75560778    -57.97128501    106.80955818
 C     60.18852322    -57.76152708    107.33334721
 C     61.20733989    -57.39120740    106.23951179
 C     62.59584985    -57.00452664    106.78183831
 C     63.67559738    -56.86039376    105.69327458
 C     65.02585577    -56.33576166    106.21592498
 C     66.24459584    -56.84499710    105.42412203
 C     67.49609607    -57.08751333    106.28814347
 C     68.73025448    -57.54483983    105.48857764
 C     69.97716044    -57.80328821    106.35462034
 C     71.17963069    -58.36107862    105.57069742
 C     72.31106928    -58.90493313    106.46270022
 C     73.61929447    -59.19913858    105.70534296
 C     74.53911936    -60.21100243    106.41361812
 C     75.55018154    -60.89989404    105.47832051
 C     74.90225530    -61.65682604    104.30407797
 C     75.75230212    -61.66678143    103.01997467
 C     74.99316778    -62.14932417    101.76998765
 C     75.73889699    -61.89429316    100.44694300
 C     75.02293612    -62.45825817     99.20559554
 C     73.57409244    -61.96346518     99.03936717
 C     72.70634316    -62.85858834     98.13528436
 C     71.58581138    -62.10362180     97.39634319
 C     70.64855422    -63.01438163     96.58168647
 C     69.55396924    -62.25556439     95.80858873
 C     68.77569526    -63.12812658     94.80632887
 C     67.63770831    -62.38585244     94.08133591
 C     67.06504997    -63.14648866     92.87092483
 C     65.95580595    -62.38588714     92.12081616
 C     65.37125664    -63.15372920     90.92068255
 C     64.69250035    -62.25355571     89.87159838
 C     63.86796441    -63.02452335     88.82405393
 C     63.17742915    -62.12337815     87.78352599
 C     62.13512712    -62.85326664     86.91607612
 C     61.48983191    -61.96749952     85.83412848
 C     60.73369269    -62.75555019     84.74838927
 C     60.26359356    -61.89375741     83.56183121
 C     59.53198564    -62.68662657     82.46287337
 C     59.00844183    -61.81598587     81.30551143
 C     57.90885076    -62.48900914     80.46316995
 C     57.47313376    -61.67105187     79.23325263
 C     56.11198155    -62.09379198     78.65002415
 C     55.45569725    -61.02673789     77.75431969
 C     54.00313175    -61.34934496     77.35735854
 C     53.32029808    -60.24535148     76.52878351
 C     51.99159008    -60.67880510     75.88205868
 C     51.19040064    -59.52006378     75.25995417
 C     49.91843639    -59.14636227     76.04357022
 C     49.06026721    -58.06267622     75.36476968
 C     47.59580957    -58.03436706     75.84033505
 C     46.68307827    -57.11879750     75.00352326
 C     45.36707353    -56.73552146     75.70554249
 C     44.30850372    -56.13043253     74.76485266
 C     43.02782742    -55.66313409     75.48116291
 C     41.88764081    -55.26131870     74.52716139
 C     40.62796189    -54.73800419     75.24196973
 C     39.35811137    -54.76177802     74.37104238
 C     38.10456932    -54.21128735     75.07616106
 C     38.00877685    -52.67427114     75.07392549
 C     36.71383312    -52.12647265     75.70212731
 C     36.44434106    -50.64301777     75.38854215
 C     35.06472911    -50.14433780     75.85714554
 C     34.76654658    -48.68114251     75.48065286
 C     33.32276515    -48.23844597     75.78250542
 C     32.95777181    -46.85744330     75.20699565
 C     31.47377906    -46.48144505     75.37430026
 C     31.13083685    -45.05762207     74.89815031
 C     29.69266734    -44.61635525     75.22762268
 C     29.23965917    -43.34853021     74.47995746
 C     27.79618672    -42.91607045     74.79770863
 C     27.49316622    -41.44548145     74.45544179
 C     25.99060234    -41.11943850     74.36827650
 C     25.68624419    -39.70340482     73.84500339
 C     24.29287466    -39.17708556     74.23629534
 C     24.02523551    -37.72575194     73.79629533
 C     22.87697660    -37.04110628     74.56073094
 C     22.44042360    -35.69244309     73.95895934
 C     20.94728493    -35.37193904     74.15748907
 C     20.47227041    -34.11214131     73.40991240
 C     19.07033376    -33.62865666     73.82514272
 C     18.47230440    -32.56285246     72.88811429
 C     17.01943607    -32.17795482     73.22371436
 C     16.31187161    -31.37629189     72.11543232
 C     14.78353203    -31.56308946     72.08568669
 C     14.05002065    -30.57772008     71.15691964
 C     12.51608379    -30.61757485     71.28749259
 C     11.76849636    -30.05484860     70.06436046
 C     10.27246819    -29.78729849     70.31319105
 C      9.49500809    -29.35881289     69.05479689
 C      7.96711731    -29.50247197     69.18329530
 C      7.18487941    -28.99320020     67.95840914
 C      5.71814724    -29.46038880     67.91333629
 C      4.95441864    -29.00605738     66.65559960
 C      3.43461659    -29.24468116     66.72531642
 C      2.67945767    -28.85247274     65.44176371
 C      1.20088708    -29.28288675     65.42861829
 C      0.44082995    -28.87409896     64.15315535
 C     -1.05608652    -29.23526629     64.17313603
 C     -1.84704567    -28.69453795     62.96748414
 C     -3.34291190    -29.06016795     62.98477433
 C     -4.16641723    -28.38178758     61.87426137
 C     -5.68938087    -28.54189876     62.03719128
 C     -6.49274285    -28.22173705     60.76294405
 C     -7.99329483    -27.98144295     61.01234836
 C     -8.82903215    -27.85038022     59.72550505
 C     -8.34950462    -26.73501903     58.77807550
 C     -9.49007738    -25.98802506     58.06204910
 C     -9.03496714    -25.18076680     56.83208618
 C    -10.19098077    -24.54758476     56.03564849
 C     -9.73217178    -23.59717158     54.91412760
 C    -10.88587231    -23.00764404     54.08164195
 C    -10.42554929    -22.24123030     52.82772302
 C    -11.56559516    -21.89318004     51.85265562
 C    -11.08360135    -21.38016019     50.48295032
 C    -12.22368854    -21.00614405     49.51759384
 C    -11.81873674    -19.98960871     48.43395647
 C    -12.99354885    -19.16061236     47.88242989
 C    -12.67876779    -18.42712088     46.56542453
 C    -13.67548091    -17.30527173     46.21956699
 C    -13.22336378    -16.40215128     45.05699934
 C    -13.77786259    -14.96712037     45.12640667
 C    -13.44191386    -14.10555648     43.89496601
 C    -14.22239910    -12.77976348     43.82629500
 C    -13.82658666    -11.88060117     42.64036092
 C    -14.69436404    -10.61662670     42.49568551
 C    -14.32131961     -9.73546638     41.28903960
 C    -15.33983700     -8.61993257     40.98936202
 C    -14.94593542     -7.71267645     39.80896891
 C    -16.02430090     -6.68315244     39.42321223
 C    -15.57775776     -5.68466983     38.33913120
 C    -16.74045819     -4.94494569     37.65171873
 C    -16.29086894     -3.87055008     36.64417539
 C    -17.15588956     -3.80394373     35.37181422
 C    -16.53232289     -2.97562188     34.23310990
 C    -17.46740161     -2.76388400     33.02795645
 C    -16.75710530     -2.22973578     31.77027413
 C    -15.96102518     -0.93232724     32.00391391
 C    -15.28207047     -0.37745177     30.73792271
 C    -14.43021035      0.88154176     30.98464042
 C    -13.82954999      1.49210853     29.70479068
 C    -13.01247762      2.77489948     29.94653460
 C    -12.44109065      3.40486499     28.66268866
 C    -11.26896579      4.37310726     28.90810712
 C    -10.58989653      4.87384571     27.61980360
 C     -9.41565995      5.83949878     27.86532878
 C     -8.38560083      5.87679246     26.72113152
 C     -6.95528719      6.22039835     27.17691423
 C     -6.06226977      6.79193847     26.06001594
 C     -4.58842854      6.97380447     26.46783551
 C     -3.79376211      7.91359900     25.54215116
 C     -2.54145085      8.52584132     26.19673183
 C     -1.81646108      9.56026193     25.31584374
 C     -0.98783333     10.58764837     26.10922458
 C     -0.18511506     11.56103804     25.22618668
 C      0.94608694     12.29444606     25.97056206
 C      1.77769717     13.23365093     25.07729915
 C      2.73771477     14.15172519     25.85646913
 C      3.29672206     15.32229011     25.02647600
 C      4.43228993     16.09659779     25.72112211
 C      4.82986423     17.40110655     25.00572601
 C      6.17100998     17.99154557     25.47933962
 C      6.51892729     19.34836523     24.83934434
 C      7.87778071     19.92058502     25.28395867
 C      8.25403820     21.24655354     24.59705417
 C      9.06031319     22.20784956     25.49004386
 C      9.75555274     23.34492035     24.71847923
 C     10.44186847     24.38647667     25.62165759
 C     11.09938733     25.54691125     24.85181311
 C     12.08782484     26.37600033     25.69276649
 C     13.18563888     27.07000247     24.86526098
 C     14.38534445     27.55659123     25.69925015
 C     15.25621336     28.60944504     24.98883745
 C     16.68934850     28.71395937     25.54273314
 C     17.50430813     29.88120942     24.95539328
 C     18.96756425     29.92647709     25.43333927
 C     19.76134843     31.13653352     24.90677482
 C     21.23605979     31.15911286     25.34985108
 C     21.97829635     32.45963893     24.99024460
 C     23.41391386     32.53471390     25.54248197
 C     24.28253249     33.62217516     24.88329332
 C     25.78516028     33.49933558     25.19733178
 C     26.68400706     34.38500567     24.31457305
 C     28.17974158     34.31475516     24.67435511
 C     29.03331961     35.41833272     24.02234199
 C     30.55107561     35.17723368     24.12178030
 C     31.39449298     36.12633943     23.25031863
 C     32.88423859     35.74460247     23.16947969
 C     33.76763232     36.80864637     22.49196505
 C     35.12478796     36.27400809     21.99811235
 C     36.09675030     37.37187043     21.52738153
 C     37.21472179     36.86256827     20.59875295
 C     37.99836362     37.98243147     19.88923770
 C     39.06143855     37.47229763     18.89866455
 C     39.87289718     38.59117401     18.21951026
 C     40.91506376     38.08243860     17.20625951
 C     41.44388947     39.16961348     16.25232338
 C     40.40313421     39.66850790     15.23274854
 C     41.01129604     40.15734814     13.90505339
 C     40.02892967     40.13235007     12.71933360
 C     40.62061370     40.67267087     11.40420492
 C     39.57078675     40.94885216     10.31187381
 C     40.17307473     41.30045273      8.93883841
 C     39.13252649     41.41607421      7.80946202
 C     39.63413726     42.18281924      6.57168632
 C     38.51449834     42.61695046      5.60756041
 C     38.00200682     41.48813897      4.69392095
 C     36.74185519     41.85702671      3.88922243
 C     36.10356805     40.66914427      3.14549880
 C     34.76827080     41.00611386      2.45627260
 C     33.93553369     39.77083458      2.06610083
 C     32.76323624     40.08014642      1.11655101
 C     31.87514703     38.86237843      0.80042020
 C     30.81155994     39.12676524     -0.28146802
 C     30.03193404     37.87093599     -0.71352862
 C     28.81621702     38.16647789     -1.61146353
 C     28.04418560     36.90965245     -2.05413420
 C     26.67229781     37.20779660     -2.68709073
 C     25.83145642     35.95139569     -2.98042076
 C     24.35747215     36.24789626     -3.31367412
 C     23.45125678     35.00276998     -3.30782292
 C     21.94640143     35.32299072     -3.37467396
 C     21.05600472     34.09521415     -3.64180385
 C     19.62501282     34.44499292     -4.09071027
 C     18.64541189     33.25772665     -4.04191651
 C     17.37282330     33.46060466     -4.88510024
 C     16.57610902     32.16717833     -5.13787420
 C     15.13873705     32.40435487     -5.63718282
 C     14.29042071     31.12285377     -5.73574407
 C     12.83076612     31.36904509     -6.16047730
 C     11.90870584     30.15053007     -5.96909817
 C     10.51243273     30.31683778     -6.59708158
 C      9.63266717     29.05580536     -6.51100136
 C      8.22729304     29.23002305     -7.11612262
 C      7.34878849     27.96789472     -7.03328654
 C      5.98878382     28.10367496     -7.74289985
 C      5.26540146     26.76363494     -7.97227012
 C      4.04380017     26.86284293     -8.90471210
 C      3.46846513     25.49929651     -9.33054160
 C      2.70564478     24.76458519     -8.21255037
 C      2.25732679     23.34080173     -8.59130047
 C      1.49769126     22.60474613     -7.47202570
 C      2.10312741     21.23923612     -7.09728650
 C      1.22587935     20.40512753     -6.14528927
 C      1.66933272     18.93656554     -6.01010498
 C      0.74666459     18.08301595     -5.12030915
 C      1.17649795     16.60874183     -5.00472749
 C      2.34103756     16.37073799     -4.02554331
 C      2.47346514     14.91112240     -3.55269524
 C      3.55561517     14.69651300     -2.47822136
 C      3.77323393     13.22109116     -2.09433016
 C      4.83790331     13.00851434     -1.00213503
 C      4.88024483     11.57576355     -0.43907877
 C      6.05163368     11.31656584      0.52645978
 C      6.04533244      9.91106397      1.15584424
 C      7.30214331      9.59096850      1.98624495
 C      7.27905576      8.19993178      2.64661138
 C      8.63317257      7.76404311      3.23650012
 C      8.57477725      6.44712166      4.03268343
 C      9.91574085      6.04194728      4.67241022
 C      9.77014973      5.16650150      5.93098001
 C     11.10835241      4.65736688      6.49807394
 C     10.95871406      3.55144443      7.55927321
 C     12.29660642      3.04736279      8.13158931
 C     12.14585072      1.96083833      9.21248584
 C     13.48282996      1.37102325      9.69849477
 C     13.32844893      0.18604132     10.66987745
 C     14.65853378     -0.49288852     11.04608027
 C     14.54582207     -1.48467890     12.21878991
 C     15.89465293     -1.83671754     12.87325466
 C     15.81653629     -2.99502572     13.88509454
 C     17.14152464     -3.27748909     14.61736519
 C     17.08105930     -4.47688308     15.58141809
 C     18.40798083     -4.76360140     16.30851633
 C     18.33616517     -5.93669159     17.30365547
 C     19.64578594     -6.18485031     18.07496001
 C     19.48825683     -7.11130586     19.29498653
 C     20.82093356     -7.64494946     19.85247845
 C     20.66492024     -8.83792844     20.81375937
 C     21.67320697     -8.84041700     21.97778328
 C     21.37194486     -9.88845725     23.06518972
 C     22.41082603     -9.92872151     24.20128158
 C     22.04889297    -10.89180216     25.34717866
 C     22.92078190    -10.72394369     26.60544462
 C     22.27832545    -11.27717984     27.89104933
 C     23.14720723    -11.10299498     29.15053498
 C     22.47996982    -11.60188527     30.44571941
 C     23.41312757    -11.60299341     31.67079711
 C     22.68447415    -11.80063073     33.01303541
 C     23.60825606    -12.22092884     34.17129984
 C     22.88241401    -12.40162511     35.51744329
 C     23.82779073    -12.58770295     36.71879165
 C     23.15754794    -13.22412830     37.95059414
 C     24.15144462    -13.78116633     38.98668199
 C     23.50102908    -14.66746115     40.06512583
 C     24.46711658    -15.10711279     41.18091316
 C     23.92682098    -16.24721379     42.06400453
 C     24.79598992    -16.54856237     43.29904882
 C     24.29528127    -17.73553316     44.14284453
 C     24.97728991    -17.85823615     45.51812929
 C     25.13334356    -19.30826498     46.01276417
 C     25.98680712    -19.44694683     47.28711393
 C     26.30010877    -20.90380955     47.67569223
 C     26.77805852    -21.07536486     49.12956045
 C     26.68966148    -22.52153594     49.65145620
 C     27.06307126    -22.67505688     51.13759093
 C     27.07009025    -24.13272859     51.63432418
 C     27.12949277    -24.27194674     53.16686770
 C     26.79368050    -25.68420849     53.68101444
 C     26.92063616    -25.84163042     55.20767766
 C     26.67602074    -27.27601650     55.71195921
 C     26.87128000    -27.44818958     57.22979657
 C     27.24339583    -28.88080329     57.65494097
 C     27.32530121    -29.08034766     59.17976016
 C     28.35664965    -30.13637100     59.61877622
 C     28.61195207    -30.16926590     61.13711038
 C     29.77746294    -31.08424864     61.55662318
 C     29.86193864    -31.33533574     63.07366607
 C     30.98489556    -32.30493827     63.48650829
 C     30.69243068    -33.08774171     64.78006272
 C     31.71386142    -34.19946826     65.08394315
 C     31.48404874    -34.91017276     66.43067447
 C     32.62022413    -35.86766973     66.83552637
 C     32.24852830    -36.83421209     67.97536762
 C     31.07493994    -37.77399121     67.64204261
 C     30.35720032    -38.34318685     68.87997078
 C     29.00695157    -39.01464026     68.56759502
 C     28.16421158    -39.33713240     69.81554859
 C     26.65100362    -39.42596849     69.54368497
 C     25.97569225    -38.06203499     69.30865313
 C     24.43944872    -38.09797090     69.40996666
 C     23.77028247    -36.71764098     69.27393055
 C     22.24540958    -36.73691401     69.48838623
 C     21.55396555    -35.39346813     69.19063074
 C     20.06395229    -35.35646542     69.57804691
 C     19.19814959    -36.39220184     68.83694251
 C     17.74727325    -36.47531227     69.34650166
 C     16.71589422    -36.79995048     68.24993095
 C     15.27705402    -36.96670729     68.77293291
 C     14.36183354    -35.76248953     68.48339694
 C     12.93893736    -35.90548791     69.05481440
 C     12.07145330    -34.64265949     68.89881510
 C     11.69384597    -34.31822197     67.44150491
 C     10.74113178    -33.11733954     67.29379892
 C     10.39750536    -32.76621671     65.83426692
 C      9.72185886    -31.39301026     65.66278558
 C      9.16571493    -31.14073212     64.24904598
 C      8.20957583    -29.93696786     64.15766970
 C      7.53114896    -29.77875802     62.78424092
 C      6.54875375    -28.59555259     62.70346602
 C      5.79478406    -28.49773058     61.36422722
 C      4.66513935    -27.45109732     61.35637576
 C      3.81217965    -27.45968847     60.07419561
 C      2.78203344    -26.31740075     59.99951267
 C      1.64169692    -26.43408977     61.02791741
 C      0.40788733    -25.57461960     60.69531415
 H     -0.36333333      0.00000000      1.02766186
 H     -0.36333333     -0.88998127     -0.51383093
 H     -0.36333333      0.88998127     -0.51383093
 H      1.88274777      0.95210214      0.40512403
 H      1.88274777     -0.54560156      0.87917172
 H      1.62962592     -0.17361839      2.13943614
 H      2.92603070      1.12884725      1.19163162
 H      4.08263012      0.75916533      0.47086202
 H      3.99657879     -0.75921298      1.39573452
 H      3.76360841      0.26229660      3.52686858
 H      3.65267518      1.41211349      3.21128041
 H      3.42317516      2.66249048      2.62809259
 H      5.17136633      2.65130553      2.29347461
 H      5.76136304      2.06419410      4.56641974
 H      4.09729081      2.47806117      5.04375017
 H      4.74273562      4.67831574      3.57351548
 H      4.45807468      4.57271587      5.21613581
 H      3.06842248      4.57579638      4.87803293
 H      3.59849858      5.06773620      3.25160088
 H      5.00901868      6.86218487      4.21005283
 H      5.14277723      6.70485321      4.79122391
 H      5.72849726      6.08242778      5.95927567
 H      4.22560754      6.52391357      6.80466284
 H      3.95253900      8.66986944      6.29175809
 H      5.98964546      8.54329121      6.37980168
 H      6.66377680      7.65378498      7.54865609
 H      5.60563283      8.12675309      8.43805446
 H      7.54763236      8.84049673      6.05008709
 H      8.05527535      8.05550896      7.87560444
 H      8.22415335      9.05287037      8.89940066
 H      8.36054471     10.22310534      7.56515399
 H      9.92356138      9.11172479      6.26919888
 H     10.28879522      8.05856089      7.65690083
 H     10.70277917      9.73538928      9.23076551
 H     10.81387467     10.91314179      7.90079427
 H     12.45800324      9.63014002      6.68100382
 H     12.45702054      8.69013102      7.22149780
 H     12.14055290      7.49807144      7.72602472
 H     13.06191159      8.10160903      9.12427620
 H     14.96098726      8.81657965      7.93651614
 H     14.39089272      7.88258357      6.53262505
 H     14.20674272      6.14092522      8.74844326
 H     14.20423001      6.13771145      8.74289025
 H     13.91605083      6.77824012      9.99883236
 H     15.66378843      7.10144789     10.09483593
 H     16.82419503      5.50776747      9.70351054
 H     15.28010645      4.67627568     10.78524563
 H     14.73098931      5.17074175     12.01222595
 H     16.27205905      6.04098921     12.20206810
 H     17.30745337      3.68132030     11.69918204
 H     15.65935544      3.06188337     11.96059696
 H     15.13888222      3.86868439     13.98016079
 H     17.07515136      3.15458902     14.11662929
 H     17.54178053      1.98292329     14.03329469
 H     15.65869012      1.51446426     13.82281411
 H     17.39831067      2.81338292     15.98238562
 H     18.53835472      2.23380333     14.74438169
 H     17.92467610     -0.02472479     14.78785606
 H     17.06286231      0.27220183     16.31670473
 H     19.44959585      1.24804111     16.99099510
 H     20.01310074      0.45218214     15.50192243
 H     19.33707465     -1.65620244     15.76508205
 H     19.06463576     -1.34912872     17.49706053
 H     20.87798878     -0.47501426     18.26993834
 H     21.76664599     -1.01288287     16.82451370
 H     21.27177380     -3.17624500     16.68649547
 H     20.67263055     -3.14405982     18.36228130
 H     22.98512215     -2.10746037     18.91992379
 H     23.46304530     -2.61440991     17.28198048
 H     22.81509994     -4.93010217     17.67667982
 H     22.73686068     -4.54546678     19.41282523
 H     24.98484464     -3.65042022     19.47587323
 H     25.26349195     -4.39417659     17.88293606
 H     24.10311550     -6.28658404     19.77030800
 H     24.65653060     -5.33753553     20.76621979
 H     25.23078223     -7.01244194     18.14120232
 H     23.70466680     -7.20357502     19.03714121
 H     24.85285889     -8.00001479     21.04090437
 H     26.30869828     -8.21748812     20.04015281
 H     25.09864125     -9.59684928     18.41507703
 H     23.78585773     -9.73053009     19.60964622
 H     25.18333762    -10.51937500     21.38082103
 H     26.45299542    -10.83568550     20.17409678
 H     25.29242311    -12.11370439     18.67729996
 H     24.01432844    -12.34802749     19.89378398
 H     24.99674466    -12.92601263     21.74176067
 H     26.31527211    -13.46145563     20.89390066
 H     23.14564761    -13.35279944     21.18356480
 H     24.14690233    -12.64395465     22.47325263
 H     25.23063872    -14.70736800     23.04137107
 H     23.98692084    -15.56189316     22.09732696
 H     22.40584783    -14.15129818     23.72910480
 H     23.90624003    -13.83390621     24.63262694
 H     24.66517992    -15.93054427     25.00669482
 H     23.06501362    -16.57624115     24.56987676
 H     22.50654087    -14.71245152     26.51498600
 H     24.32636581    -15.54580071     26.97127714
 H     24.69709648    -16.90606873     27.10639155
 H     22.96512322    -17.20283117     27.39005918
 H     22.77858330    -15.45483415     29.05440994
 H     24.55667737    -15.41016312     29.12262033
 H     24.79893176    -17.76052934     29.53897450
 H     23.06025135    -17.82153051     29.91518717
 H     23.11595672    -16.03738488     31.51112992
 H     24.84782029    -16.21293217     31.58459747
 H     22.12877775    -17.86413046     31.76675343
 H     21.90355450    -16.10020910     31.68850641
 H     23.18429094    -15.79472114     33.78018977
 H     23.02759729    -17.54833369     34.04202330
 H     20.79366847    -17.83972862     33.86543970
 H     20.56160293    -16.08311959     34.03495943
 H     22.00504782    -16.38128973     36.19135974
 H     21.72925857    -18.12565738     35.96912462
 H     19.26484487    -17.72470898     35.93535451
 H     19.60881684    -16.09496248     36.56295016
 H     20.88023095    -16.68317996     38.40761756
 H     20.30420035    -18.35887268     38.23877049
 H     18.10510818    -18.17172760     38.15726249
 H     18.22228286    -16.50878547     38.78108957
 H     19.53728478    -16.95548328     40.65596281
 H     19.17407660    -18.68704341     40.46090896
 H     16.68836323    -17.87511668     40.47932098
 H     17.34455032    -16.32444299     41.05646591
 H     18.27422457    -18.24623725     42.84506644
 H     17.08261770    -19.26724626     42.00489958
 H     15.18835236    -18.09965849     42.21394461
 H     15.94516963    -17.10780257     43.48347842
 H     16.55432567    -19.72536208     44.22533719
 H     15.39869342    -20.08126103     43.51249735
 H     16.74531051    -18.12062817     45.56105770
 H     17.55355739    -19.57408581     44.92665679
 H     16.98945252    -21.25706917     45.05493475
 H     15.93641370    -20.82156373     46.42230847
 H     18.10194930    -19.74612950     47.39979815
 H     18.96023394    -20.64001977     46.12207582
 H     17.92917910    -22.76696967     46.91662628
 H     17.45047941    -21.88595005     48.38731241
 H     18.62312290    -20.87448280     49.38933750
 H     20.01334130    -21.71833195     48.66581965
 H     19.47819195    -23.87285102     48.91803701
 H     18.22241035    -23.41863145     50.09488187
 H     20.10074698    -22.13673979     51.31002144
 H     21.22484809    -23.02994512     50.25795318
 H     20.69583997    -25.14651705     50.55067136
 H     19.78078704    -24.71798916     52.01604116
 H     20.96713713    -23.55387820     53.28834330
 H     22.43330285    -24.05038413     52.40964733
 H     21.68998759    -26.45694970     52.74400335
 H     20.51991474    -25.82123416     53.92513075
 H     21.53131796    -24.62929596     55.33777539
 H     23.09067090    -25.32763106     54.83876319
 H     22.90212918    -27.45193647     54.86631473
 H     21.68951234    -26.95493019     56.42872437
 H     21.87319282    -26.05254973     57.51907457
 H     23.61601713    -26.24939111     57.21562186
 H     23.71118280    -28.55969840     57.13529280
 H     22.09047573    -28.62752708     57.86807825
 H     22.70526413    -27.20720657     59.73100416
 H     24.40977069    -27.45695245     59.28317491
 H     24.01705168    -29.94111955     59.37610867
 H     22.48460186    -29.57242653     60.20310908
 H     23.74189525    -28.22972702     61.89832931
 H     25.22559900    -28.97870805     61.26121295
 H     24.92334654    -31.10924999     61.29751057
 H     23.53970649    -30.90622929     62.39868697
 H     24.64795941    -29.58281208     64.00315891
 H     26.19810044    -30.04986554     63.26343565
 H     25.73569516    -32.41987176     63.40835248
 H     24.39992314    -32.03289198     64.51930991
 H     25.43110431    -30.76880949     66.07241074
 H     27.00885606    -31.33097007     65.46996443
 H     26.41005570    -33.67293017     65.64538852
 H     25.01490427    -33.18115701     66.63532706
 H     26.46775899    -31.92490503     68.17790422
 H     27.85343611    -32.76047541     67.43629265
 H     26.97299362    -34.96279841     67.78753711
 H     25.78593087    -34.25492106     68.90916912
 H     27.05757918    -33.09002347     70.32411323
 H     28.49674084    -33.96069448     69.74186552
 H     27.99565912    -36.07947111     69.87950192
 H     26.61962025    -35.69195476     70.93998048
 H     27.54473702    -34.42129284     72.52420461
 H     29.16037947    -34.96304791     72.00994050
 H     28.57207542    -37.31523114     72.16387247
 H     27.12102597    -36.82987762     73.07335260
 H     27.70171695    -35.58340126     74.67972491
 H     29.39054116    -36.11886043     74.50819383
 H     29.19852883    -38.35225387     74.52012051
 H     27.54297500    -38.20043899     75.15601390
 H     28.38883947    -36.74913266     77.00158387
 H     30.02701567    -37.28283802     76.55458947
 H     29.70014339    -39.57157899     76.64769309
 H     28.17957518    -39.29382019     77.53029663
 H     28.60992338    -38.00726774     79.18297225
 H     30.34953587    -38.34123224     79.00837912
 H     30.53729001    -40.50829792     78.95594370
 H     28.88567581    -40.67465949     79.59840850
 H     29.29089335    -39.20480801     81.47360883
 H     31.03239843    -39.34228910     81.13225024
 H     31.08671218    -41.72381332     81.15586351
 H     29.47813794    -41.70797703     81.91777217
 H     29.90692279    -40.30256907     83.68980448
 H     31.54184082    -41.56341725     83.54997130
 H     31.55426425    -42.91736053     83.45064966
 H     29.92486542    -42.78389286     84.15457614
 H     30.06316032    -41.48777042     85.85690173
 H     31.83318962    -41.67492087     85.87231757
 H     32.41966360    -43.62936767     85.80973827
 H     30.78975609    -44.16135711     86.28791751
 H     31.43028206    -42.31496262     88.20982310
 H     33.06119064    -42.45933373     87.51156753
 H     32.63892973    -45.02337888     88.09117931
 H     31.25498937    -44.41482846     89.03066966
 H     32.26310003    -42.89526274     90.37665753
 H     33.84556084    -43.59893563     89.96564789
 H     33.28342325    -45.83578780     90.50078942
 H     31.84115323    -45.22785822     91.34846004
 H     32.22345787    -43.76996586     92.68383127
 H     33.95188640    -44.19499382     92.69618974
 H     34.13473445    -46.28435748     93.00874139
 H     32.44872650    -46.36460298     93.57372326
 H     33.30481110    -44.42451474     95.17364492
 H     34.92859047    -44.91007553     94.62973504
 H     34.64561338    -47.21780934     95.26300908
 H     33.21541943    -46.72813535     96.20270654
 H     34.41026825    -45.02993944     97.44162408
 H     35.92836510    -45.75430082     96.85943061
 H     36.32162343    -47.53735882     96.95929153
 H     35.08511393    -47.76682036     98.21891778
 H     35.48789817    -46.20867533     99.70561119
 H     37.10036052    -45.94497438     98.99942875
 H     37.47289407    -48.45846959     99.25439770
 H     36.02523183    -48.45624662    100.29003072
 H     36.14998927    -47.06669346    101.79380213
 H     37.90904656    -46.93154153    101.55775537
 H     38.64616959    -48.99751595    101.59349014
 H     37.10873185    -49.53815942    102.30921111
 H     36.77690610    -48.23732522    104.03080217
 H     38.47879151    -47.71891327    103.97510878
 H     39.74785978    -49.36609990    103.91055988
 H     38.42917275    -50.43154138    104.45293026
 H     37.50281098    -49.66077415    106.14454130
 H     38.88120978    -48.57164750    106.43104882
 H     40.67070745    -49.38620196    106.39710866
 H     39.97004893    -51.00898115    106.60670825
 H     38.68432335    -51.35753782    107.93041238
 H     39.15116619    -49.88489264    108.81451678
 H     41.56152063    -51.01995809    108.51495539
 H     40.63271341    -52.45653830    108.02320227
 H     39.36892526    -52.35705223    110.17960086
 H     40.60427109    -51.20877693    110.74850435
 H     42.39464449    -52.84635392    110.18157654
 H     41.11048495    -54.06941239    110.02883842
 H     39.93582480    -54.07522465    111.77509776
 H     41.19756353    -53.17477394    112.65000951
 H     43.02000688    -53.81698794    112.55137355
 H     42.46052762    -55.41537981    112.00329231
 H     40.93427600    -56.07948340    113.32887167
 H     41.42448635    -54.86031807    114.52953664
 H     43.75033523    -55.53065872    114.49081597
 H     43.63830887    -56.49596604    113.54413200
 H     43.19806735    -57.46116942    112.58882674
 H     42.44710918    -58.29277085    113.97185514
 H     43.99506860    -58.41086555    115.50094161
 H     45.23652714    -58.02958582    114.28370165
 H     45.14325837    -59.16935041    112.62636106
 H     44.13114703    -60.36535465    113.47103329
 H     45.62072134    -60.58425312    115.34515756
 H     46.86576992    -59.74826041    114.38638914
 H     46.77143814    -60.79212031    112.38736511
 H     46.35317684    -62.03865551    113.03877682
 H     48.21766149    -59.49370235    113.13137378
 H     47.18875139    -59.85729842    111.72517018
 H     48.24464045    -61.92555631    111.19320908
 H     49.58239936    -61.46902670    112.27498931
 H     49.99079382    -59.35386801    111.25247137
 H     48.99319465    -59.87870954    109.87493591
 H     50.67515172    -61.92205253    109.90751115
 H     51.63711611    -60.91315299    111.01431416
 H     51.75649902    -59.03603687    109.53033800
 H     51.19040431    -60.09915216    108.21976968
 H     53.33428149    -61.47749901    109.14994858
 H     53.68629813    -59.96716497    110.02358582
 H     53.75318210    -58.33347727    108.84216457
 H     53.92430423    -59.35319536    107.39331713
 H     55.41638672    -60.75492867    107.61716242
 H     56.09122536    -59.85278087    108.99520046
 H     56.21761191    -57.75700476    107.91833821
 H     55.97656411    -58.58511135    106.36128904
 H     58.17849449    -59.72203541    107.82650330
 H     57.89532214    -58.25994566    108.80137440
 H     58.27948879    -57.03817620    106.50836278
 H     58.88598164    -58.61094334    105.93666651
 H     60.51972591    -58.68648976    107.80541587
 H     60.16907188    -56.96223071    108.07418928
 H     60.75694153    -56.63871851    105.59220831
 H     61.42647008    -58.28665106    105.65790831
 H     62.87418497    -57.72181972    107.55392652
 H     62.52784446    -56.00831803    107.21892374
 H     63.24990161    -56.30104666    104.86019960
 H     63.95683387    -57.85777506    105.35528556
 H     65.26298820    -56.86143473    107.14087689
 H     64.92373848    -55.26986231    106.41971566
 H     66.01645436    -56.77392258    104.36063725
 H     66.41472691    -57.88821629    105.69029705
 H     67.19033348    -57.60761301    107.19594607
 H     67.92427963    -56.12004947    106.55038861
 H     68.80719589    -56.92707123    104.59384753
 H     68.58518535    -58.58587200    105.19994818
 H     69.67106062    -58.36494698    107.23719744
 H     70.38741239    -56.84091754    106.66062040
 H     71.27740323    -57.79484705    104.64445644
 H     70.98142940    -59.40729196    105.33777279
 H     71.86404516    -59.50287206    107.25689067
 H     72.84027681    -58.05804354    106.89952673
 H     73.82019329    -58.36602811    105.03179519
 H     73.48132998    -60.11098637    105.12430992
 H     73.92711485    -61.03967006    106.76979286
 H     75.00649866    -59.71310890    107.26318190
 H     75.98631985    -60.14218413    104.82735272
 H     75.30380395    -60.63256125    104.45073535
 H     74.12118478    -61.02637513    103.87915388
 H     74.45843685    -62.57419437    104.69080856
 H     76.78474008    -61.88369478    103.29405581
 H     75.69730141    -60.67787566    102.56484798
 H     74.01192292    -61.67480576    101.76045931
 H     74.87323237    -63.23057131    101.83795914
 H     76.78327458    -62.17537736    100.58246838
 H     75.67575631    -60.83060074    100.21743990
 H     74.03691360    -62.81015378     99.50895846
 H     75.14629244    -63.54124682     99.20125980
 H     73.55453878    -60.89025726     99.22895201
 H     72.95125131    -62.47363188     99.77414528
 H     72.89081511    -63.89867044     98.40416969
 H     73.00502141    -62.69242102     97.10025792
 H     72.00170404    -61.17902692     96.99602131
 H     70.80024591    -61.86777395     98.11423085
 H     70.39904589    -63.88266851     97.19154177
 H     71.17909289    -63.33934537     95.68668519
 H     70.01051023    -61.38938342     95.32963064
 H     68.80006657    -61.92130624     96.52133149
 H     68.53285729    -64.07357629     95.29135935
 H     69.41693680    -63.31576507     93.94510817
 H     68.00977375    -61.41042662     93.76794829
 H     66.81410345    -62.25236186     94.78273116
 H     66.92986561    -64.19018833     93.15467857
 H     67.78409558    -63.08219995     92.05426066
 H     66.27050678    -61.34895321     92.00320913
 H     65.04735861    -62.42392738     92.72196204
 H     65.20278562    -64.18702433     91.22402837
 H     66.09886188    -63.12722220     90.10951796
 H     65.33309588    -61.38942872     89.69546799
 H     63.73552952    -61.92054854     90.27336084
 H     63.28047987    -63.78327734     89.34102037
 H     64.55818914    -63.50801669     88.13273345
 H     63.89253098    -61.36929807     87.45475160
 H     62.32877435    -61.63497778     88.26243110
 H     61.52906337    -63.48394640     87.56648351
 H     62.66478350    -63.47695317     86.19595166
 H     62.27645961    -61.38637395     85.35286978
 H     60.78467228    -61.29264711     86.31933370
 H     60.13758436    -63.52636365     85.23685776
 H     61.46678648    -63.22458049     84.09212403
 H     61.08050821    -61.23204065     83.27393995
 H     59.41095263    -61.29792636     83.88754396
 H     58.82988088    -63.36883860     82.94218085
 H     60.27152617    -63.25995506     81.90387940
 H     59.79034898    -61.10935359     81.02731723
 H     58.13302119    -61.26958538     81.65648893
 H     57.19955523    -62.96331693     81.14142651
 H     58.37468661    -63.24852580     79.83529144
 H     58.36760941    -61.28875499     78.74145754
 H     56.86192092    -60.83611847     79.57589690
 H     55.41427542    -62.23476750     79.47551313
 H     56.24406561    -63.03746546     78.12074713
 H     56.21936002    -60.61765999     77.09282559
 H     55.06670044    -60.23445053     78.39389940
 H     53.47649043    -61.70428612     78.24322856
 H     54.02049802    -62.13764750     76.60477798
 H     54.02186496    -59.90489089     75.76721243
 H     52.26917111    -60.20317537     76.81418370
 H     51.41264519    -61.22879596     76.62397031
 H     52.21761383    -61.33277344     75.03983621
 H     51.87976188    -58.88911909     74.69889277
 H     51.05124138    -58.75219764     76.02095107
 H     50.16528802    -59.11922738     77.10490333
 H     49.16729004    -59.91572583     75.86479974
 H     48.98675144    -58.29877642     74.30318966
 H     49.55972920    -57.10191393     75.48956369
 H     47.58639338    -58.12417555     76.92658813
 H     47.07620442    -58.88581428     75.40084886
 H     46.90185812    -57.28784570     73.94917128
 H     46.90820338    -56.08356621     75.25987236
 H     45.59430639    -56.46851771     76.73761527
 H     44.70611979    -57.60214948     75.69154154
 H     44.27664526    -56.72907912     73.85451904
 H     44.60990814    -55.11203901     74.51963843
 H     43.31701752    -55.12235902     76.38229077
 H     42.44815789    -56.54421368     75.75644818
 H     41.81882063    -56.01206590     73.73992418
 H     42.13349521    -54.29488274     74.08709645
 H     40.94037194    -54.04788998     76.02570587
 H     40.11067308    -55.58643662     75.68993702
 H     39.32004239    -55.71653586     73.84655386
 H     39.42487750    -53.95107370     73.64550755
 H     38.41837282    -53.44293745     75.78274849
 H     37.76378757    -54.95332090     75.79820954
 H     38.26434035    -52.31638098     74.07657804
 H     38.72764256    -52.28500701     75.79490089
 H     36.52157315    -52.67490424     76.62427638
 H     35.89547329    -52.29460796     75.00204323
 H     36.63962343    -50.47563637     74.32932156
 H     36.15796688    -50.14357827     76.31409604
 H     34.88842753    -50.52055544     76.86485484
 H     34.30818397    -50.54473700     75.18229746
 H     35.07070106    -48.52472197     74.44570230
 H     35.35175678    -48.03323345     76.13321923
 H     33.05238416    -48.60352473     76.77331903
 H     32.66427917    -48.68613930     75.03814872
 H     33.33385781    -46.80154418     74.18546023
 H     33.44267958    -46.09370167     75.81499497
 H     31.16729442    -46.73844105     76.38826290
 H     30.89035410    -47.06250504     74.66009819
 H     31.62260328    -44.88883403     73.94014385
 H     31.51344397    -44.34908062     75.63278001
 H     29.47193861    -44.90654744     76.25483605
 H     29.01218266    -45.13216317     74.55013999
 H     29.54900718    -43.43587914     73.43843263
 H     29.73169853    -42.48850360     74.93421674
 H     27.64672339    -42.98606576     75.87514140
 H     27.11435910    -43.59917723     74.29117510
 H     27.91494537    -41.22803230     73.47415783
 H     27.97090678    -40.81381444     75.20434815
 H     25.48854464    -41.58796190     75.21475384
 H     25.60260929    -41.53698355     73.43918150
 H     26.32812705    -39.51031507     72.98546704
 H     25.35652112    -39.09130620     74.68447821
 H     24.12155496    -39.40921983     75.28742009
 H     23.54921623    -39.68873493     73.62532311
 H     24.37463501    -37.60862883     72.77047752
 H     24.58844772    -37.05995559     74.45021216
 H     22.98730853    -37.26887657     75.62094204
 H     21.93312397    -37.44810704     74.19797400
 H     22.37237782    -35.80585786     72.87701347
 H     23.19960406    -34.94812040     74.19922748
 H     20.67885402    -35.61275917     75.18610489
 H     20.50052657    -35.19982044     73.17826378
 H     20.88700880    -34.13479498     72.40215307
 H     20.84995091    -33.23699140     73.93865628
 H     19.00343028    -33.66477274     74.91248791
 H     18.33265855    -34.30486050     73.39307367
 H     18.64990271    -32.87322241     71.85843991
 H     18.98119004    -31.61732529     73.07550104
 H     16.93954848    -32.04932842     74.30314626
 H     16.36717195    -32.99119775     72.90545748
 H     16.53518772    -31.84544381     71.15724319
 H     16.70568878    -30.35994933     72.12290474
 H     14.41153929    -31.50812407     73.10877036
 H     14.56661075    -32.54819808     71.67264169
 H     14.60154614    -30.51573012     70.21879551
 H     14.03783767    -29.59900966     71.63658359
 H     12.26293294    -30.64594974     72.34730838
 H     12.15431473    -31.52454878     70.80311524
 H     12.24088700    -30.44695535     69.16369438
 H     11.85778132    -28.96859717     70.07799947
 H     10.16863055    -29.29378844     71.27950652
 H      9.75227008    -30.74487388     70.33649979
 H      9.79472188    -30.00536337     68.23002776
 H      9.76017504    -28.32733973     68.82274171
 H      7.66718460    -29.11560472     70.15719165
 H      7.71586464    -30.56121920     69.11984132
 H      7.68410165    -29.35342588     67.05890115
 H      7.20025745    -27.90337891     67.97078121
 H      5.29074314    -29.34445285     68.90932052
 H      5.70228199    -30.51318837     67.63144740
 H      5.59559568    -29.16610461     65.78877962
 H      4.73447214    -27.94297779     66.75350430
 H      3.08335667    -28.93216955     67.70870492
 H      3.24872258    -30.31077587     66.59498799
 H      3.24245215    -29.22431547     64.58568533
 H      2.62399983    -27.76486807     65.39549808
 H      0.76661460    -29.04706823     66.40016192
 H      1.15876543    -30.35948004     65.26347391
 H      1.07190728    -29.09524510     63.29237908
 H      0.24905442    -27.80200683     64.19720757
 H     -1.46070647    -28.96574225     65.14870740
 H     -1.15114144    -30.31095399     64.02494518
 H     -1.26309631    -28.87605873     62.06517968
 H     -1.98490516    -27.62160757     63.10133166
 H     -3.72380264    -28.89780798     63.99307065
 H     -3.44117300    -30.11408799     62.72458728
 H     -3.60735060    -28.45242873     60.94122635
 H     -4.30041154    -27.33295617     62.13902199
 H     -5.94343401    -28.35947707     63.08135570
 H     -5.95686645    -29.56462124     61.77150312
 H     -5.99154058    -28.68907426     59.91530485
 H     -6.50375742    -27.14025527     60.62738651
 H     -8.09687326    -27.33998905     61.88751029
 H     -8.46643461    -28.94351145     61.20897732
 H     -8.51854009    -28.63357661     59.03391407
 H     -8.14937954    -27.85592916     58.87336566
 H     -7.26292380    -26.78725371     58.70941954
 H     -8.64092311    -25.77485189     59.20381524
 H    -10.27060646    -25.77349078     58.79201445
 H     -9.88953074    -26.63775949     57.28334366
 H     -8.34995973    -25.79828868     56.25111151
 H     -8.51365286    -24.28933359     57.18091029
 H    -10.88972610    -24.10038029     56.74265848
 H    -10.69454119    -25.33634616     55.47673672
 H     -8.90807965    -24.07002110     54.37991276
 H    -10.29373473    -22.66709756     55.00193062
 H    -11.67429263    -22.69101020     54.76445702
 H    -11.26719748    -23.78820660     53.42330070
 H     -9.65140879    -22.82748918     52.33264019
 H    -11.03972527    -21.34623803     52.72834136
 H    -12.40920359    -21.51757297     52.43174469
 H    -11.85992256    -22.80357226     51.33048958
 H    -10.26556968    -22.01729210     50.14681475
 H    -10.72173468    -20.35951697     50.60720782
 H    -12.96927705    -20.43632961     50.07212902
 H    -12.67312283    -21.92661434     49.14497706
 H    -10.84992187    -20.28538464     48.03144643
 H    -11.73429909    -19.00767451     48.89954805
 H    -13.60675640    -18.83411079     48.72235443
 H    -13.58565449    -19.79915281     47.22685609
 H    -12.15264464    -19.11735375     45.90597551
 H    -12.03389202    -17.57798193     46.79169491
 H    -13.86777593    -16.72700289     47.12329691
 H    -14.60311091    -17.76432374     45.87769883
 H    -12.83264699    -17.03699685     44.26175630
 H    -12.43212846    -15.74629373     45.42017635
 H    -13.68009103    -14.61112581     46.15198387
 H    -14.83185374    -14.99318618     44.84977837
 H    -13.61325188    -14.70451209     43.00054136
 H    -12.38976326    -13.82598150     43.94897495
 H    -14.21473919    -12.32580212     44.81723416
 H    -15.24943062    -13.00127789     43.53605783
 H    -13.74730805    -12.50354748     41.74943286
 H    -12.85687613    -11.43306653     42.85824673
 H    -14.82457629    -10.17532492     43.48381379
 H    -15.66570087    -10.91135757     42.09852247
 H    -14.16838784    -10.38323665     40.42584463
 H    -13.39307729     -9.21292671     41.52016399
 H    -15.61962870     -8.14906221     41.93175138
 H    -16.22044717     -9.07309571     40.53409408
 H    -14.58685235     -8.34412282     38.99629749
 H    -15.11011894     -6.67619200     40.10366154
 H    -16.41352115     -6.23550384     40.33766198
 H    -16.82755117     -7.20624557     38.90430707
 H    -15.05942664     -6.23804982     37.55605813
 H    -14.89199116     -4.96950660     38.79340615
 H    -17.44439295     -4.62422007     38.41964511
 H    -17.23500705     -5.63963369     36.97280047
 H    -15.48516158     -4.28479382     36.03809142
 H    -15.92042066     -3.01076922     37.20242708
 H    -18.20386276     -3.85833098     35.66659242
 H    -16.90986471     -4.66096276     34.74484520
 H    -15.47860390     -3.24257536     34.15241212
 H    -16.62108535     -1.91980672     34.48899186
 H    -18.45634958     -2.50107797     33.40347597
 H    -17.52676791     -3.69936964     32.47168111
 H    -15.82912371     -2.78611235     31.63838294
 H    -15.72635457     -1.99236217     32.03353582
 H    -15.40097272     -1.03648544     32.93321058
 H    -16.66832887     -0.10814920     32.09639109
 H    -15.99591617     -0.42849901     29.91578009
 H    -14.41934559     -1.00321907     30.50940345
 H    -13.83791345      0.72341481     31.88590633
 H    -15.10252472      1.72617847     31.13524659
 H    -14.60352027      1.50960706     28.93748122
 H    -13.00634139      0.85776514     29.37610227
 H    -12.37461724      2.61622475     30.81604967
 H    -13.70674272      3.59039207     30.14918655
 H    -12.45439536      4.48872319     28.77746846
 H    -11.60272977      2.79527885     28.32555995
 H    -10.59143165      3.91535644     29.62887870
 H    -11.66959125      5.29814539     29.32271983
 H    -11.36741150      5.14262532     26.90473159
 H     -9.98662622      4.06241243     27.21269063
 H     -8.80409458      5.43710821     28.67289898
 H     -9.82292663      6.80525995     28.16455980
 H     -8.92549206      5.91783858     25.77512271
 H     -7.79409582      4.96218342     26.76250937
 H     -6.73591912      5.64792086     28.07816179
 H     -6.91460176      7.28565328     27.40423917
 H     -6.63992523      7.52965314     25.50306780
 H     -5.77922586      5.97531457     25.39585364
 H     -4.26926415      6.08160037     27.00654315
 H     -4.51930027      7.83985551     27.12607322
 H     -4.40633045      8.79165685     25.33751868
 H     -3.59180520      7.38618913     24.60986782
 H     -2.01838624      7.73821204     26.73908184
 H     -2.86288762      9.29714070     26.89664301
 H     -2.56477002     10.21627032     24.87111155
 H     -1.28593460      9.02696317     24.52702557
 H     -0.43158952     10.05638170     26.88152540
 H     -1.67400824     11.29397441     26.57652267
 H     -0.83113206     11.90220049     24.41725515
 H      0.66608160     11.02293034     24.80904838
 H      1.47554844     11.56973690     26.58908220
 H      0.49881449     13.05766241     26.60738868
 H      1.09365368     13.80162916     24.44675555
 H      2.42799819     12.62358913     24.45037555
 H      3.23721405     13.55595374     26.62044351
 H      2.15014703     14.93595116     26.33380946
 H      2.47700066     15.76158269     24.45798778
 H      4.04539326     14.92834042     24.33916597
 H      5.11977454     15.37464683     26.16186208
 H      3.99630855     16.71092673     26.50891663
 H      3.91871743     17.92651107     24.71961135
 H      5.39630860     17.14247836     24.11110193
 H      6.89447961     17.17995935     25.55692505
 H      6.02055052     18.43930458     26.46167042
 H      5.62466553     19.97149623     24.84952517
 H      6.82731948     19.17222498     23.80882560
 H      8.61149286     19.11470674     25.26588414
 H      7.77509063     20.29568358     26.30221984
 H      7.37547460     21.89169494     24.59274425
 H      8.55009101     21.02899655     23.57083699
 H      9.82987792     21.63294599     26.00517105
 H      8.38205043     22.64524841     26.22267055
 H      9.04847673     23.75037832     23.99477531
 H     10.61427021     22.92736617     24.19278654
 H     10.98664787     23.85667057     26.40307995
 H      9.67019355     25.00881247     26.07477564
 H     10.40797719     25.88005495     24.07781873
 H     12.01317280     25.17601363     24.38755986
 H     12.71209773     25.68894696     26.26402916
 H     11.51483108     27.00117036     26.37755885
 H     12.72113027     27.51786437     23.98676711
 H     13.90617546     26.31520717     24.55028306
 H     14.65905571     26.76702423     26.39908305
 H     14.07991471     28.44385681     26.25384231
 H     14.59682066     29.33989706     24.52007194
 H     15.84480830     28.10629734     24.22170097
 H     17.07621971     27.70491797     25.68509229
 H     16.64880902     29.22649982     26.50385688
 H     16.86985053     30.76734784     24.93744153
 H     17.79238019     29.61991474     23.93714008
 H     19.37265272     28.91533970     25.39328290
 H     18.98081250     30.28264902     26.46341988
 H     19.13708991     32.02471931     25.00438268
 H     19.98838984     30.96586665     23.85443219
 H     21.64513037     30.15583153     25.23073831
 H     21.27374255     31.44439830     26.40117987
 H     21.33145747     33.30223841     25.23463277
 H     22.17922795     32.45459747     23.91893649
 H     23.89883604     31.57419749     25.36824445
 H     23.35931609     32.72502620     26.61434965
 H     23.68951504     34.53331867     24.80425025
 H     24.55976735     33.28141828     23.88573351
 H     26.07109692     32.45199598     25.10027511
 H     25.94865151     33.82696309     26.22399182
 H     26.22923337     35.37315464     24.24498502
 H     27.48734161     33.76659779     23.91416664
 H     28.44546571     33.26956047     24.83265468
 H     28.33692880     34.87337055     25.59703653
 H     28.50182244     36.36501433     24.11931965
 H     29.15666046     35.17740357     22.96648206
 H     30.74874198     34.13280501     23.88054027
 H     30.86376850     35.37895958     25.14629473
 H     31.00281968     37.13691743     23.36618117
 H     31.29564724     35.81537908     22.21030268
 H     32.95423380     34.66811709     23.01333907
 H     33.35688071     36.00589892     24.11628145
 H     33.48454418     37.78699455     22.88028958
 H     33.58121396     36.77597731     21.41852155
 H     34.95624116     35.31955390     21.49940485
 H     35.76921068     36.12266425     22.86408833
 H     36.07199628     38.18542352     22.25237712
 H     35.75697861     37.73807116     20.55859248
 H     36.77116747     36.18824487     19.86619065
 H     37.93984126     36.31694140     21.20256838
 H     38.21995669     38.76110798     20.61907289
 H     37.36965342     38.39319579     19.09924012
 H     38.62224158     36.66778089     18.30878420
 H     39.90479870     37.08498608     19.47035801
 H     40.15336721     39.32069070     18.97927467
 H     39.23893180     39.06954802     17.47295402
 H     40.44944912     37.30989931     16.59430685
 H     41.75021506     37.65324383     17.75980639
 H     41.65606087     40.06481959     16.83686536
 H     40.69677218     39.96052769     16.18621378
 H     39.45948147     39.82561536     15.75518201
 H     40.27323184     38.89943627     14.47133261
 H     41.76960333     39.44019088     13.59079951
 H     41.47791994     41.12706742     14.07827770
 H     39.07561088     40.54020086     13.05540058
 H     39.89191037     39.09632258     12.40953889
 H     41.62051627     40.25639666     11.28168703
 H     40.68552389     41.75822727     11.47805584
 H     38.72544893     41.46162524     10.77075042
 H     39.23916237     39.99323712      9.90576402
 H     40.98993399     40.60802201      8.73541606
 H     40.56208614     42.31760118      8.98551988
 H     38.28187543     41.98538914      8.18412626
 H     38.80682581     40.41155749      7.53934127
 H     40.64177623     41.83781145      6.33988180
 H     39.66061718     43.24519684      6.81407579
 H     37.69445291     43.02699360      6.19704333
 H     37.69181823     41.90738517      5.69596035
 H     37.87174020     40.59047320      5.29834363
 H     38.75177378     41.30264820      3.92480283
 H     36.87698685     42.85853166      3.48077750
 H     35.88871211     41.85337665      4.56762758
 H     36.07731709     39.81514587      3.82232789
 H     36.72595766     40.43028994      2.28313010
 H     34.87802442     41.96276941      1.94552383
 H     33.97517453     40.44836820      2.95428673
 H     33.94648746     39.07196956      2.90250247
 H     34.40011133     39.30482068      1.19713670
 H     33.12130692     40.75381010      0.33805077
 H     31.97816582     40.57262816      1.69033336
 H     31.68565754     38.32578875      1.73007887
 H     32.41528533     38.21416205      0.11037229
 H     31.28205992     39.67440366     -1.09805967
 H     29.89925035     38.60026293     -0.00113512
 H     29.75958617     37.31174637      0.18158791
 H     30.68398519     37.26090818     -1.33866490
 H     29.11460970     38.89785110     -2.36256608
 H     28.02503614     38.58596347     -0.99004204
 H     27.92644796     36.25725833     -1.18890604
 H     28.63057478     36.39837215     -2.81757390
 H     26.78910493     38.03875465     -3.38276652
 H     25.98298866     37.49334448     -1.89247428
 H     25.89154957     35.28938389     -2.11657518
 H     26.25478654     35.45134794     -3.85153720
 H     24.32513364     37.08909971     -4.00608366
 H     23.84482766     36.51744833     -2.39029050
 H     23.69320975     34.40689169     -2.42777302
 H     23.65914690     34.42332031     -4.20733378
 H     21.79337356     36.09468319     -4.12910965
 H     21.63248843     35.69936895     -2.40107340
 H     21.40306573     33.27647211     -3.01147843
 H     21.16189596     33.81662873     -4.69026806
 H     19.68387592     35.23779617     -4.83643015
 H     19.07137368     34.80300658     -3.22271838
 H     18.79843712     32.72547326     -3.10309298
 H     18.86972334     32.59376301     -4.87674384
 H     17.66343605     33.87740688     -5.84942391
 H     16.72558247     34.16635374     -4.36442995
 H     16.51672879     31.61264365     -4.20135656
 H     17.11227853     31.57352154     -5.87827536
 H     15.16594595     33.17685602     -6.40568894
 H     14.53642194     32.74908230     -4.79665947
 H     14.45494319     30.53272111     -4.83420328
 H     14.62357575     30.55736064     -6.60598843
 H     12.82960379     32.07847942     -6.98800469
 H     12.29503520     31.79781260     -5.31357069
 H     12.11710663     29.71299831     -4.99276059
 H     12.13525461     29.42344440     -6.74892000
 H     10.63274127     30.74807259     -7.59089363
 H      9.93478862     30.99846916     -5.97273717
 H      9.72367595     28.64230422     -5.50659396
 H     10.00070018     28.33091142     -7.23707331
 H      8.32628378     29.75146187     -8.06817430
 H      7.63172648     29.83379040     -6.43138511
 H      7.45457457     27.54152648     -6.03572981
 H      7.70600666     27.25243297     -7.77396844
 H      6.15240315     28.58130542     -8.70892151
 H      5.34405719     28.73403533     -7.13046750
 H      5.33736207     26.17441764     -7.05807942
 H      5.76768865     26.23755307     -8.78408626
 H      4.31568127     27.47954809     -9.76136571
 H      3.23188173     27.34044063     -8.35626986
 H      3.77101642     24.75461831     -8.59432350
 H      4.14066064     25.05846552    -10.06669459
 H      2.06215376     25.48427879     -7.70652623
 H      3.43336953     24.36741743     -7.50489618
 H      3.08703101     22.84208957     -9.09227660
 H      1.41294264     23.41815828     -9.27623213
 H      0.77705606     23.29595605     -7.03497449
 H      2.20982788     22.34244493     -6.68961946
 H      3.18508937     21.35152093     -7.02764149
 H      1.86171998     20.52870456     -7.88783526
 H      0.19487664     20.45732526     -6.49515897
 H      1.29352990     20.83953853     -5.14788740
 H      2.75338926     18.91476076     -5.89854350
 H      1.38708655     18.40809569     -6.92068541
 H     -0.28701072     18.30969637     -5.38152045
 H      0.92649340     18.35459632     -4.08011412
 H      2.26077823     16.55901643     -5.10454558
 H      0.93232391     16.10615084     -5.94061280
 H      2.15068687     16.94690673     -3.12006211
 H      3.26008569     16.72303008     -4.49388167
 H      2.35803900     14.25865051     -4.41817617
 H      1.67685678     14.70919425     -2.83663648
 H      3.46882032     15.49400811     -1.74027271
 H      4.53208923     14.75148301     -2.95944553
 H      3.80049144     12.62929949     -3.00928351
 H      2.93320346     12.89964763     -1.47860063
 H      4.67763293     13.74901052     -0.21850321
 H      5.82112211     13.15845653     -1.44811500
 H      4.82090411     10.87750796     -1.27395470
 H      4.01707721     11.43774442      0.21206821
 H      6.12775090     12.16365327      1.20818484
 H      6.96758437     11.23804948     -0.05917621
 H      5.82477169      9.18578339      0.37263225
 H      5.26172894      9.87799256      1.91279328
 H      7.53183965     10.45639811      2.60783258
 H      8.12870261      9.40691121      1.29993406
 H      6.92272871      7.47769855      1.91209781
 H      6.58843904      8.23199064      3.48929802
 H      9.05867063      8.60855236      3.77858456
 H      9.29349752      7.49067648      2.41349243
 H      7.98032275      5.73024152      3.46628543
 H      8.09045078      6.64580525      4.98874447
 H     10.35835530      6.92667763      5.13006145
 H     10.57318777      5.67250723      3.88540476
 H      9.01783684      4.40316569      5.73237551
 H      9.43657556      5.80029788      6.75264322
 H     11.81730029      5.48531108      6.49922131
 H     11.47686230      3.86438957      5.84731481
 H     10.21835582      2.83425711      7.20485534
 H     10.60755585      4.00911779      8.48410995
 H     12.92667524      3.91153665      8.34210493
 H     12.77725623      2.42188848      7.37935421
 H     11.40186625      1.24030166      8.87275947
 H     11.79896445      2.43601233     10.13008030
 H     14.18232923      2.19190177      9.85647971
 H     13.86802113      0.70971281      8.92235285
 H     12.55866604     -0.47942430     10.27912202
 H     13.01467175      0.57542324     11.63839467
 H     15.39171852      0.28471651     11.26025438
 H     14.99442129     -1.08428301     10.19429853
 H     13.65567015     -2.09516802     12.06702497
 H     14.44196620     -0.91393741     13.14159439
 H     16.46393240     -0.91610703     13.00169600
 H     16.43485621     -2.50777975     12.20545533
 H     15.20693401     -3.78801628     13.45190746
 H     15.34011790     -2.62538973     14.79311148
 H     17.57335332     -2.32489563     14.92426858
 H     17.81759051     -3.77588121     13.92264206
 H     16.55982321     -5.29294530     15.08096290
 H     16.52087692     -4.17688855     16.46702465
 H     18.82026106     -3.81617743     16.65566592
 H     19.09642933     -5.22077733     15.59779217
 H     17.79616037     -6.75607046     16.82919463
 H     17.78978750     -5.60439671     18.18635109
 H     20.03572949     -5.22259751     18.40679367
 H     20.35983851     -6.65185945     17.39663016
 H     18.86793764     -7.95897078     19.00383660
 H     18.99095957     -6.55248032     20.08777241
 H     21.53049455     -6.81857741     19.89410112
 H     21.19462348     -8.41082906     19.17285776
 H     19.94645435     -9.53453581     20.38173514
 H     20.28293273     -8.46474961     21.76398203
 H     21.73280673     -7.82980296     22.38177231
 H     22.64751762     -9.13339799     21.58665555
 H     22.26261978    -10.50045700     23.20750799
 H     20.52054415     -9.54047276     23.65010307
 H     22.64008499     -8.90368925     24.49257044
 H     23.31319626    -10.40960358     23.82368338
 H     21.69409531    -11.82556971     24.91094847
 H     21.25082678    -10.43947541     25.93589834
 H     23.02319894     -9.65857501     26.81184306
 H     23.90284827    -11.15054499     26.40134421
 H     21.84350217    -12.25087027     27.66531572
 H     21.49091095    -10.59120303     28.20332200
 H     23.55723235    -10.09306058     29.14708351
 H     23.96178547    -11.82599131     29.10765588
 H     22.01656361    -12.56734492     30.24263726
 H     21.71229220    -10.88391687     30.73432371
 H     23.96803437    -10.66485855     31.67982148
 H     24.10912734    -12.43586454     31.57074716
 H     21.95575850    -12.60224302     32.89265582
 H     22.16741907    -10.87394311     33.26204162
 H     24.50674811    -11.60496197     34.13392544
 H     23.87908416    -13.26741988     34.03126900
 H     21.96057897    -12.95497695     35.33821745
 H     22.64264993    -11.41454249     35.91276733
 H     24.63350490    -11.85814538     36.63711896
 H     23.71534594    -13.60679736     37.08879537
 H     22.54626206    -14.06142149     37.61388999
 H     22.52026144    -12.47449237     38.41964839
 H     24.94687338    -13.04917829     39.12663415
 H     24.57377788    -14.70601641     38.59376094
 H     22.80018122    -15.34392881     39.57593896
 H     22.96027656    -14.02292327     40.75813206
 H     25.05924253    -14.24285765     41.48182828
 H     25.12609534    -15.87722993     40.77995606
 H     23.47767341    -16.99953680     41.41564002
 H     23.16458918    -15.83622425     42.72596396
 H     25.07856163    -15.60145515     43.75865859
 H     25.69209135    -17.07329828     42.96775675
 H     24.02381077    -18.54630284     43.46678515
 H     23.41356467    -17.41414892     44.69727036
 H     25.02819945    -16.86546926     45.96525581
 H     25.98667425    -18.24095129     45.36722413
 H     25.48794197    -19.91767454     45.18151213
 H     24.15611953    -19.66733426     46.33556819
 H     25.68349007    -18.67011340     47.98898899
 H     27.03286878    -19.30365875     47.01633075
 H     26.58948374    -21.44427132     46.77443577
 H     25.39669642    -21.34930497     48.09220149
 H     26.13724993    -20.47383899     49.77425494
 H     27.80412547    -20.71396470     49.19794576
 H     27.07143204    -23.18873930     48.87867492
 H     25.64225947    -22.75236766     49.84579033
 H     26.58206524    -21.87236809     51.69653989
 H     28.14533866    -22.58438330     51.23019534
 H     27.57421988    -24.74672460     50.88802516
 H     26.03697848    -24.46393317     51.73960286
 H     26.42926888    -23.55958690     53.60313593
 H     28.14156005    -24.03325105     53.49373802
 H     27.31425996    -26.40943191     53.05559617
 H     25.71768417    -25.83427876     53.59263554
 H     26.46019457    -24.97448512     55.68112518
 H     27.98005762    -25.87461360     55.46191823
 H     27.20676791    -27.96537089     55.05530255
 H     25.60614781    -27.47871635     55.66312599
 H     26.38759459    -26.61195225     57.73462877
 H     27.94031030    -27.43150173     57.44191857
 H     28.00438248    -29.25483406     56.97003199
 H     26.35125861    -29.50274313     57.58157860
 H     26.46456685    -28.59150593     59.63612637
 H     28.24171462    -28.61140671     59.53806290
 H     29.27194750    -29.97955907     59.04803997
 H     27.95308703    -31.12369326     59.39420563
 H     27.65052623    -30.11325310     61.64762279
 H     29.65958754    -29.92571679     61.31386937
 H     30.61098239    -30.91153267     60.87580416
 H     29.44783960    -32.11976752     61.47207093
 H     28.85755269    -31.54183390     63.44335156
 H     30.24589171    -30.43300571     63.54956579
 H     31.88697963    -32.03921811     62.93538479
 H     30.68005765    -33.31652046     63.21841254
 H     29.66324565    -33.44444521     64.73955601
 H     30.80877760    -32.40913343     65.62508000
 H     32.71417554    -33.80234335     64.91142222
 H     31.52992374    -35.02965637     64.40199402
 H     30.41876407    -35.11793964     66.53118062
 H     31.80058756    -34.24028287     67.23014349
 H     33.57144271    -35.37005811     66.64667221
 H     32.54989863    -36.76334289     66.21833603
 H     31.17468636    -36.76331144     68.14838950
 H     32.23200613    -36.27251653     68.90935109
 H     31.22317692    -38.16353787     66.63487867
 H     30.18861453    -37.41414326     68.16457177
 H     30.20971863    -37.53255526     69.59357121
 H     30.99479151    -39.10724326     69.32471261
 H     29.13184780    -39.64097223     67.68430050
 H     28.27593745    -38.23355444     68.35873310
 H     27.37547638    -38.58945726     69.89908714
 H     28.60840864    -40.19747725     70.31614394
 H     26.50003972    -40.00177574     68.63058261
 H     26.42976964    -38.84976698     68.64527117
 H     26.60770008    -37.47729998     68.64025873
 H     25.89130515    -37.55151101     70.26799878
 H     24.16738462    -38.68788733     70.28522647
 H     24.04790316    -38.57729362     68.51272544
 H     24.24133425    -36.18852763     68.44552890
 H     23.93450182    -36.16449706     70.19868123
 H     22.02969483    -37.35439386     70.36032991
 H     21.78083703    -37.17832363     68.60666639
 H     21.96011318    -34.99786735     68.25969351
 H     21.77695362    -34.70512781     70.00583863
 H     19.95463515    -35.80963208     70.56333354
 H     19.75815674    -36.36381401     69.86060293
 H     19.72884090    -37.34428594     68.83532686
 H     19.05957391    -36.05173789     67.81079385
 H     17.37270477    -35.46061257     69.48134593
 H     17.75012963    -36.99208988     70.30620617
 H     17.11457386    -37.60430524     67.63173360
 H     16.57324449    -35.90867027     67.63889033
 H     15.01002841    -36.07068672     69.33324038
 H     15.20760212    -37.92636727     69.28511369
 H     14.52519265    -35.44783958     67.45266457
 H     14.63740925    -34.95238812     69.15859598
 H     13.01510010    -36.28942437     70.07211083
 H     12.39171267    -36.61799378     68.43757820
 H     12.47373691    -34.04981718     68.07734940
 H     12.41249683    -33.90115992     69.62128843
 H     11.38809430    -35.24320530     66.95260640
 H     12.57458404    -33.91641841     66.94055146
 H     11.09194589    -32.31904253     67.94782593
 H      9.74442869    -33.43027352     67.60485402
 H     10.18108197    -33.69183958     65.30089725
 H     11.26462233    -32.28217743     65.38491835
 H     10.25647574    -30.66882809     66.27747655
 H      8.73494265    -31.54863003     65.22703465
 H      8.64493021    -32.03999211     63.92008587
 H     10.00402038    -30.94160097     63.58144523
 H      8.64501983    -29.11003324     64.71862215
 H      7.23594358    -30.29706118     63.82529487
 H      7.19107471    -30.76055566     62.45481277
 H      8.26885614    -29.39453750     62.07978176
 H      7.01487924    -27.73026081     63.17473787
 H      5.64412538    -28.86327548     63.24942568
 H      5.45628160    -29.49626350     61.08773474
 H      6.48621867    -28.12610693     60.60797723
 H      5.03619348    -26.54273932     61.83103834
 H      3.82803091    -27.84596678     61.93207322
 H      3.58624265    -28.49521725     59.81976956
 H      4.39493324    -27.00725126     59.27182486
 H      3.27007292    -25.39467230     60.31334331
 H      2.67860715    -25.88356477     60.99409266
 H      2.07498391    -26.70400308     61.99099020
 H      0.71874873    -26.65678749     60.49249948
 H      0.01635038    -25.86316169     59.71984387
 H      0.69245531    -24.52260051     60.67590061
 H     -0.35842450    -25.72977032     61.45478398
1502
Final Conformation Chain 3 (Simulation Frame 4)
 C      0.00000000      0.00000000      0.00000000
 C      1.54000000      0.00000000      0.00000000
 C      2.16637443      1.36998933     -0.31997549
 C      3.64935524      1.30046074     -0.72928429
 C      4.14185477      2.53258875     -1.51088828
 C      5.54841964      2.36922502     -2.11627043
 C      5.77124539      3.17522269     -3.40945118
 C      7.20846943      3.09625847     -3.95694702
 C      7.49201919      4.07093599     -5.11505032
 C      8.89028713      3.91098830     -5.74024110
 C      9.14527675      4.83137007     -6.94832954
 C     10.63496094      5.01320011     -7.29384197
 C     10.89260520      5.97485011     -8.46876695
 C     10.56658533      7.44713734     -8.15622679
 C     11.05110955      8.43779579     -9.23113707
 C     10.61214453      9.89324698     -8.98502423
 C     11.59946657     10.94495691     -9.52419159
 C     12.76540614     11.25779122     -8.56799098
 C     13.32348295     12.68636097     -8.70705473
 C     14.46388880     13.01172559     -7.72460252
 C     15.29448056     14.24796606     -8.11629993
 C     15.64883960     14.31580328     -9.61343979
 C     16.61710193     15.45685107     -9.97686515
 C     17.23093860     15.33322669    -11.38381986
 C     18.47469301     16.21419654    -11.60419931
 C     19.11319407     16.05928928    -12.99700947
 C     20.30753404     16.99890328    -13.24656417
 C     20.96963661     16.81778216    -14.62511969
 C     22.21592796     17.69611206    -14.84167101
 C     22.73308598     17.70290687    -16.29222312
 C     23.98985181     18.56709458    -16.50510627
 C     24.74955576     18.25743773    -17.80839539
 C     25.88897826     19.24573764    -18.11916810
 C     26.80729010     18.80040093    -19.27241506
 C     28.09877357     19.62940143    -19.40058918
 C     28.88813018     19.36301316    -20.69579319
 C     29.82777789     20.51268575    -21.10434566
 C     30.96365914     20.78042735    -20.09951322
 C     31.90029296     21.93344558    -20.50555020
 C     32.99908488     22.24161039    -19.47148503
 C     33.92140487     23.40978385    -19.86682867
 C     35.27320009     23.41788987    -19.12914039
 C     36.04001310     24.74868518    -19.24130835
 C     35.31694607     25.94468100    -18.59449456
 C     36.06143292     27.28405841    -18.74748956
 C     35.23590587     28.51191611    -18.32032382
 C     35.95623012     29.85618107    -18.53406360
 C     35.13095889     31.08399858    -18.10628846
 C     35.79313147     32.43257952    -18.44460331
 C     35.01413858     33.65865019    -17.93321230
 C     35.77312367     34.99020410    -18.08323172
 C     35.06459291     36.19197309    -17.43105424
 C     35.53930415     36.49689267    -15.99812951
 C     35.07764135     37.86521047    -15.46317730
 C     35.56868644     38.17850674    -14.03758263
 C     35.45267708     39.66372907    -13.64738207
 C     35.68698962     39.93818040    -12.15026013
 C     35.40119331     41.39119950    -11.72758297
 C     35.73307076     41.69171809    -10.25410209
 C     35.31711403     43.10102389     -9.79319303
 C     35.05852555     43.21404034     -8.27927121
 C     35.35559707     44.60775934     -7.69540835
 C     34.97978048     44.75749609     -6.20949422
 C     35.66036002     45.94765946     -5.50812225
 C     35.21370046     47.32406358     -6.03500642
 C     36.31514903     48.39943016     -5.99031000
 C     35.96084546     49.69094035     -6.75061943
 C     36.84261161     50.89789782     -6.38002247
 C     36.17793848     52.26252905     -6.64000564
 C     37.03363972     53.46826037     -6.20920713
 C     36.39760155     54.83387484     -6.52882027
 C     37.34473859     56.03015283     -6.32037268
 C     36.62807156     57.39131448     -6.24807247
 C     37.50973538     58.53587267     -5.71491635
 C     36.81709824     59.91131813     -5.71301753
 C     37.78003329     61.09726967     -5.51840243
 C     37.07405213     62.45254669     -5.32757579
 C     38.02925973     63.66047005     -5.31759594
 C     37.31457757     65.02439565     -5.34075530
 C     38.24118157     66.22193148     -5.05984081
 C     37.58012372     67.59334952     -5.29182163
 C     38.57803129     68.76308181     -5.37846363
 C     37.96392562     70.07242702     -5.90769831
 C     38.99510215     71.18427664     -6.17614826
 C     38.37104839     72.53362359     -6.57791896
 C     39.36588769     73.70916227     -6.57602806
 C     38.81256076     74.99902745     -7.20980809
 C     39.71781141     76.22987911     -7.01712845
 C     39.08797224     77.55156094     -7.49468449
 C     40.08295872     78.72365639     -7.58296906
 C     39.44030203     80.06116389     -7.99487447
 C     40.39587093     81.26618213     -7.91475516
 C     39.69109095     82.63201110     -8.01169030
 C     40.65377343     83.82403930     -8.16632278
 C     39.98486251     85.10417131     -8.70057011
 C     40.91661650     86.32980696     -8.73595002
 C     40.17583963     87.67780661     -8.81175620
 C     41.09997147     88.88841996     -9.03978173
 C     40.35085676     90.21715296     -9.25166794
 C     41.25979618     91.45999515     -9.22387515
 C     40.51968704     92.78342019     -9.49291904
 C     41.41861806     94.03127022     -9.41296072
 C     40.64225712     95.36024064     -9.36098648
 C     41.46549759     96.58429556     -9.80321344
 C     40.61724640     97.73852014    -10.36875347
 C     41.31943575     99.10860529    -10.33137966
 C     40.46007613    100.26777162    -10.86937080
 C     41.13410234    101.64843510    -10.76421835
 C     40.16512909    102.83314423    -10.93496703
 C     40.86411162    104.18564487    -11.16684077
 C     39.93724077    105.28250563    -11.72308432
 C     40.59791505    106.67006739    -11.82198762
 C     39.71458984    107.73797966    -12.49347845
 C     40.50756788    108.84280860    -13.21607020
 C     39.64766042    110.03810792    -13.66708984
 C     40.46492258    111.26540670    -14.11140984
 C     39.64127033    112.56255149    -14.21442615
 C     40.40418795    113.74023797    -14.84894272
 C     39.65166945    115.08224714    -14.78316066
 C     40.23222565    116.17170298    -15.70383459
 C     39.69420977    117.58593535    -15.41732855
 C     39.86287270    118.56975453    -16.59004021
 C     39.92937617    120.04786623    -16.16300030
 C     40.58671356    120.97191747    -17.20493930
 C     40.43895464    122.47272602    -16.89294414
 C     41.27662648    123.38764335    -17.80554054
 C     41.36000410    124.84752106    -17.32242020
 C     41.74711777    125.85092786    -18.42465329
 C     42.10585378    127.25277580    -17.89765156
 C     42.58883730    128.22718157    -18.98800028
 C     44.11646516    128.24262605    -19.18220269
 C     44.61911517    129.36769599    -20.10586963
 C     46.04988589    129.15275146    -20.63340539
 C     46.51243905    130.22028134    -21.64237741
 C     47.72051332    129.79308355    -22.49657797
 C     47.41527776    128.65533175    -23.48852158
 C     48.61122914    128.25855587    -24.37388545
 C     48.33055222    127.06736860    -25.30870809
 C     49.26654964    126.99506649    -26.52947884
 C     49.04321553    125.75690410    -27.41755304
 C     49.47661592    125.95045126    -28.88257987
 C     48.87082058    124.92235749    -29.85604544
 C     49.57853082    124.86085411    -31.22241419
 C     49.00088885    123.80202289    -32.17991417
 C     48.94999030    124.25029160    -33.65234906
 C     48.86480938    123.08754222    -34.65850913
 C     48.58834004    123.53157792    -36.10695554
 C     48.89007138    122.45090639    -37.16180494
 C     48.45200718    122.82902537    -38.58894396
 C     48.96627970    121.86841524    -39.67722331
 C     48.41448574    122.16309030    -41.08445110
 C     49.37772025    121.78834780    -42.22609348
 C     49.32317646    122.74554377    -43.43124942
 C     50.23685624    122.33335566    -44.60039022
 C     50.20391273    123.30582272    -45.79404953
 C     51.20512544    122.95968252    -46.91179730
 C     51.39674401    124.08059400    -47.95027685
 C     52.26170959    123.67443482    -49.15794785
 C     52.91119958    124.86277591    -49.89116557
 C     54.14361039    124.48188103    -50.73240435
 C     55.26896244    123.80815910    -49.92538419
 C     56.09823295    122.79312948    -50.73385515
 C     57.00631183    121.89737751    -49.87094080
 C     57.62976511    120.71531622    -50.63621010
 C     58.59005974    119.85832722    -49.79063097
 C     57.97053499    119.32714552    -48.48463132
 C     59.00654978    118.89849620    -47.42891682
 C     58.50803994    117.79947820    -46.47223120
 C     59.52489180    117.40781157    -45.38401728
 C     59.04235330    116.28044503    -44.45245876
 C     60.14216509    115.70971368    -43.53797544
 C     59.64422315    114.63233898    -42.55669180
 C     60.77288865    113.86894261    -41.83909848
 C     60.27533337    112.77600313    -40.87498126
 C     61.40256861    112.03942794    -40.12772112
 C     60.99700654    110.65441091    -39.59027602
 C     62.17283639    109.82875102    -39.03592062
 C     61.76539503    108.44884317    -38.48687976
 C     62.91976993    107.67111906    -37.82796869
 C     62.52086926    106.27616732    -37.31164720
 C     63.64793869    105.53873062    -36.56498689
 C     63.33150393    104.06458372    -36.25136296
 C     64.46927818    103.31975155    -35.52866330
 C     64.12029213    101.87195121    -35.13663919
 C     64.92684071    101.33543443    -33.93946370
 C     64.66365038     99.85182549    -33.62128869
 C     65.12838672     99.42015344    -32.21797854
 C     64.46546243     98.12670947    -31.70892640
 C     64.96378939     97.67012893    -30.32516181
 C     64.24140635     96.42459783    -29.77888804
 C     64.74398552     95.96434129    -28.39788185
 C     63.87152504     94.87648610    -27.74444189
 C     63.13357268     95.34351466    -26.47601348
 C     62.33585460     94.23132204    -25.77012862
 C     61.92191312     94.57649962    -24.32752511
 C     61.34312748     93.38627109    -23.54014768
 C     60.56408345     93.79155522    -22.27506460
 C     60.28963584     92.62502044    -21.30786498
 C     59.43225265     93.01104332    -20.08824192
 C     59.31514007     91.90022249    -19.02807131
 C     58.42385983     92.27099137    -17.82817549
 C     58.65072770     91.39205464    -16.58414928
 C     57.72939350     91.73466249    -15.39866914
 C     56.31399919     91.13863710    -15.51274240
 C     55.43042935     91.38157188    -14.27504816
 C     54.16551111     90.50451508    -14.22653812
 C     53.35157235     90.65042538    -12.92737921
 C     52.11807247     89.73131648    -12.85446225
 C     51.43585665     89.70689414    -11.47403292
 C     50.35890075     88.61598366    -11.32679055
 C     49.72618524     88.54564025     -9.92453420
 C     48.59238948     87.51092862     -9.80011949
 C     47.83434368     87.57033432     -8.46092663
 C     46.91669820     86.36007422     -8.20637354
 C     46.11803691     86.44497161     -6.89239768
 C     44.88069747     85.52906104     -6.85117933
 C     44.29323996     85.33295528     -5.44120196
 C     43.16877232     84.28303749     -5.37159464
 C     42.27631344     84.40293703     -4.12229834
 C     41.10215566     83.40688686     -4.09335802
 C     39.96519102     83.80657077     -3.13462751
 C     38.90882180     82.70625266     -2.92253286
 C     38.27977871     82.70445294     -1.51686520
 C     37.35544366     81.50289724     -1.24581424
 C     36.55854096     81.60943005      0.06765325
 C     35.85258332     80.30423995      0.47960303
 C     35.22359593     80.34883542      1.88458919
 C     34.77632507     78.97381739      2.41456485
 C     34.77680076     78.86419160      3.95065793
 C     34.08803944     77.59607958      4.48833789
 C     33.90969003     77.58081131      6.01789939
 C     33.71532829     76.17330887      6.61183576
 C     33.30447111     76.17099763      8.09601601
 C     33.24197837     74.76734834      8.72646293
 C     33.36115600     74.76443486     10.26184177
 C     33.25575290     73.36486126     10.89562717
 C     33.69284934     73.31097263     12.37131098
 C     33.62650269     71.90370803     12.99324703
 C     33.93030906     71.87099592     14.50262823
 C     33.94815186     70.45483870     15.10742600
 C     34.35729182     70.41263832     16.59148247
 C     34.32543903     69.00273579     17.21015869
 C     34.62009094     68.97507479     18.72145453
 C     34.42644648     67.59280944     19.37218053
 C     34.70211760     67.56952618     20.88712717
 C     34.29381171     66.25512915     21.57795765
 C     34.34724044     66.31299210     23.11594245
 C     34.29446909     64.93273402     23.79689972
 C     34.01541924     64.99116930     25.31027889
 C     34.10423442     63.62567385     26.01677308
 C     33.14894687     62.56147573     25.44536425
 C     32.54584771     61.62529259     26.50905242
 C     31.97762228     60.31262495     25.93841812
 C     31.44292458     59.34368985     27.00933508
 C     30.73081062     58.10531521     26.43407692
 C     30.27739519     57.09151634     27.50095381
 C     29.74003094     55.76998964     26.92094791
 C     29.53733951     54.66170553     27.97081577
 C     29.30871256     53.26282762     27.36876070
 C     28.98999748     52.17617963     28.41241622
 C     28.26536535     50.94621237     27.83475818
 C     27.50537913     50.11603751     28.88586742
 C     27.15190468     48.69066089     28.42223252
 C     26.05942219     48.00987036     29.26757640
 C     25.53498564     46.69139409     28.66908945
 C     24.07140010     46.37760732     29.03110493
 C     23.57398683     45.01796084     28.50618449
 C     22.20991161     44.58729451     29.07664510
 C     21.68534419     43.25572959     28.50799417
 C     20.32340213     42.82278652     29.08181828
 C     19.82111149     41.46815644     28.54863777
 C     18.56641903     40.93838045     29.26744527
 C     17.99630790     39.64327899     28.65975661
 C     16.90334183     38.97761359     29.51644484
 C     16.20599291     37.78895521     28.82913432
 C     15.46067055     36.85368189     29.79937057
 C     14.59364770     35.78931068     29.10152725
 C     14.63839820     34.40506919     29.77493121
 C     14.05557574     33.26993188     28.91273560
 C     13.97893186     31.91153245     29.63417632
 C     13.73822479     30.71573459     28.69410846
 C     12.46530540     30.83968866     27.83625556
 C     12.15216132     29.58796013     26.99559126
 C     10.94728526     29.75325206     26.05084143
 C     10.51709209     28.45087502     25.35059300
 C      9.28912124     28.60829381     24.43467437
 C      8.81701979     27.29263482     23.78832955
 C      7.89744744     27.48861131     22.56866570
 C      7.61170577     26.19396190     21.78518972
 C      6.67887783     26.38703000     20.57516627
 C      6.82241704     25.29992983     19.49386626
 C      6.49410440     25.78568050     18.06983779
 C      6.07696724     24.66039924     17.10477889
 C      5.93588471     25.11226047     15.63933795
 C      5.04240658     24.19465879     14.78417481
 C      4.56300154     24.83612292     13.46876819
 C      3.50293589     24.00869097     12.71829020
 C      2.56443736     24.84883988     11.83230470
 C      1.58222143     24.01266768     10.99107470
 C      0.90601540     24.79881471      9.85251498
 C     -0.15819359     23.99509483      9.08238929
 C     -0.99544002     24.84041557      8.10461054
 C     -2.26919043     24.13683938      7.60048711
 C     -3.03687076     24.92676460      6.52425058
 C     -4.40712268     24.32391382      6.16289116
 C     -4.98532743     24.83653972      4.83078983
 C     -6.34253400     24.21288541      4.45576229
 C     -6.92672900     24.73479838      3.12989539
 C     -8.21127404     24.01192879      2.68379719
 C     -9.15714806     24.88196044      1.83528835
 C    -10.27726355     24.09019704      1.13525121
 C    -11.35731509     24.97470220      0.48506715
 C    -12.52223624     24.18407099     -0.13900096
 C    -13.33755103     24.98191031     -1.17356087
 C    -14.07109845     24.10425892     -2.20469433
 C    -14.54330341     24.86902805     -3.45519450
 C    -15.61816490     24.12925307     -4.27312222
 C    -15.75658700     24.62950608     -5.72301402
 C    -16.92306085     23.98890483     -6.49797776
 C    -17.00157548     24.41413076     -7.97602321
 C    -18.21079507     23.83251909     -8.73174528
 C    -18.36298277     24.35996581    -10.17057774
 C    -19.68125556     23.94881712    -10.85227681
 C    -19.84809190     24.50348539    -12.27919963
 C    -20.94201126     23.79752162    -13.10172963
 C    -20.97572000     24.21124333    -14.58473269
 C    -21.89204851     23.33493729    -15.45882067
 C    -21.84560191     23.68156198    -16.95858533
 C    -22.98854620     23.05822949    -17.78122435
 C    -22.76908682     23.11840661    -19.30431867
 C    -23.81934141     22.34138644    -20.11967440
 C    -23.42673156     22.11345453    -21.59123973
 C    -24.57074591     21.57104093    -22.46794872
 C    -24.11812160     21.08214226    -23.85636845
 C    -25.27873540     20.75103100    -24.81289389
 C    -24.87559370     19.85895973    -26.00171078
 C    -26.06936313     19.28542485    -26.78756846
 C    -25.69255526     18.15332732    -27.76120649
 C    -26.88621254     17.58028543    -28.54759399
 C    -26.53080333     16.37113538    -29.43260271
 C    -27.75312391     15.57277888    -29.92266320
 C    -28.51039695     14.83614511    -28.80216856
 C    -29.19946224     13.53749128    -29.26073944
 C    -29.43824290     12.52152980    -28.12830574
 C    -30.18440611     11.25033198    -28.57428394
 C    -30.72158489     10.39815644    -27.40945098
 C    -31.27771975      9.02816386    -27.84007186
 C    -31.68424077      8.11969891    -26.66489863
 C    -32.63456988      6.97367816    -27.05873998
 C    -33.31759809      6.28691482    -25.86148121
 C    -32.43995344      5.23451788    -25.15877177
 C    -33.03209887      4.70505654    -23.83944070
 C    -32.07874239      3.79132009    -23.04710419
 C    -32.64171177      3.32301593    -21.69235082
 C    -31.57769509      2.75628877    -20.73407695
 C    -32.16193585      2.04273517    -19.50074651
 C    -31.10072067      1.56618627    -18.49162636
 C    -31.67002765      0.72426955    -17.33461910
 C    -30.59613579      0.13502386    -16.40126717
 C    -31.16321728     -0.51387741    -15.12496559
 C    -30.09156194     -1.12848146    -14.20550016
 C    -30.60756171     -1.49892641    -12.80260502
 C    -29.50045967     -1.92349484    -11.81992160
 C    -29.94752116     -1.95093047    -10.34649589
 C    -28.78807145     -2.09064487     -9.34262526
 C    -29.20705905     -1.90659865     -7.87219119
 C    -28.11982092     -2.30423639     -6.85661377
 C    -28.63241710     -2.43867070     -5.41066336
 C    -27.51458551     -2.50616602     -4.35354610
 C    -27.96482194     -3.09197689     -3.00235670
 C    -26.80302568     -3.45977734     -2.06078765
 C    -27.20875879     -3.57176559     -0.57942366
 C    -26.02325069     -3.78351569      0.38043698
 C    -26.41782851     -3.80073336      1.86893014
 C    -25.22205349     -3.70913625      2.83502126
 C    -25.58799289     -3.95813360      4.31004285
 C    -24.37955136     -3.95327221      5.26463461
 C    -24.74610096     -4.19689898      6.74040132
 C    -23.53647654     -4.20294059      7.69348698
 C    -23.88317187     -4.59010037      9.14314544
 C    -22.65344717     -4.82502180     10.03991135
 C    -22.98189205     -5.48021832     11.39432690
 C    -21.74763913     -6.00114702     12.15383531
 C    -20.90278578     -4.89365064     12.81055030
 C    -19.60059895     -5.40007204     13.45819744
 C    -18.76517316     -4.29545751     14.13161447
 C    -17.32443557     -4.18689574     13.59861397
 C    -16.41921833     -3.25499681     14.42550339
 C    -14.92102620     -3.37856024     14.09120949
 C    -14.02141570     -2.40785132     14.87862624
 C    -12.51414036     -2.62508981     14.64943534
 C    -11.97148342     -1.95444165     13.37375728
 C    -10.43702227     -1.82952594     13.33600783
 C     -9.90248537     -1.03886125     12.12740548
 C     -8.37569713     -1.12738929     11.94662809
 C     -7.84213184     -0.34354825     10.73316145
 C     -6.30575830     -0.26126716     10.66693323
 C     -5.76462207      0.28342933      9.33198855
 C     -4.24284179      0.51942936      9.32256659
 C     -3.67578775      0.89513842      7.94093986
 C     -2.17028640      1.21918198      7.94877853
 C     -1.55936739      1.39161412      6.54569438
 C     -0.08783664      1.84561404      6.55471284
 C      0.56229060      1.89080779      5.15940209
 C      1.74788459      2.86777234      5.05213066
 C      2.28982779      3.04032002      3.62100353
 C      3.66371201      3.73248993      3.55069734
 C      4.21943484      3.87791742      2.12184360
 C      5.57465488      4.60559166      2.04789197
 C      6.23194901      4.56558721      0.65578419
 C      7.64051095      5.18644557      0.61008785
 C      8.35829083      5.01221793     -0.74122143
 C      9.66182074      5.82249973     -0.86713084
 C     10.19472848      5.93178965     -2.30784769
 C     11.60714409      6.53713653     -2.40902726
 C     12.16325658      6.59324187     -3.84401544
 C     13.60821664      7.11791087     -3.93573715
 C     14.09398503      7.36686757     -5.37575438
 C     15.57671427      7.77077632     -5.47561279
 C     15.94721147      8.47262107     -6.79536496
 C     17.33324110      9.14366146     -6.78030936
 C     17.58730338     10.08316857     -7.97378276
 C     19.06372278     10.48262890     -8.15327425
 C     19.26442880     11.89553199     -8.73208507
 C     20.73254003     12.35994817     -8.75589735
 C     21.04318490     13.39892563     -9.84934401
 C     22.52140729     13.82717821     -9.90464588
 C     22.79016222     15.03326478    -10.82373564
 C     24.19389457     15.64507256    -10.65994694
 C     24.28426876     17.12541669    -11.07469236
 C     25.70441726     17.58375931    -11.45508728
 C     25.81983308     19.09232295    -11.74234139
 C     27.18416039     19.51817255    -12.31580727
 C     27.19850361     20.93958735    -12.90823805
 C     28.34982733     21.19368745    -13.89893823
 C     28.33959986     22.60133629    -14.52345415
 C     29.28295631     22.75790393    -15.73058513
 C     29.19865517     24.13383537    -16.41710243
 C     30.27197843     24.36148513    -17.49772854
 C     30.19515671     25.74201071    -18.17584915
 C     31.23530378     25.95024569    -19.29224168
 C     31.04106539     27.25016045    -20.09479576
 C     32.22084220     27.59590201    -21.02225975
 C     32.06838198     28.94212482    -21.75440729
 C     33.40603587     29.62554303    -22.09385043
 C     33.25744294     31.06149028    -22.63011120
 C     34.50302519     31.94169272    -22.41711232
 C     34.31424006     33.40859413    -22.84625150
 C     35.34378696     34.37737455    -22.23543429
 C     34.82390924     35.81663879    -22.06267540
 C     35.88506774     36.80881899    -21.55167532
 C     35.35299163     38.23728202    -21.33261280
 C     36.37377705     39.19410507    -20.68911704
 C     35.73983384     40.42448974    -20.01393591
 C     36.73651816     41.28204837    -19.21217937
 C     36.07019608     42.33189507    -18.30364385
 C     37.05856186     43.32523595    -17.66488961
 C     36.42340481     44.24977847    -16.60971348
 C     37.42805801     45.18243343    -15.90798228
 C     36.80059914     46.07463344    -14.82084176
 C     37.78789882     47.06589065    -14.17722038
 C     37.11403701     48.29060571    -13.53101353
 C     38.08981082     49.22531816    -12.79224557
 C     37.43404198     50.50364651    -12.23776936
 C     38.43356192     51.62762332    -11.90726062
 C     37.83862222     52.76449845    -11.05569636
 C     38.48380564     54.13982616    -11.30830681
 C     38.25623530     55.15629235    -10.17401926
 C     38.98103510     56.49912573    -10.38153733
 C     39.17008787     57.31513378     -9.08925643
 C     40.16713273     58.48094808     -9.22482396
 C     40.69658656     59.01197522     -7.87972589
 C     41.70114391     60.17127722     -8.01567949
 C     41.84112944     61.03097989     -6.74567344
 C     43.00221064     62.04130122     -6.79803058
 C     43.28916064     62.73595137     -5.45388741
 C     42.11909870     63.58691165     -4.92623066
 C     42.52000142     64.59261626     -3.83104335
 C     41.32633422     65.29974074     -3.16266205
 C     41.71370972     66.18297366     -1.96206227
 C     40.51288955     66.82960424     -1.24687013
 C     39.39232613     65.83789725     -0.88292663
 C     38.25860543     66.45459233     -0.04270966
 C     37.59021791     67.67898209     -0.69518789
 C     36.08255592     67.79849223     -0.40489037
 C     35.47580065     69.15952287     -0.79353368
 C     35.22804759     69.32641726     -2.30428339
 C     34.64254846     70.69600326     -2.69546745
 C     34.00175250     70.72649889     -4.09548551
 C     33.02217455     71.89513943     -4.31067458
 C     33.66322786     73.28664388     -4.15457840
 C     32.64565471     74.43996781     -4.07719110
 C     33.26283045     75.79434725     -3.68177935
 C     32.22969023     76.85055160     -3.24743655
 C     32.85191113     78.17398479     -2.76477130
 C     31.82933590     79.30524252     -2.54983913
 C     32.46510815     80.67715516     -2.25786425
 C     31.46700940     81.84950724     -2.28932083
 C     30.35011812     81.74975315     -1.23376270
 C     29.39896420     82.96071481     -1.21189798
 H     -0.36333333      0.00000000      1.02766186
 H     -0.36333333     -0.88998127     -0.51383093
 H     -0.36333333      0.88998127     -0.51383093
 H      1.88274777      0.43646372     -0.93814892
 H      1.88274777      0.46855390     -0.92254063
 H      1.62962592      2.13250478      0.24444564
 H      2.64819846      1.30709060     -1.29567491
 H      3.77264617      0.47656071     -1.43219829
 H      4.24288640      1.10754183      0.16436165
 H      3.76310635      3.42660510     -1.01552539
 H      4.48181202      2.20241918     -2.49247736
 H      5.61180046      1.38229366     -2.57458184
 H      6.27898863      2.44334863     -1.31074287
 H      5.36187384      4.17504660     -3.26499677
 H      5.23792970      2.67779836     -4.21953969
 H      7.53730744      2.05819394     -3.90808401
 H      7.63575990      4.09893211     -3.94396934
 H      7.06829221      5.04164544     -4.85760400
 H      7.00511486      3.68831229     -6.01205828
 H      9.08633841      2.84712260     -5.87385869
 H      9.62351859      4.33196686     -5.05231038
 H      8.77748892      5.82785786     -6.70369881
 H      8.59143105      4.43888810     -7.80115594
 H     11.11830993      4.03715929     -7.25120311
 H     11.08143492      5.67257053     -6.54953583
 H      9.98367235      6.54944690     -8.64703526
 H     10.62030621      5.46655928     -9.39375002
 H     10.96632261      7.68490030     -7.17043833
 H      9.48287127      7.56363442     -8.14662140
 H     10.80265570      8.02928184    -10.21067116
 H     12.13294760      8.53737623     -9.14276189
 H     10.76909679     10.12511089     -7.93159881
 H      9.55122385      9.97584810     -9.22108428
 H     11.91314248     10.64047628    -10.52268995
 H     12.60389105     10.52329196     -9.48637466
 H     13.14687390     10.31618858     -8.17306463
 H     12.38299312     11.86696639     -7.74898800
 H     12.48331323     13.37761975     -8.77320722
 H     14.41032391     12.62575475     -8.76365506
 H     15.15162196     12.16628830     -7.70565806
 H     14.03280193     13.15170073     -6.73330485
 H     14.60924040     15.03787794     -8.42384690
 H     14.78215916     14.76133169     -8.92998446
 H     14.75774727     14.06371322    -10.18833550
 H     16.43019999     13.58283475     -9.81427072
 H     17.41525795     15.47847378     -9.23485476
 H     16.06624276     16.39688677     -9.94544766
 H     16.43873594     15.05915146    -12.08052475
 H     17.98369149     14.54521847    -11.36132249
 H     19.27953893     15.58287670    -11.98070735
 H     18.14757985     17.24846076    -11.71094434
 H     18.31670147     16.05935959    -13.74111937
 H     20.18414030     15.90296231    -12.86764158
 H     20.94266500     16.98860045    -12.36078625
 H     19.92345375     18.00636878    -13.40655043
 H     20.18296304     16.73872282    -15.37544916
 H     21.54965764     15.89507454    -14.60820076
 H     22.82884474     17.64930043    -13.94153675
 H     21.88766709     18.72263703    -15.00473939
 H     21.87847233     17.80973757    -16.96029700
 H     23.22758662     16.75070465    -16.48426490
 H     24.68428173     18.36912268    -15.68860507
 H     23.69261549     19.61555426    -16.48313199
 H     24.02214117     18.16026876    -18.61432728
 H     25.27859034     17.31303439    -17.68062708
 H     26.44868929     19.42328604    -17.20085435
 H     25.44718954     20.18134115    -18.46205116
 H     26.18216651     18.42934325    -20.08459527
 H     27.44726890     17.99598345    -18.90986897
 H     28.51755777     19.76780864    -18.40381275
 H     27.84227499     20.60009626    -19.82492399
 H     28.18354201     19.33506913    -21.52698188
 H     29.38048233     18.39487630    -20.60413955
 H     29.88200946     21.22119871    -20.27780570
 H     29.22126611     21.32570185    -21.50340491
 H     31.38722220     19.82248717    -19.79777668
 H     30.54007522     21.28084056    -19.22873008
 H     31.28865157     22.76395133    -20.85804844
 H     32.54154446     21.58518284    -21.31524742
 H     33.42566595     21.29740912    -19.13294028
 H     32.54056572     22.75658071    -18.62728971
 H     33.30217063     24.22088983    -20.24991617
 H     34.59441896     23.06463257    -20.65169976
 H     35.66675506     22.40143323    -19.12362960
 H     35.10233491     23.74691239    -18.10412854
 H     35.34050176     25.52152335    -19.55990692
 H     36.45595334     24.82094490    -20.24623236
 H     34.92991634     25.62820141    -17.62591382
 H     34.48777864     26.23392255    -19.24018853
 H     36.41665033     27.36333667    -19.77493082
 H     36.91341423     27.28223632    -18.06761860
 H     34.73748698     28.27930749    -17.37927556
 H     34.48812294     28.70650108    -19.08912639
 H     36.42576953     29.84084500    -19.51762729
 H     36.72345383     29.95972018    -17.76676482
 H     34.67122268     30.86881651    -17.14169565
 H     35.01911436     31.73959383    -18.96987730
 H     36.18521735     32.37670101    -19.46010627
 H     36.61421925     32.59592217    -17.74658180
 H     34.69429646     33.45934401    -16.91043272
 H     34.13843002     33.79723299    -18.56727014
 H     36.22564317     35.01698997    -19.07449788
 H     36.55580526     35.02585449    -17.32544640
 H     34.67265604     35.87554244    -16.46443273
 H     34.21666536     36.47077656    -18.05666394
 H     36.62763106     36.43990914    -15.97819410
 H     35.12364413     35.74145696    -15.33131347
 H     34.02644738     37.99660263    -15.71974567
 H     35.66988169     38.64069626    -15.94894801
 H     36.62099961     37.90271825    -13.96918882
 H     34.98944012     37.57831866    -13.33590751
 H     34.47787218     40.02813450    -13.97151798
 H     36.23734521     40.21620405    -14.16426439
 H     36.55664633     39.36509520    -11.82874718
 H     34.80789327     39.60450831    -11.59894124
 H     34.46588719     41.70527425    -12.19089660
 H     36.21490393     42.01975722    -12.08937048
 H     36.70043780     41.24583419    -10.02282616
 H     34.96442798     41.23610977     -9.62983505
 H     34.31412970     43.30255318    -10.16936902
 H     36.01619591     43.82102408    -10.21861549
 H     35.85913576     42.69232936     -7.75492309
 H     34.10557000     42.73361854     -8.05752674
 H     34.93917571     45.35720644     -8.36847766
 H     36.43697725     44.73187256     -7.63785140
 H     35.32139776     43.86908395     -5.67834310
 H     33.89467630     44.82995226     -6.13601617
 H     36.09393445     46.59328916     -6.27184701
 H     36.70638336     45.69273392     -5.33798070
 H     34.12920788     47.31390833     -6.14396834
 H     35.67527345     47.48435688     -7.00935566
 H     37.24059180     47.95774024     -6.35985797
 H     36.44917825     48.70991997     -4.95409948
 H     34.93457678     49.96319436     -6.50414357
 H     36.03708274     49.49131856     -7.81946882
 H     37.87993084     50.56541128     -6.34101592
 H     36.53842033     51.25539370     -5.39627231
 H     35.15038253     52.21757622     -6.27916217
 H     36.17799235     52.44460558     -7.71469077
 H     38.05768705     53.29800554     -6.54153284
 H     37.01078247     53.53358814     -5.12140668
 H     35.34481195     54.79552647     -6.24906419
 H     36.48240523     55.00887354     -7.60133311
 H     38.31542811     55.77715723     -6.74681739
 H     37.45169083     56.20002253     -5.24901583
 H     35.75110106     57.28345705     -5.60980173
 H     36.31322424     57.66678698     -7.25459423
 H     38.48623669     58.46821362     -6.19446556
 H     37.62389871     58.40769118     -4.63851668
 H     35.80687821     59.78581394     -5.32339697
 H     36.76805720     60.27179403     -6.74051551
 H     38.65337705     60.93697108     -6.15060100
 H     37.49600857     61.62339550     -4.60701800
 H     36.24676366     62.31308423     -4.63169936
 H     36.68583012     62.77577794     -6.29344598
 H     38.74525433     63.53796101     -6.13027256
 H     38.55903809     63.67063381     -4.36505639
 H     36.48617434     64.98932981     -4.63321132
 H     36.92715484     65.19131895     -6.34581264
 H     39.15880453     66.08699393     -5.63243139
 H     38.47530113     66.23183351     -3.99532685
 H     36.58277296     67.57177972     -4.85258798
 H     37.50042225     67.75805000     -6.36635475
 H     39.41235073     68.45585241     -6.00903574
 H     38.94192605     68.97829763     -4.37379316
 H     37.00210134     70.22263481     -5.41735999
 H     37.81190867     69.96995531     -6.98217046
 H     39.84741163     70.74365959     -6.69337662
 H     39.32095165     71.58823008     -5.21763706
 H     37.52792780     72.73190917     -5.91615579
 H     38.01575026     72.45455957     -7.60534883
 H     40.28696737     73.37945310     -7.05665691
 H     39.57329008     73.98098868     -5.54104273
 H     37.79816889     75.15373863     -6.84214847
 H     38.79080299     74.86736198     -8.29160789
 H     40.74738433     75.93271651     -7.21656264
 H     39.62934520     76.56184396     -5.98268509
 H     38.05561028     77.58476335     -7.14650870
 H     39.10447917     77.56502226     -8.58447636
 H     40.99653651     78.36286252     -8.05551897
 H     40.30617366     79.06074631     -6.57072133
 H     38.51457620     80.18412412     -7.43272460
 H     39.21541035     80.01953531     -9.06060933
 H     41.35253409     80.97439427     -8.34806272
 H     40.53589118     81.52336747     -6.86482658
 H     38.80519607     82.60637040     -7.37715674
 H     39.39150906     82.79035323     -9.04768183
 H     41.41288989     83.55834182     -8.90201773
 H     41.12979093     84.00736670     -7.20304795
 H     39.03991528     85.24204802     -8.17505630
 H     39.79253211     84.97166565     -9.76525376
 H     41.87869401     86.01735347     -9.14200382
 H     41.05187401     86.68710933     -7.71509722
 H     39.34717156     87.65378663     -8.10406116
 H     39.78682987     87.79874220     -9.82276856
 H     41.82116391     88.62797728     -9.81447591
 H     41.62660360     89.09778957     -8.10869475
 H     39.55315933     90.28266225     -8.51174406
 H     39.91866901     90.21117118    -10.25230672
 H     42.15090823     91.24618461     -9.81404832
 H     41.54625893     91.65206833     -8.18987952
 H     39.59453538     92.78204867     -8.91655759
 H     41.09936514     93.35986950    -10.21387639
 H     42.34777135     93.81879989     -9.94176175
 H     41.63529301     94.23093015     -8.36353808
 H     39.81659539     95.24759794     -8.65835263
 H     40.24721950     95.56555049    -10.35592022
 H     42.01595275     96.31918417    -10.70588452
 H     42.16894998     96.82983436     -9.00762220
 H     39.75316010     97.87898878     -9.71935111
 H     40.28000358     97.45893855    -11.36685238
 H     42.34522284     98.97752585    -10.67587787
 H     41.32481393     99.46298565     -9.30061022
 H     39.45505456    100.16835972    -10.45931114
 H     40.41876164    100.18831774    -11.95568576
 H     42.16902375    101.55046350    -11.09199759
 H     41.11167028    101.96220602     -9.72059743
 H     39.26727224    102.62836639    -10.35185545
 H     39.90298365    102.91221127    -11.99001592
 H     41.66441856    104.03798768    -11.89196569
 H     41.28875365    104.51880236    -10.21985332
 H     38.99869070    105.25127135    -11.16968737
 H     39.74621295    105.06897608    -12.77475609
 H     41.59533308    106.54550789    -12.24358246
 H     40.67742323    107.08425459    -10.81688692
 H     38.70569591    107.65139301    -12.09007319
 H     39.69526553    107.54214336    -13.56556740
 H     41.30851567    108.37256985    -13.78655960
 H     40.93728118    109.50419140    -12.46372767
 H     38.97703780    110.30539266    -12.85043559
 H     39.06125566    109.73106752    -14.53308964
 H     41.28157991    110.92181037    -14.74632115
 H     40.87333733    111.74546853    -13.22211910
 H     39.00190003    112.63336912    -13.33448838
 H     39.02218345    112.50526373    -15.10971914
 H     40.93636469    113.37128317    -15.72573248
 H     41.12191644    114.11629184    -14.11986844
 H     39.23182859    115.19112282    -13.78317079
 H     38.84465891    115.05893480    -15.51547926
 H     40.44530072    115.72280031    -16.67398169
 H     41.15892319    116.53664390    -15.26094657
 H     39.69261831    117.73995347    -14.33826604
 H     38.67342398    117.64725766    -15.79460291
 H     39.57198872    118.06077538    -17.50896716
 H     40.91314801    118.85518657    -16.64962480
 H     40.58837952    120.12548099    -15.29825147
 H     38.92578482    120.36981912    -15.88506013
 H     40.19300755    120.71448536    -18.18821154
 H     41.66255355    120.79768218    -17.18732219
 H     40.64671863    122.62469398    -15.83377472
 H     39.41192499    122.76796592    -17.10775450
 H     41.16768857    123.03969484    -18.83275247
 H     42.32115166    123.30889974    -17.50409965
 H     41.54784662    124.84303550    -16.24873726
 H     40.40302475    125.32972849    -17.52183564
 H     41.17344446    125.61400998    -19.32068279
 H     42.81082899    125.73707154    -18.63359151
 H     42.75094917    127.13681137    -17.02673010
 H     41.18410866    127.75435373    -17.60285414
 H     41.92946274    128.13053159    -19.85054534
 H     43.21706057    127.67519601    -19.68710504
 H     44.47171652    127.21215675    -19.18763395
 H     44.56321428    128.77654420    -18.34348544
 H     44.10302108    130.28904284    -19.83593099
 H     44.37424152    129.10198060    -21.13423349
 H     46.14570693    128.11446907    -20.95103411
 H     46.74828584    129.34982603    -19.82007942
 H     46.22196333    131.19973442    -21.26238331
 H     46.00986634    130.03520819    -22.59172908
 H     47.83270869    128.71193669    -22.41513067
 H     48.61262641    129.83024690    -21.87139551
 H     46.46354001    128.87033952    -23.97438875
 H     47.33475139    127.72411500    -22.92776239
 H     49.49872858    128.19781000    -23.74400079
 H     48.75244145    129.03396700    -25.12681085
 H     47.35065669    127.21215060    -25.76361789
 H     48.32224047    126.15646566    -24.71013750
 H     50.28556667    127.18381878    -26.19172619
 H     48.96865148    127.76965702    -27.23613732
 H     47.97028053    125.62282643    -27.55515265
 H     49.45505677    124.88806299    -26.90413126
 H     50.44604725    126.44869212    -28.89025655
 H     48.73930686    126.58255112    -29.37747896
 H     47.81280830    124.80871480    -29.61983505
 H     49.38018848    123.96992394    -29.70936667
 H     50.65501944    124.86871861    -31.05150369
 H     49.29513318    125.74383100    -31.79524714
 H     47.91321985    123.86170557    -32.14100261
 H     49.32326327    122.81850534    -31.83805460
 H     49.89522135    124.73544115    -33.89579961
 H     48.13501754    124.96529832    -33.76497577
 H     48.13250176    122.36888165    -34.29060623
 H     49.84374459    122.61164532    -34.71602418
 H     49.22363145    124.38879915    -36.32983802
 H     47.54151067    123.82606822    -36.18127734
 H     48.48853209    121.50235353    -36.80527488
 H     49.97167615    122.36994255    -37.26986036
 H     48.74985067    123.86055582    -38.77691786
 H     47.36658823    122.74789959    -38.64711879
 H     48.82639385    120.84609407    -39.32595224
 H     50.02892086    122.05860555    -39.82795956
 H     48.46120899    123.23903564    -41.25255389
 H     47.37587695    121.83438447    -41.12111532
 H     49.80024831    120.80711909    -42.00985226
 H     50.17671794    122.52910365    -42.25745367
 H     49.30802777    123.76875069    -43.05585879
 H     48.40512949    122.54792550    -43.98463607
 H     50.12515294    121.26107317    -44.76111553
 H     51.26788155    122.55383597    -44.32384864
 H     50.25248618    124.32403218    -45.40805713
 H     49.26337639    123.16348996    -46.32624571
 H     51.15888394    121.88582765    -47.09289790
 H     52.20521054    123.22798965    -46.57129609
 H     51.49175601    125.02754383    -47.41890246
 H     50.51457931    124.10976932    -48.58983470
 H     51.94596018    122.68487290    -49.48835595
 H     53.30246384    123.63519999    -48.83640280
 H     53.31801210    125.54510739    -49.14482295
 H     52.13955441    125.37299631    -50.46765397
 H     53.91308922    123.57119334    -51.28522251
 H     54.40069336    123.44540721    -50.51393150
 H     54.82012944    123.06656913    -49.26455648
 H     55.76750424    124.57210040    -49.32876894
 H     56.32336031    123.23144778    -51.70611784
 H     55.49912411    121.89294067    -50.87107288
 H     56.43245554    121.55651623    -49.00919690
 H     57.85282429    122.49390898    -49.53084248
 H     57.99337895    121.08200810    -51.59611741
 H     56.85426571    119.96772777    -50.80297995
 H     58.53360765    120.19918560    -48.75683760
 H     59.51871542    120.41349456    -49.65838928
 H     56.97124977    118.95274109    -48.70678080
 H     57.89996616    120.15382215    -47.77771847
 H     59.78442846    119.66065263    -47.38284795
 H     59.44433581    117.95105682    -47.74324469
 H     57.99572804    117.03880163    -47.06130476
 H     57.80606937    118.24899076    -45.76989525
 H     59.95697628    118.32072539    -44.97414976
 H     60.31002901    116.81052358    -45.84759749
 H     58.58440294    115.50297532    -45.06395064
 H     58.29763004    116.69329047    -43.77198400
 H     60.70951731    116.54285822    -43.12314819
 H     60.80124096    115.08648896    -44.14238419
 H     58.99014080    113.95013204    -43.09971111
 H     59.07918623    115.12453204    -41.76512420
 H     61.51955732    114.59136170    -41.50940687
 H     61.22522815    113.17777883    -42.55028172
 H     59.48045267    112.21819069    -41.37006708
 H     59.87799746    113.26064605    -39.98315986
 H     62.12085753    112.77965159    -39.77525839
 H     61.89235970    111.36237578    -40.82758187
 H     60.44021296    110.13397064    -40.36952106
 H     60.35618477    110.79850452    -38.72039989
 H     62.79136153    110.48289863    -38.42141468
 H     62.75909972    109.45942907    -39.87734596
 H     61.07293088    107.98999601    -39.19260824
 H     61.26492756    108.59496558    -37.52965431
 H     63.47712457    108.35868886    -37.19180551
 H     63.57263870    107.29440285    -38.61533599
 H     61.91215503    105.78973136    -38.07384603
 H     61.93254960    106.40242067    -36.40277974
 H     64.12928639    106.24429558    -35.88779972
 H     64.37293829    105.18756727    -37.29926197
 H     62.89056792    103.61219578    -37.13963127
 H     62.61184854    104.03505830    -35.43324050
 H     64.85485633    103.96555037    -34.73975686
 H     65.25976066    103.11738305    -36.25135580
 H     63.62110929    101.39874481    -35.98221131
 H     63.44155161    101.90177991    -34.28427686
 H     64.95428025    102.10785902    -33.17088884
 H     65.94113432    101.12275812    -34.27721696
 H     64.66021937     99.29562286    -34.55869301
 H     63.68536686     99.77122533    -33.14740582
 H     64.82074608    100.18484010    -31.50473835
 H     66.21584553     99.34607750    -32.22476718
 H     64.46399326     97.39974111    -32.52109316
 H     63.43844657     98.35664252    -31.42525543
 H     65.01033912     98.54209161    -29.67277066
 H     65.96278570     97.25008394    -30.44207447
 H     64.15584168     95.69661877    -30.58562540
 H     63.95554754     96.61991379    -28.74533281
 H     64.85328767     96.84325142    -27.76253154
 H     65.71527771     95.48714911    -28.52818574
 H     63.62725874     94.13202003    -28.50220456
 H     62.85863316     95.26568374    -27.64112083
 H     62.70806662     96.32811086    -26.66995914
 H     63.85785111     95.41414106    -25.66451322
 H     62.95667977     93.33625282    -25.73104910
 H     61.44015230     94.02690988    -26.35667193
 H     61.54411019     95.59884965    -24.31466576
 H     62.80461937     94.50732633    -23.69180132
 H     61.97196754     92.51520344    -23.72427083
 H     60.33525274     93.19070943    -23.90626807
 H     59.91947877     94.63430784    -22.52477005
 H     61.28184939     94.09629415    -21.51345693
 H     61.20301178     92.03814791    -21.21078243
 H     59.50227466     92.00381209    -21.73478716
 H     58.60293450     93.62822744    -20.43380694
 H     60.05257762     93.58727021    -19.40175850
 H     60.30379888     91.46789804    -18.87396315
 H     58.63876324     91.13427196    -19.40745787
 H     57.52038067     92.74879875    -18.20702309
 H     58.97039345     92.97400214    -17.19954453
 H     59.72456583     91.27418102    -16.43896846
 H     58.19954243     90.41674778    -16.76665510
 H     56.78852712     92.11649307    -15.79499713
 H     58.07994995     92.66390039    -14.94952874
 H     56.40359025     90.10314521    -15.84111717
 H     55.76070661     91.70966442    -16.25832614
 H     55.55239964     92.41947198    -13.96523108
 H     55.77001870     90.72176824    -13.47665087
 H     54.44436925     89.48564892    -14.49533152
 H     53.31248789     91.14529878    -14.00327228
 H     53.27909029     91.71079634    -12.68559465
 H     53.88312481     90.13140569    -12.12977621
 H     52.40985473     88.73831464    -13.19638395
 H     51.35159749     90.13311091    -13.51716682
 H     51.36414388     90.73143972    -11.10897999
 H     52.05652325     89.12194662    -10.79527717
 H     50.74904872     87.68997412    -11.74915402
 H     49.47689341     88.92732391    -11.88646035
 H     49.50949175     89.56175956     -9.59492005
 H     50.44683159     88.08941317     -9.24584009
 H     48.91160827     86.59191388    -10.29165919
 H     47.71096540     87.90589166    -10.30528857
 H     47.63499461     88.61588306     -8.22600582
 H     48.47017969     87.13906090     -7.68774114
 H     47.46086159     85.45475779     -8.47542439
 H     46.03666420     86.45749227     -8.84210137
 H     45.71422226     87.45330329     -6.80128816
 H     46.79922466     86.25016599     -6.06406561
 H     45.16352567     84.55295018     -7.24528057
 H     44.10897652     85.96682295     -7.48435489
 H     44.25945840     86.30336146     -4.94595388
 H     44.95093126     84.66430187     -4.88582392
 H     43.47643987     83.41239131     -5.95074566
 H     42.22462588     84.80237614     -5.20735437
 H     42.03776356     85.45573232     -3.97124856
 H     42.83592364     84.03046003     -3.26427893
 H     41.47554462     82.42806145     -4.39432561
 H     40.34944993     83.74354948     -4.80623414
 H     39.76401749     84.86977377     -3.26588520
 H     40.29795116     83.62316874     -2.11299431
 H     39.42617076     81.75812131     -2.77591438
 H     38.29014846     82.64789059     -3.81804230
 H     38.04487330     83.73357842     -1.24516649
 H     38.43284157     81.72025059     -1.07412655
 H     37.84637531     80.60258896     -1.61531542
 H     36.42356514     81.65781540     -1.78959984
 H     36.16060973     82.62116565      0.14602295
 H     37.23939150     81.42147250      0.89784269
 H     36.55042221     79.47852115      0.34064499
 H     34.98823936     80.16256469     -0.16919405
 H     34.70229339     81.29950370      1.99672078
 H     36.02469535     80.28468344      2.62094796
 H     35.56460022     78.25162451      2.20205666
 H     33.86637388     78.68351610      1.88938487
 H     34.32680908     79.76910398      4.35899735
 H     35.81031259     78.78802438      4.28852159
 H     34.41753341     76.74698757      3.88952533
 H     33.01038309     77.71978566      4.38131646
 H     33.54959971     78.56088235      6.33078230
 H     34.88054296     77.38773688      6.47426202
 H     34.43976499     75.50303780      6.14920399
 H     32.70600858     75.83735923      6.37411413
 H     32.53065920     76.92530492      8.23861916
 H     34.17839551     76.42944426      8.69398045
 H     34.12561844     74.21129684      8.41327454
 H     32.34734841     74.26554242      8.35777871
 H     32.72743275     75.55871623     10.65631856
 H     34.39987873     74.96370006     10.52537257
 H     33.86357593     72.67619769     10.30877655
 H     32.21283093     73.05001812     10.85974468
 H     33.26124383     74.16812199     12.88813945
 H     34.78038289     73.37372672     12.40916208
 H     34.04945554     71.19432324     12.28192143
 H     32.58003904     71.65753280     13.17327922
 H     33.39574647     72.69355314     14.97775185
 H     35.00302443     72.00767694     14.63937627
 H     34.50286893     69.80149712     14.43397686
 H     32.91941249     70.10384128     15.18864260
 H     33.83363788     71.21299682     17.11427575
 H     35.43253734     70.57953273     16.65546161
 H     34.78586857     68.30919676     16.50651940
 H     33.28436850     68.72154635     17.36891839
 H     34.06007665     69.78164892     19.19465870
 H     35.68773560     69.14078468     18.86559026
 H     34.87806205     66.84228084     18.72345085
 H     33.35685492     67.40172282     19.45912754
 H     34.23053587     68.44433992     21.33480072
 H     35.78015894     67.61965029     21.04014494
 H     34.62971309     65.42359126     20.95842961
 H     33.20694887     66.23302841     21.65758634
 H     33.89738306     67.25164515     23.43945257
 H     35.39249690     66.28590309     23.42384685
 H     34.96492774     64.26051703     23.26144709
 H     33.27358926     64.55657952     23.73047568
 H     33.21096355     65.70606595     25.48311934
 H     34.92007044     65.33372342     25.81263621
 H     34.99325603     63.10948082     25.65443990
 H     34.23714067     62.85495253     25.25754677
 H     33.19650888     62.60698588     24.35735382
 H     32.13699914     62.79689113     25.77497217
 H     32.22883482     62.23060286     27.35828873
 H     33.31915385     60.92697147     26.82912308
 H     32.69112253     59.91554049     25.21637842
 H     31.03734518     60.53656066     25.43460093
 H     30.85477383     59.91620762     27.72655340
 H     32.29425007     58.89038243     27.51713158
 H     31.32985788     57.71729836     25.61025333
 H     29.78647233     57.97643775     26.96295856
 H     29.81854116     57.64104964     28.32288211
 H     31.15700214     56.56067190     27.86509088
 H     30.41075840     55.44734236     26.12462924
 H     28.86234674     55.47504572     27.49608140
 H     29.05400233     55.10065374     28.84363284
 H     30.51616337     54.27452758     28.25383005
 H     30.02835797     53.11438634     26.56366712
 H     28.29746995     53.22510307     26.96371102
 H     28.26557478     52.58142283     29.11887904
 H     29.91089066     51.92645471     28.93938227
 H     28.75459399     50.66712264     26.90155710
 H     27.22994069     51.22135843     27.63403348
 H     26.96333199     50.80141715     29.53743448
 H     28.23377328     49.55640589     29.47268461
 H     28.02588512     48.26358203     27.93043801
 H     26.32971666     48.75603879     27.70960880
 H     25.26099906     48.73132302     29.44114648
 H     26.49743181     47.71617052     30.22150930
 H     26.38874263     46.10781903     28.32464910
 H     24.89303395     46.93116881     27.82144205
 H     23.48641338     47.28996195     28.91491727
 H     24.03742179     46.05423333     30.07147733
 H     24.34606969     44.27300232     28.69860298
 H     23.41174212     45.10390883     27.43175925
 H     21.54181950     45.44825712     29.05436708
 H     22.35552497     44.26699368     30.10829627
 H     22.50921926     42.54227258     28.49041705
 H     21.33526777     43.43162357     27.49083744
 H     19.66766113     43.69324300     29.10204820
 H     20.47900516     42.46141063     30.09832955
 H     20.65480798     40.76603251     28.55713151
 H     19.47568983     41.60966730     27.52454864
 H     17.86371034     41.76353078     29.38332207
 H     18.86320798     40.57311117     30.25060074
 H     18.82564219     38.96539743     28.45781295
 H     16.90895542     39.71865468     28.65064177
 H     16.22086760     39.75302729     29.86438526
 H     17.38122252     38.50293823     30.37342404
 H     16.96910765     37.17017648     28.35704452
 H     15.53291886     38.18073248     28.06651915
 H     14.90275658     37.46750440     30.50651548
 H     16.19899873     36.25939690     30.33769840
 H     15.16972698     35.36238488     28.28057230
 H     13.70369414     36.27819396     28.70519934
 H     14.55248732     34.54517666     30.85246971
 H     15.59797468     33.94245893     29.54405304
 H     14.43101779     33.38453216     27.89587276
 H     12.96958029     33.36327486     28.91175425
 H     13.58791828     32.07809998     30.63790120
 H     14.98658391     31.50120142     29.70025033
 H     14.38755151     30.82636320     27.82564078
 H     13.51061140     31.10138614     27.70034540
 H     12.41749051     31.85334929     27.43837884
 H     11.60168299     30.65952491     28.47640973
 H     12.29200014     28.70883422     27.62462443
 H     12.85170226     29.55215735     26.16045016
 H     11.02708221     30.72324569     25.56008201
 H     10.03629965     29.72231222     26.64854366
 H     10.51391441     27.64942953     26.08935889
 H     11.24493616     28.22403513     24.57156369
 H      9.41426755     29.51766574     23.84689798
 H      8.40285108     28.70053205     25.06246201
 H      7.72814081     27.30559807     23.74063762
 H      9.51862885     27.02838167     22.99711846
 H      8.32218541     28.27252177     21.94162340
 H      6.91614438     27.80087091     22.92593064
 H      7.39253104     25.40155083     22.50083428
 H      8.50438354     25.93332858     21.21659790
 H      6.99527705     27.28094384     20.03766318
 H      5.66274748     26.52568771     20.94442655
 H      6.86716678     24.32919664     19.98760157
 H      7.75212486     25.47548344     18.95264145
 H      6.96719584     26.75634729     17.92120915
 H      5.41262336     25.89174287     17.98469357
 H      5.37635964     24.00611158     17.62358198
 H      6.96805134     24.09509426     16.83183312
 H      6.78962002     25.74295753     15.39143226
 H      5.01714651     25.69134405     15.54615901
 H      4.14885688     23.95306571     15.35976295
 H      5.59540691     23.27994166     14.57067252
 H      5.40966986     25.34348781     13.00634672
 H      3.78777933     25.56490512     13.70542620
 H      2.76848212     23.65529780     13.44202421
 H      3.99843745     23.15450510     12.25683088
 H      3.16751781     25.57252651     11.28396937
 H      1.86327707     25.37607105     12.47922164
 H      1.16406927     23.23258358     11.62724887
 H      2.13633276     23.55499736     10.17156356
 H      1.66599432     25.39853723      9.35165078
 H      0.15411329     25.45605724     10.28929350
 H     -0.77446688     23.46122071      9.80577415
 H      0.35247410     23.27742192      8.44031134
 H     -0.32153003     25.50018882      7.55812671
 H     -1.69874788     25.43849056      8.68406231
 H     -2.75657699     23.65976074      8.45075196
 H     -1.97698822     23.37687818      6.87579625
 H     -2.31627506     25.31340944      5.80359283
 H     -3.54804183     25.75855858      7.00893907
 H     -4.91321961     24.04474494      7.08702894
 H     -4.24070553     23.43356414      5.55652265
 H     -4.18702571     24.83804481      4.08862267
 H     -5.34299724     25.85505985      4.98175028
 H     -6.97224170     24.20194130      5.34539617
 H     -6.16898076     23.19023107      4.12086322
 H     -6.12645376     24.76331301      2.39040472
 H     -7.30458592     25.74371947      3.29543205
 H     -8.86225537     23.90320504      3.55126618
 H     -7.93712915     23.02564774      2.30937193
 H     -8.56004259     25.41913740      1.09839896
 H     -9.64943846     25.59664687      2.49481354
 H    -10.69609429     23.38304291      1.85122178
 H     -9.84018428     23.54462665      0.29894107
 H    -10.86107144     25.78665079     -0.04651702
 H    -11.98389804     25.38751737      1.27568554
 H    -12.81834184     23.40141683      0.55947878
 H    -12.17087992     23.73018575     -1.06562759
 H    -12.64146486     25.51375192     -1.82218136
 H    -13.95855975     25.70120390     -0.63964617
 H    -14.53997074     23.27408264     -1.67642725
 H    -13.33585747     23.71714908     -2.91014927
 H    -13.73407669     25.52097847     -3.78415158
 H    -15.40812101     25.47327169     -3.18118695
 H    -16.35645816     23.72364193     -3.58138334
 H    -15.13741058     23.31245730     -4.81147150
 H    -14.75701838     24.75476748     -6.13927374
 H    -16.26643239     25.59276588     -5.70603626
 H    -17.79881111     23.97470071     -5.84916366
 H    -16.64406262     22.96683445     -6.75416543
 H    -15.99620361     24.38169645     -8.39587489
 H    -17.38060376     25.43519347     -8.01924919
 H    -19.09150902     23.93158166     -8.09721431
 H    -18.01896184     22.77705059     -8.92484176
 H    -17.38094311     24.35393760    -10.64350666
 H    -18.73704953     25.38266155    -10.12295975
 H    -20.49410276     24.09023639    -10.13997067
 H    -19.61357041     22.89482832    -11.12176953
 H    -18.90539959     24.37210731    -12.81039734
 H    -20.08048625     25.56609926    -12.20888156
 H    -21.82023385     23.67266580    -12.46829762
 H    -20.56771448     22.81851517    -13.40097582
 H    -19.95195716     24.23110013    -14.95838406
 H    -21.40655104     25.21021101    -14.65217299
 H    -22.82873043     23.17841403    -14.92381839
 H    -21.29558986     22.91866942    -16.27064463
 H    -20.80352282     23.82171095    -17.24586470
 H    -22.39314985     24.61138748    -17.11258471
 H    -23.91908459     23.18857731    -17.22876825
 H    -22.78349752     21.99449346    -17.90172623
 H    -21.73861669     22.83139236    -19.51373244
 H    -22.93480475     24.14397815    -19.63422863
 H    -24.80462361     22.56409160    -19.71013636
 H    -23.61477464     21.27587191    -20.01512184
 H    -22.38322281     21.80011521    -21.62298805
 H    -23.53934013     23.05653589    -22.12604517
 H    -25.47640769     22.13087665    -22.23458052
 H    -24.72062997     20.51937122    -22.22376518
 H    -23.21037844     20.49155270    -23.73264973
 H    -23.90277337     21.95443162    -24.47348790
 H    -26.02087792     21.54596711    -24.73940187
 H    -25.72436797     19.80763449    -24.49743448
 H    -24.24241085     19.05456195    -25.62737979
 H    -24.31138872     20.46589079    -26.70981207
 H    -26.79617892     20.08372297    -26.93776473
 H    -26.52041626     18.49037658    -26.19380982
 H    -25.01057188     17.47412681    -27.24965461
 H    -25.18879812     18.59445115    -28.62128701
 H    -27.49462698     18.41247223    -28.90170839
 H    -27.47598295     16.96065878    -27.87206925
 H    -25.89575253     15.69893092    -28.85558308
 H    -25.98184656     16.73244347    -30.30220200
 H    -28.51174794     16.27953785    -30.25893888
 H    -28.58568497     15.77218313    -29.24799289
 H    -28.61694093     15.51551774    -27.95647286
 H    -27.91997824     13.97083011    -28.50094491
 H    -28.50351004     12.98454254    -29.89161044
 H    -30.08252032     13.80457633    -29.84123405
 H    -29.82625101     13.05819603    -27.26254649
 H    -28.48332414     12.06212633    -27.87300472
 H    -29.75288064     10.91235185    -29.51643849
 H    -31.23362821     11.50403197    -28.72550996
 H    -31.18454001     11.06493489    -26.68200404
 H    -29.88067545      9.88232427    -26.94589034
 H    -30.58284576      8.58503236    -28.55343334
 H    -32.24227136      9.18609207    -28.32256421
 H    -32.23698655      8.72039658    -25.94258677
 H    -30.77688294      7.73522110    -26.19908903
 H    -32.26669314      6.52518153    -27.98157121
 H    -33.62592213      7.39364402    -27.22888525
 H    -33.66398292      7.05952368    -25.17504615
 H    -32.64214348      6.33554729    -25.00737586
 H    -31.43803802      5.64726056    -25.04083543
 H    -32.39550963      4.34780047    -25.79111422
 H    -34.09153212      4.50228558    -23.99623711
 H    -32.91869005      5.47726873    -23.07856832
 H    -31.08871401      4.24732790    -23.04628061
 H    -32.03334424      2.82518565    -23.54972059
 H    -33.67832380      3.01939052    -21.83845735
 H    -32.03636613      3.76216801    -20.89938039
 H    -30.71056047      3.41637189    -20.75570658
 H    -31.28978223      1.76648207    -21.08832104
 H    -32.98182747      1.40459148    -19.83036805
 H    -32.54354357      2.79972164    -18.81558447
 H    -30.37424246      2.36710818    -18.35431831
 H    -30.60189570      0.69041611    -18.90671704
 H    -32.37733182      0.00594609    -17.74914559
 H    -31.14788039      1.00236816    -16.41912829
 H    -29.86254361      0.91271883    -16.18882180
 H    -30.10943393     -0.69217112    -16.91795832
 H    -32.02460584     -1.12121138    -15.40291379
 H    -31.48124205      0.27995506    -14.44910299
 H    -29.26272652     -0.42492115    -14.12717565
 H    -29.74016933     -2.05472948    -14.66012953
 H    -31.57069482     -1.99738062    -12.91223171
 H    -30.73711163     -0.57973300    -12.23129049
 H    -28.66840086     -1.22638677    -11.91900983
 H    -29.16860938     -2.92605865    -12.08981270
 H    -30.92490399     -2.43055564    -10.29374636
 H    -30.02779408     -0.92281000     -9.99347385
 H    -27.98720932     -1.41728816     -9.64809308
 H    -28.42953603     -3.11950846     -9.37412263
 H    -30.13017287     -2.46210219     -7.70673212
 H    -29.38504758     -0.84563842     -7.69673901
 H    -27.16724931     -1.89909801     -7.19803758
 H    -28.06158492     -3.39222655     -6.82521369
 H    -29.57450325     -2.98655648     -5.43053462
 H    -28.80227769     -1.43818660     -5.01282049
 H    -26.77178147     -1.74464068     -4.59107780
 H    -27.05319076     -3.49234939     -4.40509462
 H    -28.57322431     -3.97511460     -3.19732938
 H    -28.56627403     -2.34288908     -2.48735881
 H    -26.07720549     -2.64676953     -2.07820431
 H    -26.33603883     -4.37177178     -2.43266051
 H    -28.14374135     -4.12901922     -0.52132023
 H    -27.36056779     -2.56561904     -0.18862557
 H    -25.22345484     -3.10097382      0.09309883
 H    -25.67783471     -4.81213051      0.27680615
 H    -27.31344648     -4.41215956      1.97905038
 H    -26.63568026     -2.77830780      2.17761539
 H    -24.54350858     -2.93885994      2.46848174
 H    -24.71058476     -4.67167406      2.83957127
 H    -26.25146582     -4.82164366      4.35751941
 H    -26.10927241     -3.07824872      4.68709756
 H    -23.74120896     -3.10870011      5.00517952
 H    -23.82767672     -4.88260788      5.12367508
 H    -25.46186631     -5.01775889      6.78477460
 H    -25.20757963     -3.29081768      7.13302598
 H    -22.89009466     -3.36506035      7.43224539
 H    -22.99404518     -5.13788134      7.55293800
 H    -24.55067740     -5.45142656      9.11758056
 H    -24.39427227     -3.74806962      9.60990082
 H    -21.93643408     -4.02519270      9.85480156
 H    -22.20848264     -5.78208051      9.76761520
 H    -23.68232864     -6.29680030     11.21916285
 H    -23.44966768     -4.73099629     12.03303835
 H    -20.87633219     -5.43837107     11.81886151
 H    -21.40358901     -6.91243324     11.66466567
 H    -21.57819689     -4.19247818     13.30073089
 H    -20.34756530     -4.37655065     12.02796623
 H    -19.12624174     -6.10101019     12.77134159
 H    -19.85614319     -5.91531852     14.38411223
 H    -19.43811521     -3.65890034     14.70610900
 H    -18.35029223     -3.65626238     13.35225358
 H    -17.35588917     -4.24823886     12.51079611
 H    -16.74897736     -5.02427507     13.99325775
 H    -16.58629221     -3.46390058     15.48217057
 H    -16.70047937     -2.22418994     14.21002849
 H    -14.81309673     -3.40833844     13.00697497
 H    -14.55008206     -4.30996347     14.51898101
 H    -14.34106263     -2.41315618     15.92069039
 H    -14.15058856     -1.40808262     14.46404581
 H    -12.36731234     -2.94905793     13.61910229
 H    -12.21195042     -3.52437482     15.18615474
 H    -12.38377884     -0.94718891     13.31413853
 H    -12.30437919     -2.53481840     12.51326717
 H    -10.00791672     -2.77426023     13.66984246
 H    -10.14095913     -1.03415619     14.01999144
 H    -10.51683517     -0.14722483     12.00227022
 H     -9.98943582     -1.66732575     11.24108048
 H     -8.07381125     -2.16558485     12.08488472
 H     -7.90378902     -0.50721672     12.70872304
 H     -8.32930333      0.63132869     10.71369589
 H     -8.09810719     -0.89576014      9.82892772
 H     -5.89977017     -1.24812324     10.88916891
 H     -5.96771627      0.44902610     11.42146028
 H     -6.36129148      1.15044489      9.04849315
 H     -5.87172803     -0.49430197      8.57583887
 H     -3.75977522     -0.34038453      9.78675057
 H     -4.03119841      1.41462553      9.90731518
 H     -4.33648409      1.63489621      7.48890143
 H     -3.65774573     -0.00212230      7.32231421
 H     -1.66099284      0.46731985      8.55162461
 H     -2.03344529      2.20136685      8.40120243
 H     -2.23689973      2.00296867      5.94962765
 H     -1.46340286      0.40602795      6.09016094
 H      0.44625938      1.26219805      7.30469100
 H     -0.05641789      2.90102761      6.82529564
 H     -0.13961368      2.35888124      4.46922992
 H      0.75868593      0.86749170      4.83947543
 H      2.37673852      2.74167527      5.93346049
 H      1.35380225      3.88378372      5.02932757
 H      1.44223752      3.14852239      2.94425913
 H      2.85313335      2.14511841      3.35756298
 H      4.30490371      3.30040564      4.31899180
 H      3.52291466      4.79479355      3.75016443
 H      3.41258337      4.21936056      1.47337827
 H      4.56518756      2.89982010      1.78735791
 H      6.21731408      4.21421645      2.83650759
 H      5.40222150      5.66897664      2.21396156
 H      5.46685104      4.77869936     -0.09074666
 H      6.62931549      3.56373286      0.49303366
 H      8.19866959      4.83414150      1.47752129
 H      7.53896951      6.27059423      0.65919004
 H      7.64794435      5.23381018     -1.53771672
 H      8.68568662      3.97587395     -0.82430655
 H     10.22598973      5.71018533      0.05871949
 H      9.40109997      6.87133768     -1.00877701
 H      9.35658013      6.15757695     -2.96711050
 H     10.62793274      4.97127030     -2.58683988
 H     12.23073763      6.08278502     -1.63909492
 H     11.53380381      7.60997883     -2.23089639
 H     11.37494901      6.95689559     -4.50312632
 H     12.44822681      5.58390137     -4.14087186
 H     14.19598810      6.64246289     -3.15051494
 H     13.59225138      8.19593638     -3.77540592
 H     13.30132998      7.87907374     -5.92113756
 H     14.29123913      6.40185419     -5.84259484
 H     16.15424766      7.11974171     -4.81932846
 H     15.67399507      8.80336088     -5.14034341
 H     15.17438059      9.20722775     -7.02160698
 H     15.97796723      7.72249483     -7.58559575
 H     18.04247313      8.45503109     -6.32109467
 H     17.26801823     10.05151046     -6.18059596
 H     16.69702936     10.69360945     -8.12502456
 H     17.76382522      9.47247104     -8.85921405
 H     19.67741435      9.58989775     -8.03280124
 H     19.31945883     11.20647186     -7.37948458
 H     18.58277877     12.57534998     -8.22090924
 H     19.02174328     11.86840551     -9.79437876
 H     21.11116726     12.24749146     -9.77181807
 H     21.02989783     12.60872348     -7.73717797
 H     20.24520830     14.14143360     -9.85324896
 H     21.06793016     12.88708750    -10.81137801
 H     23.14039315     12.93382776     -9.82169121
 H     22.71922497     14.48606435     -9.05916541
 H     22.02069847     15.78293164    -10.63927663
 H     22.72837926     14.69616931    -11.85845759
 H     24.91888511     14.83237721    -10.61505845
 H     24.21693819     16.20459009     -9.72479501
 H     23.41961998     17.64902218    -10.66686913
 H     24.26102100     17.17844374    -12.16315351
 H     26.15234343     16.81994590    -12.09073751
 H     26.28880445     17.68378005    -10.54043573
 H     25.27065420     19.63124069    -10.97028555
 H     25.36941541     19.29151456    -12.71473361
 H     27.47114144     18.80172000    -13.08550696
 H     27.91666855     19.49747486    -11.50889748
 H     26.67483660     21.60306426    -12.22000026
 H     26.67303095     20.91830718    -13.86297657
 H     28.42516493     20.33392073    -14.56469001
 H     29.27455321     21.29553033    -13.33095049
 H     28.14187719     23.32550173    -13.73314399
 H     28.22670299     22.49674617    -15.60253487
 H     29.16570274     21.88495613    -16.37270174
 H     30.30755498     22.80236913    -15.36136918
 H     29.18399224     24.90222126    -15.64414182
 H     28.27137075     24.17553843    -16.98850811
 H     30.34082498     23.46067516    -18.10756587
 H     31.22616917     24.53795034    -17.00126097
 H     30.04330224     26.49551900    -17.40301962
 H     29.34364170     25.74272408    -18.85630611
 H     31.26256534     25.05083959    -19.90740465
 H     32.20986527     26.10296634    -18.82855397
 H     30.83759806     28.05904290    -19.39307627
 H     30.18505916     27.11956611    -20.75683689
 H     32.52830413     26.68684022    -21.53914834
 H     33.04411196     27.96079520    -20.40811003
 H     31.71335976     29.68337961    -21.03844600
 H     31.33004694     28.81962271    -22.54684316
 H     34.08467608     28.87152605    -22.49260582
 H     33.82215215     30.03958913    -21.17542075
 H     32.52919791     31.58503417    -22.01070749
 H     32.89104741     31.00829609    -23.65530615
 H     35.38455658     31.35813700    -22.68256500
 H     34.55270658     32.21606788    -21.36338084
 H     33.34619345     33.75086283    -22.48041288
 H     34.32691560     33.45144366    -23.93533518
 H     36.33032650     33.91959333    -22.30807088
 H     35.09042215     34.53001518    -21.18633605
 H     33.81777756     35.76993565    -21.64600064
 H     34.78898363     36.28861973    -23.04456857
 H     36.81006368     36.63459893    -22.10133874
 H     36.05087451     36.61745341    -20.49149263
 H     34.39137260     38.17057040    -20.82375291
 H     35.21650293     38.70544791    -22.30744178
 H     37.33614059     39.04918674    -21.17998882
 H     36.46283097     38.94034846    -19.63281359
 H     34.87742429     40.09207053    -19.43614076
 H     35.41176081     41.11218092    -20.79339016
 H     37.64111683     41.40331986    -19.80807741
 H     36.97743139     40.75463353    -18.28919810
 H     35.23407091     41.85854952    -17.78892190
 H     35.69886707     43.14207350    -18.93119918
 H     37.76319006     43.64827723    -18.43120771
 H     37.59737860     42.80940677    -16.87009606
 H     35.77886685     43.64734087    -15.96960431
 H     35.82398062     44.99904652    -17.12680925
 H     38.08887803     45.60571564    -16.66445374
 H     38.01319174     44.58929706    -15.20519656
 H     36.12757453     45.46200416    -14.22098908
 H     37.00509925     47.11551635    -15.07152580
 H     38.38100533     47.52222063    -14.96974018
 H     38.44351944     46.51011482    -13.50686612
 H     36.25115806     47.94608694    -12.96106026
 H     36.78141510     48.95803742    -14.32599629
 H     38.97067315     49.36562208    -13.41874088
 H     38.38137372     48.74672827    -11.85734301
 H     36.49220825     50.22770143    -11.76352941
 H     37.23722322     51.17732657    -13.07174631
 H     39.14791044     51.70305716    -12.72708740
 H     38.95933230     51.36015726    -10.99067598
 H     37.24708810     52.31979407    -10.25543054
 H     37.52219879     53.56451668    -11.72498482
 H     38.59174889     54.27531574    -12.38445309
 H     39.46830930     54.14768238    -10.84055599
 H     38.42378348     54.65142197     -9.22263421
 H     37.22362378     55.50153299    -10.22522816
 H     38.83844292     56.80918698    -11.41673272
 H     39.82852394     56.54050011     -9.69732184
 H     39.50694972     56.63921531     -8.30328040
 H     38.20764285     57.74467650     -8.81124092
 H     39.96322080     58.99913685    -10.16184068
 H     41.17567396     58.06825328     -9.24987589
 H     41.78591416     59.01622302     -7.91776980
 H     39.90496554     59.59118723     -7.40438431
 H     41.31662623     60.87296710     -8.75586694
 H     42.38139066     60.13692887     -7.16468916
 H     41.90411381     60.36424773     -5.88567275
 H     40.95328480     61.65689716     -6.65589889
 H     42.99219067     62.52462888     -7.77496147
 H     43.93734189     61.49558888     -6.67222283
 H     43.26893916     61.98181281     -4.66714341
 H     42.48679310     62.48487775     -4.76015233
 H     41.19794556     63.01753795     -5.05028909
 H     42.06456903     64.49988850     -5.51918916
 H     43.44450608     65.08222117     -4.13711226
 H     42.68951010     64.04215119     -2.90564883
 H     40.56020813     64.55362288     -2.95180908
 H     40.93160475     66.03882879     -3.85982594
 H     42.59711838     66.76121697     -2.23284596
 H     41.94940205     65.53239530     -1.11986459
 H     39.60799622     66.57648016     -1.79931584
 H     40.13818501     67.64065801     -1.87128048
 H     39.85014041     64.94317190     -0.46105861
 H     38.85656794     65.57616685     -1.79537409
 H     38.42645974     67.52958564      0.02297384
 H     38.62363148     66.59545476      0.97464660
 H     37.41726622     67.45475001     -1.74775983
 H     37.00898021     68.19868904      0.06649933
 H     35.92067329     67.59956944      0.65450745
 H     35.55866522     67.04996811     -0.99932301
 H     36.01691842     69.54136388     -1.65926401
 H     35.79425692     69.89909226     -0.05887544
 H     34.77453608     68.40945545     -2.68059223
 H     36.18908625     69.48392384     -2.79387135
 H     35.18603324     71.46894567     -2.15206676
 H     33.60663251     70.55099604     -3.00198180
 H     33.39411048     69.82936815     -4.21392368
 H     34.79988347     70.72535989     -4.83783694
 H     33.13416496     72.59340612     -3.48122791
 H     33.46207754     72.58248159     -5.03327136
 H     34.61924278     73.28427446     -4.67815250
 H     33.22345268     73.77075247     -3.28260554
 H     31.84003621     74.14181417     -3.40623415
 H     32.99611775     75.24977854     -4.71709910
 H     34.18481500     75.92905692     -4.24737442
 H     33.49067978     75.76913222     -2.61615799
 H     31.51092647     76.37330048     -2.58132093
 H     31.71522351     77.21304045     -4.13739489
 H     33.64536919     78.45267227     -3.45821026
 H     33.27579150     78.01208090     -1.77370492
 H     30.96829047     78.89348442     -2.02338302
 H     32.13790673     80.16401991     -3.14598125
 H     33.29245106     80.82615266     -2.95169669
 H     32.84480546     80.66849724     -1.23617203
 H     30.46015709     81.44031199     -2.37243323
 H     31.21518355     82.05744133     -3.32924734
 H     30.79958343     81.45276488     -0.28619797
 H     29.64196913     80.98600443     -1.55518595
 H     28.93233478     83.07392437     -2.19043801
 H     29.96343654     83.86180893     -0.97210565
 H     28.62790193     82.80352037     -0.45767462
1502
Final Conformation Chain 4 (Simulation Frame 5)
 C      0.00000000      0.00000000      0.00000000
 C      1.54000000      0.00000000      0.00000000
 C      2.16637443     -1.40338767      0.09878319
 C      3.69096703     -1.39498067      0.31591619
 C      4.33947630     -2.79061458      0.25898008
 C      5.87044844     -2.77715559      0.42494140
 C      6.61041329     -1.96565802     -0.65465283
 C      8.01415501     -1.49426929     -0.23168491
 C      9.14914943     -2.44232104     -0.66131911
 C     10.54047375     -2.02647467     -0.14859265
 C     11.68246405     -2.94542124     -0.62081648
 C     13.09075884     -2.38469543     -0.34898500
 C     14.23216770     -3.28330505     -0.86014696
 C     15.63867148     -2.69719349     -0.63694224
 C     16.74855310     -3.41325648     -1.42878602
 C     18.03980390     -2.58835094     -1.58306573
 C     19.19782522     -3.35593042     -2.24745143
 C     20.58758250     -2.75016196     -1.97686086
 C     21.72952911     -3.43013999     -2.75479906
 C     23.12814537     -2.87535813     -2.42663804
 C     24.28374558     -3.80610862     -2.83881722
 C     24.22835426     -5.20008770     -2.18662544
 C     25.35331934     -6.14896517     -2.64015065
 C     25.28589454     -7.54968030     -2.00371447
 C     26.46169381     -8.46820227     -2.38504565
 C     26.36968661     -9.88439930     -1.78711536
 C     27.55661334    -10.79595938     -2.15024507
 C     28.86884439    -10.43201612     -1.43108238
 C     30.04212804    -11.37620943     -1.75280350
 C     31.31409351    -11.09740105     -0.93062973
 C     32.51706532    -11.97633808     -1.32040983
 C     33.86755701    -11.46104678     -0.78914053
 C     35.06810942    -12.35021239     -1.16284955
 C     36.39768019    -11.90861542     -0.52344850
 C     37.60635374    -12.77069346     -0.93275243
 C     38.94882103    -12.27932806     -0.36009055
 C     40.11742635    -12.34234922     -1.36108502
 C     39.87487501    -11.54800096     -2.65791952
 C     40.85556020    -11.89035639     -3.79486689
 C     40.60316385    -11.10742471     -5.09675554
 C     41.57053951    -11.46513691     -6.24035788
 C     41.60825837    -10.42654908     -7.37680524
 C     42.26859471    -10.93763953     -8.67076910
 C     41.65921916    -12.24472360     -9.21094746
 C     42.32641312    -12.76138440    -10.49916865
 C     41.92268124    -14.19762022    -10.88104200
 C     42.67665545    -14.75656314    -12.10198659
 C     42.18679927    -16.14291582    -12.55988086
 C     42.98457120    -16.73134664    -13.73840074
 C     42.35824177    -17.99942752    -14.34773013
 C     43.05557976    -18.48793786    -15.63095941
 C     42.40252447    -19.73037530    -16.26457443
 C     41.35372954    -19.40488663    -17.34424398
 C     40.93175278    -20.61822942    -18.19355836
 C     39.82375057    -20.31082423    -19.21797680
 C     39.53010742    -21.46902242    -20.18954803
 C     38.47676853    -21.13503538    -21.26217557
 C     38.21762421    -22.27685237    -22.26252460
 C     37.01976939    -22.02991957    -23.19834938
 C     36.76639333    -23.16751375    -24.20496752
 C     35.34450473    -23.17543969    -24.79638106
 C     35.26790046    -23.71698416    -26.23598564
 C     33.83688852    -23.79882761    -26.79910773
 C     33.77286925    -23.90318712    -28.33423333
 C     34.57583846    -25.08149569    -28.91598014
 C     35.18383712    -24.80111332    -30.30281949
 C     36.22329238    -25.84417529    -30.75354610
 C     36.56519340    -25.77998755    -32.25374063
 C     36.90813936    -27.14582678    -32.87701526
 C     37.31423644    -27.07304373    -34.36072271
 C     37.93250452    -28.37404563    -34.90545991
 C     38.66459950    -28.20473768    -36.24969641
 C     38.84394178    -29.51730518    -37.03493707
 C     39.71119976    -29.37703567    -38.29976436
 C     39.58109177    -30.55568975    -39.28233571
 C     40.70959616    -30.62713678    -40.32778928
 C     40.36704474    -31.48243046    -41.56177925
 C     41.56917283    -31.76352119    -42.48236387
 C     41.24561211    -32.68866332    -43.67022771
 C     42.43025613    -32.91660658    -44.62744263
 C     42.17538356    -33.99898047    -45.69285651
 C     43.43308066    -34.41152734    -46.48000521
 C     43.26362510    -35.70511654    -47.29824222
 C     44.55018183    -36.17336532    -48.00330595
 C     44.35065300    -37.38784252    -48.92895890
 C     45.54522566    -37.66935309    -49.85919971
 C     45.45519794    -39.01374704    -50.60492077
 C     46.56404221    -39.22435453    -51.65263680
 C     46.34491189    -40.45006173    -52.55885077
 C     47.57582877    -40.83483935    -53.40050975
 C     47.35248250    -42.05240990    -54.31660930
 C     48.52564139    -42.34141328    -55.27147853
 C     48.16162003    -43.26376374    -56.44976461
 C     49.36972727    -43.70314830    -57.29771396
 C     49.09207296    -44.91935485    -58.20068114
 C     50.29287407    -45.34388721    -59.06638834
 C     49.92037066    -46.25578105    -60.25014965
 C     51.13096279    -46.76029490    -61.05732526
 C     50.76826144    -47.75876233    -62.17227392
 C     51.94710372    -48.12483183    -63.09310182
 C     51.61821923    -49.21744585    -64.12733080
 C     52.78212199    -49.54924616    -65.07961171
 C     52.35361445    -50.29747469    -66.35559578
 C     53.50528532    -51.03003173    -67.06876785
 C     53.04934461    -52.21457296    -67.94088030
 C     54.04948600    -52.59965667    -69.04678615
 C     53.62720533    -53.82878785    -69.87293117
 C     54.58643780    -54.16566741    -71.02964428
 C     53.98102692    -55.10023008    -72.09344421
 C     55.01295739    -55.67835074    -73.07959634
 C     54.50677373    -56.89749787    -73.87272835
 C     55.49049906    -57.39869179    -74.94636196
 C     55.02083328    -58.66680947    -75.68317373
 C     56.16962993    -59.55092006    -76.20299554
 C     55.71471582    -60.67486082    -77.15242185
 C     56.87057536    -61.38624105    -77.88010783
 C     56.42447083    -62.23273028    -79.08677544
 C     57.54356704    -63.10153158    -79.69043759
 C     57.15395189    -63.79884118    -81.00708460
 C     58.11619170    -64.92514645    -81.42795393
 C     57.93434065    -65.39291080    -82.88388205
 C     58.44474196    -66.82104055    -83.15134406
 C     58.80930662    -67.09055714    -84.62309588
 C     59.79842189    -68.25431217    -84.82039060
 C     59.96697040    -68.69122297    -86.28746263
 C     61.06862055    -69.74519230    -86.50452392
 C     61.45713584    -69.95034709    -87.98052100
 C     62.15951312    -71.29146716    -88.26276756
 C     62.78712642    -71.38674709    -89.66584393
 C     63.56833223    -72.69022178    -89.91538593
 C     65.06267377    -72.60397822    -89.55330110
 C     65.88710435    -73.82531379    -90.00079818
 C     67.26092930    -73.93927052    -89.31434435
 C     68.04370819    -75.21205023    -89.68702251
 C     69.16247507    -75.57314871    -88.69225191
 C     68.65170526    -76.00901489    -87.30634611
 C     69.76651818    -76.43820929    -86.33444883
 C     69.26340903    -76.80006528    -84.92464692
 C     70.23547003    -77.68293829    -84.12013920
 C     69.77833841    -77.96337184    -82.67653686
 C     70.35587417    -79.25905302    -82.07715158
 C     69.58304066    -79.78111530    -80.85168051
 C     70.35584703    -80.82217514    -80.02067826
 C     69.60362721    -81.30662054    -78.76725176
 C     69.76638333    -82.81109305    -78.48146700
 C     69.44755781    -83.21081037    -77.02882239
 C     69.38111585    -84.73195258    -76.79792880
 C     69.43151829    -85.14315481    -75.31469843
 C     69.19058230    -86.64477803    -75.07246393
 C     69.43729614    -87.09240197    -73.61975436
 C     69.05467495    -88.55809931    -73.34238759
 C     69.88959444    -89.22424267    -72.23299025
 C     70.19467935    -90.71226525    -72.48658837
 C     71.01643878    -91.38237053    -71.36977578
 C     71.33972327    -92.86479615    -71.63340703
 C     72.27933228    -93.49625698    -70.58938015
 C     72.84505778    -94.86730653    -71.00384098
 C     73.62168346    -95.58821914    -69.88637171
 C     74.63968484    -96.62391971    -70.39881442
 C     75.77224636    -96.93492018    -69.40273054
 C     76.59281205    -95.70145881    -68.98220113
 C     77.15363427    -95.78074594    -67.55014248
 C     77.71469039    -94.44719843    -67.02244269
 C     78.03449406    -94.45450497    -65.51603231
 C     78.66145794    -93.14502400    -65.00244115
 C     77.82236931    -91.88900688    -65.30235994
 C     78.62067710    -90.57343244    -65.24262243
 C     77.77314480    -89.34283460    -64.86990543
 C     78.55595317    -88.01667410    -64.88036446
 C     77.72035611    -86.79275784    -64.46154883
 C     78.54669303    -85.50856277    -64.26252544
 C     77.70426295    -84.27162848    -63.89933798
 C     78.53555716    -83.06408628    -63.42775367
 C     77.69098054    -81.83998229    -63.02792899
 C     78.52355199    -80.61910330    -62.59447859
 C     77.74859332    -79.60753169    -61.72974630
 C     78.63057143    -78.50701524    -61.11121728
 C     77.85723221    -77.50150848    -60.23800333
 C     78.72759892    -76.36381795    -59.67256365
 C     77.95900329    -75.37131386    -58.78048943
 C     78.78243728    -74.13979267    -58.35988029
 C     78.09482841    -73.25857360    -57.30051869
 C     78.96376724    -72.09102234    -56.79716061
 C     78.24294231    -71.15374430    -55.81048878
 C     78.69720526    -69.68477738    -55.89640362
 C     78.05801462    -68.76846074    -54.83649837
 C     78.24200455    -67.26509618    -55.11514280
 C     77.23535518    -66.36340184    -54.37676326
 C     77.52836626    -64.85741449    -54.50997963
 C     76.48711251    -63.95362355    -53.82401127
 C     76.80652781    -62.44981938    -53.91427139
 C     75.66388722    -61.53673990    -53.43233950
 C     74.96971141    -60.75293208    -54.56166021
 C     73.89406349    -59.76657506    -54.07004921
 C     73.52066851    -58.68309316    -55.09875867
 C     72.62965464    -57.56202386    -54.53228017
 C     71.88727321    -56.74792663    -55.60825207
 C     71.28267088    -55.42970820    -55.09022099
 C     70.48572988    -54.64689498    -56.15026274
 C     70.02484022    -53.25323018    -55.68455988
 C     69.17155341    -52.49728555    -56.71995803
 C     69.07782837    -50.98103955    -56.46734433
 C     68.18086421    -50.23306167    -57.47112937
 C     66.67659442    -50.32060440    -57.15315349
 C     65.78453176    -49.51860733    -58.11887856
 C     64.34844006    -49.29834960    -57.60826406
 C     63.51763331    -48.33183323    -58.47267499
 C     62.09553173    -48.07865732    -57.93870022
 C     61.32029117    -46.99487651    -58.71072433
 C     59.98377463    -46.59585811    -58.05795496
 C     59.25790337    -45.44079253    -58.77247186
 C     57.88145211    -45.09931842    -58.17215747
 C     57.06955757    -44.08773819    -59.00229764
 C     55.87085267    -43.47952161    -58.25077973
 C     55.10050990    -42.41669424    -59.05611817
 C     53.66859601    -42.16294758    -58.54932901
 C     53.03896905    -40.86040310    -59.07710526
 C     51.68003365    -40.51801720    -58.43861762
 C     50.84133379    -39.51410781    -59.25123591
 C     49.45585842    -39.22094265    -58.64616384
 C     48.43807018    -38.65769090    -59.65534893
 C     47.12929109    -38.16058430    -59.01380209
 C     46.46088132    -36.99961252    -59.77338940
 C     45.26241037    -36.37543637    -59.03469358
 C     44.45195483    -35.37968614    -59.88513070
 C     43.47200773    -34.51384563    -59.07172803
 C     42.74178601    -33.44387101    -59.90451285
 C     42.01972393    -32.37768938    -59.05983358
 C     41.87795031    -31.01374229    -59.76065351
 C     40.95234017    -30.02566177    -59.02679878
 C     40.61770659    -28.76025473    -59.83819596
 C     40.18816463    -27.55870221    -58.97600964
 C     39.63586224    -26.37157970    -59.78675141
 C     39.32771788    -25.12340052    -58.93899214
 C     39.13460415    -23.83767524    -59.76435121
 C     38.79807668    -22.59525678    -58.91892491
 C     38.92234402    -21.26455867    -59.68403939
 C     38.59939141    -20.02118023    -58.83473870
 C     38.47486356    -18.72073331    -59.65017148
 C     38.23302937    -17.46453128    -58.79280770
 C     38.28014476    -16.14576033    -59.58667376
 C     37.94657608    -14.89774313    -58.74835103
 C     37.84877756    -13.59898186    -59.57008980
 C     37.40323544    -12.37243166    -58.75236930
 C     37.19170467    -11.10097034    -59.59512718
 C     36.56829818     -9.92878317    -58.81478008
 C     36.09232296     -8.76609724    -59.70540290
 C     35.76810848     -7.47546308    -58.93032326
 C     34.93558758     -6.45660338    -59.73059437
 C     34.72122989     -5.11519210    -59.00515205
 C     34.00082122     -5.24399796    -57.65015375
 C     33.12044631     -4.03252541    -57.29116313
 C     32.77640380     -3.93007663    -55.79358542
 C     31.98871396     -2.66142016    -55.41721395
 C     31.53453380     -2.61944088    -53.94631011
 C     30.83551087     -1.30759218    -53.54379310
 C     30.56567335     -1.17961588    -52.03302846
 C     30.11845699      0.22696359    -51.59356092
 C     30.06523547      0.41871183    -50.06647216
 C     29.51549120      1.78812300    -49.62591085
 C     28.97365897      1.81130513    -48.18456411
 C     27.91675906      2.90210634    -47.93017209
 C     27.62440561      3.15552543    -46.43956543
 C     26.27919784      3.85717862    -46.17556005
 C     25.86368854      3.87744056    -44.69281210
 C     24.34039777      3.91451651    -44.46962925
 C     23.92727271      4.09211608    -42.99674566
 C     22.42166157      4.34485209    -42.79460807
 C     21.99625458      4.44631646    -41.31801271
 C     20.50455789      4.77186598    -41.11686976
 C     20.08563276      4.90334885    -39.64078914
 C     18.67432329      5.48591117    -39.43972516
 C     18.22545516      5.54629956    -37.96783160
 C     16.90807456      6.31229117    -37.74564878
 C     16.35254100      6.20081093    -36.31367300
 C     15.33322831      7.29647583    -35.95018976
 C     14.72363299      7.14335266    -34.54429259
 C     14.51183749      8.47742622    -33.80470460
 C     14.10696049      8.31729132    -32.32753453
 C     13.71724424      9.63807697    -31.63815328
 C     13.66849024      9.55189050    -30.10134003
 C     12.69915718      8.48246014    -29.56439299
 C     12.54906452      8.48604395    -28.03172885
 C     11.62977486      7.37572692    -27.48978549
 C     11.36345847      7.46646811    -25.97570438
 C     10.43355694      6.36388011    -25.43609078
 C     10.16712268      6.45470802    -23.92203560
 C      9.61063720      5.15806754    -23.30506933
 C      9.53836392      5.17704836    -21.76688329
 C      8.99178779      3.87644389    -21.14940251
 C      9.42132206      3.64795660    -19.68827491
 C      9.47984303      2.16499059    -19.27719446
 C      9.38439425      1.93190149    -17.75793181
 C      9.64588741      0.47585567    -17.32996934
 C      9.07629422      0.11826499    -15.94458401
 C      8.93011007     -1.39498281    -15.69900048
 C      8.20977198     -1.74957249    -14.38485467
 C      7.49706190     -3.11449840    -14.40978662
 C      6.87330705     -3.52014433    -13.06146127
 C      6.49312380     -5.00967598    -12.97004934
 C      5.84039180     -5.40864862    -11.63350089
 C      5.21969038     -6.81801914    -11.63562227
 C      4.25730235     -7.08037029    -10.46234432
 C      3.71845677     -8.52186261    -10.40450558
 C      2.62162198     -8.73853906     -9.34544715
 C      2.41443553    -10.21262076     -8.95078665
 C      1.30699652    -10.43086396     -7.90314704
 C      1.03810662    -11.91128241     -7.57503210
 C      0.01053795    -12.12651737     -6.44836599
 C     -0.70905406    -13.48673408     -6.50834805
 C     -1.52948298    -13.81745790     -5.24774576
 C     -2.37977596    -15.09548524     -5.37122833
 C     -3.27016817    -15.37619689     -4.14648236
 C     -3.80553334    -16.81855134     -4.07867568
 C     -4.18100299    -17.28120715     -2.65861507
 C     -4.35864567    -18.80487875     -2.52271828
 C     -5.11048872    -19.23679638     -1.25001282
 C     -4.85073140    -20.69662815     -0.83405932
 C     -5.72379175    -21.17835729      0.33952607
 C     -5.35493014    -22.57978674      0.86061782
 C     -6.26969763    -23.08891551      1.99003729
 C     -5.88785915    -24.48134870      2.52569501
 C     -6.90298116    -25.06847479      3.52389851
 C     -6.54016796    -26.47660885      4.03097352
 C     -7.30585170    -26.90291204      5.29730443
 C     -6.71672923    -28.14102556      5.99845321
 C     -7.29271702    -28.39865063      7.40325477
 C     -6.69961955    -29.63360984      8.10661181
 C     -7.50227680    -30.10046417      9.33518350
 C     -6.73526390    -31.07069221     10.25276115
 C     -7.46497193    -31.39687932     11.56909248
 C     -6.65596533    -32.28840520     12.52945175
 C     -7.45369618    -32.77615204     13.75310550
 C     -6.60356609    -33.52210912     14.79829775
 C     -7.42771539    -34.19169978     15.91365701
 C     -6.63924959    -34.43769716     17.21342891
 C     -7.51168790    -34.88957708     18.39928553
 C     -6.76897697    -34.91869848     19.74803771
 C     -7.63371717    -35.39719858     20.92908049
 C     -6.93691330    -35.29252735     22.29842642
 C     -7.89153748    -35.42930429     23.49908655
 C     -9.06848022    -34.43631106     23.47984480
 C     -9.57421367    -34.03720259     24.87861072
 C    -10.24369610    -32.65131816     24.93074149
 C    -10.75691652    -32.25576177     26.32778836
 C    -11.78189509    -31.10646321     26.31631007
 C    -12.13721293    -30.57006359     27.71546149
 C    -13.03950528    -29.32220915     27.69735581
 C    -13.72490591    -29.02524499     29.04406969
 C    -14.88109866    -28.01247630     28.94858198
 C    -14.42505937    -26.54176208     28.92352510
 C    -15.55965846    -25.53883329     28.64349164
 C    -15.07683408    -24.09420680     28.41647861
 C    -16.19971471    -23.11071281     28.03769286
 C    -15.69539775    -21.78580344     27.43612860
 C    -16.78468914    -20.70607514     27.29745246
 C    -16.30500290    -19.41793966     26.60304041
 C    -17.34417000    -18.28139669     26.60438045
 C    -16.82272061    -16.95520654     26.02050527
 C    -17.92067560    -15.90295722     25.77788166
 C    -17.39793324    -14.57333601     25.20303572
 C    -18.50466203    -13.63879470     24.68017443
 C    -17.97685885    -12.39457508     23.94197300
 C    -19.03933761    -11.67248995     23.09266036
 C    -18.46200558    -10.61401791     22.13457652
 C    -19.48204738    -10.06463913     21.12003343
 C    -18.99327383     -8.82400189     20.34963115
 C    -20.11144215     -8.06355428     19.61273289
 C    -19.59891019     -7.02895962     18.59365248
 C    -20.64896649     -5.97938430     18.18453952
 C    -20.06345636     -4.76414374     17.44159384
 C    -21.10117765     -3.96650264     16.63011173
 C    -20.49241001     -2.85393009     15.75650754
 C    -21.51490211     -2.13175721     14.85952581
 C    -20.87877699     -1.25226943     13.76707623
 C    -21.88634245     -0.36758139     13.00962067
 C    -21.23601917      0.61142379     12.01451842
 C    -22.24207846      1.51071862     11.27241768
 C    -21.59454384      2.46744740     10.25410096
 C    -22.58288371      3.45464675      9.60585582
 C    -21.90644261      4.58775407      8.81207043
 C    -22.86251372      5.72401817      8.40410972
 C    -22.15092107      6.97475854      7.85558041
 C    -21.59328841      6.80366860      6.43031761
 C    -20.77286990      8.00709761      5.93004561
 C    -20.26117521      7.85914149      4.48509664
 C    -18.73082301      7.96411832      4.34870740
 C    -18.22787255      7.93036419      2.89354366
 C    -16.74436024      8.31182557      2.73455172
 C    -16.23399236      8.25067544      1.28286811
 C    -14.78851996      8.75141717      1.10547797
 C    -13.71528698      7.71034621      1.47418142
 C    -12.30557620      8.05441021      0.95849208
 C    -11.26088940      6.95063920      1.20732744
 C     -9.81807084      7.36471971      0.86321711
 C     -8.77561813      6.25533341      1.09592807
 C     -7.36379011      6.60655191      0.59096550
 C     -6.26278960      5.65690251      1.09847303
 C     -4.86007493      5.97260058      0.54681528
 C     -3.73025086      5.15977324      1.20591262
 C     -2.32970510      5.46198700      0.64134339
 C     -1.18214139      4.79581623      1.42295328
 C      0.19712541      4.93744130      0.75275522
 C      1.35029087      4.30348972      1.55270199
 C      2.57644465      3.93333195      0.69764052
 C      3.74467507      3.33553279      1.50353992
 C      5.03156586      3.13046480      0.68289431
 C      6.22772602      2.62359799      1.50986885
 C      7.49926694      2.36700210      0.67984340
 C      8.74948760      2.06424655      1.52653542
 C     10.05059615      1.96411998      0.70880002
 C     11.31944864      1.80719924      1.56728080
 C     12.58548125      1.46978331      0.75801452
 C     13.85829638      1.33339526      1.61413364
 C     15.15709261      1.22894042      0.79326975
 C     16.43173753      1.11300869      1.64968096
 C     17.73826861      1.13819684      0.83485454
 C     19.00704505      0.91453348      1.67852572
 C     20.31281942      0.92993928      0.86224393
 C     21.47858134      0.17817426      1.53115984
 C     22.70934966     -0.00394011      0.62361165
 C     23.81738274     -0.87872695      1.23892513
 C     25.15589484     -0.82009917      0.47961745
 C     25.82512403     -2.19307034      0.28293894
 C     26.90086132     -2.21346446     -0.81886566
 C     27.84634132     -3.42703585     -0.74877956
 C     28.70999754     -3.62179983     -2.00884500
 C     29.55345921     -4.91022321     -1.99711324
 C     30.06202882     -5.33861774     -3.38615431
 C     30.25760549     -6.85835149     -3.54029420
 C     31.39352109     -7.24916055     -4.50391446
 C     31.86797171     -8.70662196     -4.35457312
 C     33.35579720     -8.91858576     -4.69079720
 C     33.82933807    -10.37670823     -4.54506482
 C     35.01015642    -10.74640548     -5.46190285
 C     35.72849253    -12.04906854     -5.06357863
 C     36.87873753    -12.44414363     -6.00827547
 C     37.21519936    -13.94684249     -5.99125858
 C     38.25913356    -14.36692883     -7.04260478
 C     38.50374101    -15.88587055     -7.11030454
 C     39.41154090    -16.32282666     -8.27502284
 C     39.14067469    -17.75302318     -8.77778461
 C     40.19923576    -18.28142007     -9.76360670
 C     40.23448888    -19.81650033     -9.88144481
 C     41.31578174    -20.34635498    -10.84147595
 C     40.98026433    -21.71124268    -11.47084836
 C     41.83086629    -22.05697673    -12.70719146
 C     41.51888159    -23.43657915    -13.31625854
 C     42.11419811    -23.65053313    -14.72033188
 C     41.32869795    -24.65152587    -15.58785884
 C     41.87715472    -24.80558342    -17.01861439
 C     40.97931931    -25.64480533    -17.94662202
 C     41.39073528    -25.59429402    -19.42978940
 C     40.66229679    -26.62070051    -20.31718283
 C     41.36734587    -26.90252475    -21.65698912
 C     40.68793551    -27.99385673    -22.50492548
 C     41.34771880    -28.22195699    -23.87760763
 C     40.47203801    -29.00869328    -24.87049693
 C     41.23608257    -29.53276712    -26.10061177
 C     40.32546978    -30.00105178    -27.25086992
 C     41.06833472    -30.75067689    -28.37239294
 C     40.33861365    -30.73187850    -29.72839950
 C     41.17880036    -31.27445189    -30.89942486
 C     40.34348364    -31.74325320    -32.10527365
 C     41.18550861    -32.23063774    -33.29902834
 C     40.35014510    -32.73609414    -34.48994464
 C     41.19199809    -33.26724349    -35.66500376
 C     40.36150556    -33.67907587    -36.89475017
 C     41.12516967    -34.56194959    -37.89921577
 C     40.30693788    -34.94251867    -39.14711957
 C     41.05857663    -35.85398421    -40.13498077
 C     40.47111487    -35.85388316    -41.55852869
 C     41.05270178    -36.94529837    -42.47622662
 C     42.56813753    -36.81772714    -42.71867265
 C     43.14538192    -37.89473054    -43.65593067
 C     44.62293414    -37.67344810    -44.02939222
 C     45.21481200    -38.77769208    -44.92489533
 C     46.74266472    -38.69202132    -45.09788840
 C     47.23771282    -39.09253163    -46.50007201
 C     48.67236877    -38.62898753    -46.81390188
 C     49.18991190    -39.08253912    -48.19159563
 C     50.69735242    -38.84857187    -48.40250415
 C     51.09690441    -38.62552136    -49.87294853
 C     50.43450849    -37.39631969    -50.52248290
 C     50.40191760    -37.44235224    -52.06144971
 C     49.36114805    -36.50012687    -52.69438738
 C     49.54490358    -36.29082027    -54.20899117
 C     48.67116382    -35.16701980    -54.79657208
 C     49.05656662    -34.75880379    -56.23059592
 C     48.12243851    -33.70531085    -56.85442065
 C     48.73047153    -32.96424237    -58.05970624
 C     47.69066787    -32.48302868    -59.08870659
 C     48.26317848    -31.54110814    -60.16416803
 C     47.20987523    -30.63476042    -60.82800994
 C     46.60658867    -29.57923421    -59.88275349
 C     45.91264597    -28.41179560    -60.60879111
 C     45.64365774    -27.18833688    -59.71302658
 C     44.79584392    -26.09322588    -60.38648305
 C     44.74856201    -24.76773176    -59.60390414
 C     43.72155040    -23.75643187    -60.14623219
 H     -0.36333333      0.00000000      1.02766186
 H     -0.36333333     -0.88998127     -0.51383093
 H     -0.36333333      0.88998127     -0.51383093
 H      1.88274777     -0.57964552      0.85710853
 H      1.88274777     -0.66866213     -0.78962961
 H      1.62962592     -2.06680138     -0.57936375
 H      2.05048553     -1.75916298      1.12254766
 H      3.92501574     -0.64812017      1.07454693
 H      4.16954370     -1.12037519     -0.62411370
 H      3.92147070     -3.32833329     -0.59203690
 H      4.98153820     -2.90609362      1.13220462
 H      6.12056602     -2.10205023      1.24333858
 H      6.21542608     -1.74672762      0.33945099
 H      6.07820631     -1.02589369     -0.80195776
 H      7.60635690     -2.39042623     -0.78022470
 H      8.50474421     -2.31081665      0.29810057
 H      8.65019930     -1.47453962     -1.11664728
 H      8.97235872     -2.74269897     -1.69409118
 H      9.12335701     -3.32162861     -0.01769425
 H     10.44813447     -1.73987677      0.89899272
 H     10.87845391     -1.16953911     -0.73128542
 H     11.54073231     -3.15068112     -1.68189164
 H     11.62616379     -3.87815636     -0.05962535
 H     13.10974941     -1.98200036      0.66372229
 H     13.28423878     -1.58350861     -1.06226278
 H     14.86341152     -2.69171517     -1.52321004
 H     14.31815455     -4.14097762     -0.19298579
 H     15.68523123     -2.29353482      0.37448837
 H     15.79308179     -1.89314562     -1.35650078
 H     16.39156158     -3.57983775     -2.44510670
 H     16.94577509     -4.37294859     -0.95108888
 H     18.27445144     -2.13560842     -0.61970456
 H     17.85988793     -1.80444547     -2.31874396
 H     18.80160589     -3.89831383     -3.10589798
 H     19.59909455     -4.06497143     -1.52333558
 H     20.65004353     -2.49461712     -0.91908231
 H     20.68958834     -1.84525868     -2.57589748
 H     21.40102767     -3.58173740     -3.78300382
 H     22.49945705     -3.72777669     -2.04295402
 H     23.20749595     -2.76361364     -1.34528858
 H     23.22974138     -1.89935731     -2.90119115
 H     24.07802997     -4.18534374     -3.83979765
 H     23.85728624     -4.73498973     -3.21751541
 H     23.20187655     -5.56286541     -2.23987806
 H     24.52534030     -5.10201315     -1.14246037
 H     26.29107910     -5.59335145     -2.64035775
 H     25.13031289     -6.48573964     -3.65254932
 H     24.25107015     -7.89069313     -2.03451584
 H     25.61178462     -7.47094885     -0.96655633
 H     27.38381030     -7.89110806     -2.31602789
 H     26.31735182     -8.80088545     -3.41294997
 H     25.34741623    -10.24232407     -1.90939830
 H     27.29841236    -10.09326063     -1.25613003
 H     28.38088850    -10.16744055     -2.48734227
 H     27.44784602    -11.10215535     -3.19068425
 H     28.64257868    -10.23746847     -0.38272412
 H     29.27182620     -9.52891502     -1.88946438
 H     30.05149786    -11.55737217     -2.82760221
 H     29.87899338    -12.31705761     -1.22716887
 H     31.02296528    -10.93745390      0.10752309
 H     31.78261106    -10.19352278     -1.31998223
 H     32.57794140    -12.01117511     -2.40815083
 H     32.34701247    -12.98112937     -0.93365864
 H     33.73542200    -11.16265679      0.25086127
 H     34.16064364    -10.59420488     -1.38141188
 H     34.97510063    -12.62817511     -2.21270005
 H     35.03537620    -13.24766634     -0.54510774
 H     36.21182919    -11.67005825      0.52376202
 H     36.74808312    -11.01656931     -1.04265127
 H     37.55814920    -12.93981826     -2.00847225
 H     37.53855656    -13.72554073     -0.41143656
 H     38.80135290    -12.02566331      0.68967483
 H     39.25050773    -11.38808072     -0.91032987
 H     39.72664125    -12.67160224     -2.32388275
 H     40.41484006    -13.38472267     -1.47555192
 H     39.44682929    -10.58127871     -2.39273099
 H     39.16595304    -12.10302562     -3.27231130
 H     40.96170482    -12.97418582     -3.84120343
 H     41.82068355    -11.44038509     -3.56213800
 H     40.42286648    -10.06366577     -4.83953941
 H     39.71752300    -11.52095362     -5.57918078
 H     41.67139660    -12.54983158     -6.27730810
 H     42.53999719    -11.01732561     -6.02191602
 H     41.64784590     -9.43246424     -6.93146473
 H     40.69445290    -10.52612204     -7.96259086
 H     42.45486770    -12.00604527     -8.56162909
 H     43.34647011    -10.97635402     -8.51333399
 H     40.57348424    -12.16424866     -9.15799968
 H     41.99396525    -13.06631903     -8.57768132
 H     43.40706887    -12.68154031    -10.38123618
 H     42.00391905    -12.13178056    -11.32844338
 H     40.84379956    -14.29418692    -10.75943120
 H     42.42772825    -14.88699859    -10.20444391
 H     43.73219188    -14.50556577    -11.99737703
 H     42.27737913    -14.28176662    -12.99822690
 H     41.09680772    -16.13924491    -12.55765687
 H     43.04134587    -16.81929281    -12.57896703
 H     44.04589558    -16.57344473    -13.54667814
 H     42.69648783    -16.20102928    -14.64607441
 H     41.28602267    -17.83485960    -14.45433031
 H     42.53210005    -18.83017259    -13.66381790
 H     44.13323424    -18.44409707    -15.47335611
 H     42.78015404    -17.81927533    -16.44651510
 H     41.32012781    -19.61884953    -16.20070362
 H     42.65669179    -20.59876336    -15.65679063
 H     41.75595712    -18.62268588    -17.98804127
 H     40.45362952    -19.04070371    -16.84897561
 H     40.76985673    -21.46437671    -17.52578263
 H     41.74157667    -20.85085928    -18.88505573
 H     40.06401013    -19.36850022    -19.71031896
 H     38.87983800    -20.21049844    -18.68219347
 H     39.48919291    -22.39522859    -19.61633940
 H     40.34403939    -21.52474562    -20.91239633
 H     38.69431801    -20.14348449    -21.65916308
 H     37.49509049    -21.12941100    -20.78849152
 H     38.13841488    -23.20990925    -21.70464402
 H     39.06505413    -22.33286269    -22.94577081
 H     37.07223136    -21.00244601    -23.55841300
 H     36.10293051    -22.16769045    -22.62517781
 H     36.84772727    -24.11731387    -23.67641807
 H     37.53130238    -23.11623721    -24.97981258
 H     35.07895398    -22.15275194    -25.06413573
 H     34.65779352    -23.54112530    -24.03296653
 H     35.87943209    -24.61724217    -26.29652153
 H     35.66913147    -22.95926626    -26.90902150
 H     33.31493911    -22.87652594    -26.54410097
 H     33.33194721    -24.64354449    -26.33050592
 H     34.79221420    -23.95071568    -28.71734806
 H     34.00695308    -22.92501300    -28.75432874
 H     34.37663926    -25.96478768    -28.30917298
 H     35.63599375    -24.83427222    -28.86074140
 H     35.62661463    -23.80520810    -30.28795775
 H     34.38234922    -24.83142042    -31.04092424
 H     35.83225540    -26.83666817    -30.52960866
 H     37.14113316    -25.67942866    -30.18916428
 H     36.69947433    -24.73422496    -32.53023519
 H     35.72958766    -26.19951689    -32.81397109
 H     36.18079842    -27.87643135    -32.52304901
 H     37.90486408    -27.43432648    -32.54323725
 H     38.00254594    -26.23736312    -34.48708705
 H     36.41659342    -26.89724451    -34.95353942
 H     37.33132122    -29.21260071    -34.55402855
 H     38.94524275    -28.46307627    -34.51235074
 H     39.27335463    -27.30210032    -36.19713224
 H     37.91728399    -28.09373232    -37.03537914
 H     37.90387100    -30.06797692    -37.00135777
 H     39.62538653    -30.10260180    -36.55030115
 H     40.58626061    -28.77683445    -38.05051145
 H     39.12461527    -28.86491496    -39.06249040
 H     38.52450679    -30.80471352    -39.38090212
 H     40.11824310    -31.40862097    -38.86751431
 H     41.65849747    -30.45369051    -39.82024353
 H     40.29922903    -30.33823808    -41.29538235
 H     39.35481093    -31.23395586    -41.88075119
 H     40.40959150    -32.53271960    -41.27336552
 H     42.42118517    -32.03656944    -41.85977282
 H     41.79933174    -30.85176830    -43.03357486
 H     40.29912764    -32.36868282    -44.10597951
 H     41.14675741    -33.70706885    -43.29449120
 H     43.32281039    -33.10239075    -44.03000548
 H     42.57119588    -32.01249306    -45.21973878
 H     41.17616065    -33.84892946    -46.10168199
 H     42.22749355    -34.97460363    -45.20959261
 H     44.25386228    -34.53633568    -45.77371886
 H     43.67557915    -33.61326107    -47.18147898
 H     42.30081088    -35.66482984    -47.80762004
 H     43.27539332    -36.55013489    -46.60983428
 H     45.37749371    -36.08842113    -47.29872129
 H     44.73091203    -35.51944574    -48.85643301
 H     43.44557657    -37.22727927    -49.51475417
 H     44.22900332    -38.27555686    -48.30826203
 H     46.46175676    -37.58428537    -49.27538961
 H     45.54756716    -36.91969504    -50.65046915
 H     44.44012463    -39.12729057    -50.98549147
 H     45.66913792    -39.81379661    -49.89622453
 H     47.51313141    -38.91645148    -51.21385963
 H     46.34282601    -38.59759146    -52.51654157
 H     45.30100775    -40.46236723    -52.87223987
 H     46.56092955    -41.34768810    -51.97945171
 H     48.45638407    -40.79179369    -52.75951877
 H     47.67872771    -40.11035158    -54.20836449
 H     46.38303529    -41.94243799    -54.80259109
 H     47.34935894    -42.95030352    -53.69864710
 H     49.45492937    -42.25686353    -54.70811791
 H     48.51302553    -41.59496468    -56.06567959
 H     47.20523049    -42.93704006    -56.85801783
 H     48.06655576    -44.28162679    -56.07158794
 H     50.17686751    -43.98779614    -56.62273230
 H     49.68695106    -42.85671697    -57.90683060
 H     48.12351725    -44.77648991    -58.67983606
 H     49.05964557    -45.81090515    -57.57443316
 H     51.18660087    -45.33145260    -58.44253115
 H     50.40442254    -44.62196832    -59.87539394
 H     49.03027293    -45.84850844    -60.72968594
 H     49.70076353    -47.25000266    -59.86105312
 H     51.90174952    -47.07939660    -60.35578273
 H     51.50835781    -45.93498069    -61.66108801
 H     49.89179466    -47.38105532    -62.69881299
 H     50.52970022    -48.71671886    -61.71020484
 H     52.82316682    -48.30945125    -62.47138716
 H     52.14166310    -47.27958941    -63.75326232
 H     50.64503884    -48.99387928    -64.56440964
 H     52.42843816    -49.94658236    -64.12504429
 H     53.69596344    -49.62552204    -64.49039546
 H     52.87988017    -48.73532955    -65.79800093
 H     51.45772496    -49.81773421    -66.74971644
 H     52.12538845    -51.32909292    -66.08768398
 H     54.09961446    -51.54860055    -66.31646521
 H     54.12421729    -50.28737599    -67.57224147
 H     52.17569514    -51.90256847    -68.51314755
 H     52.77694882    -53.03976837    -67.28288861
 H     55.05107164    -52.60395130    -68.61677714
 H     53.99550573    -51.84823589    -69.83453799
 H     52.56921553    -53.73116371    -70.11629739
 H     53.77919937    -54.71984613    -69.26382284
 H     55.60895273    -54.09357496    -70.65901523
 H     54.43551811    -53.43469891    -71.82400459
 H     52.97091509    -54.75671755    -72.31654336
 H     53.93912736    -56.10806118    -71.68038138
 H     55.88427639    -56.00466598    -72.51177458
 H     55.30526710    -54.88876544    -73.77184636
 H     53.49469450    -56.68582700    -74.21767916
 H     54.49023273    -57.75838734    -73.20437536
 H     56.49040912    -57.41785227    -74.51287291
 H     55.47037374    -56.69989134    -75.78264714
 H     53.96713376    -58.54654353    -75.93487482
 H     55.13920008    -59.51711157    -75.01155208
 H     56.92081704    -59.63368817    -75.41752284
 H     56.60784582    -59.06573526    -77.07515524
 H     54.99689728    -60.25746328    -77.85854921
 H     55.23119267    -61.45047440    -76.55851198
 H     57.66203907    -61.58220682    -77.15672506
 H     57.24606382    -60.72194259    -78.65844965
 H     55.70253463    -61.65419823    -79.66315099
 H     55.94806983    -63.13882975    -78.71244159
 H     58.08746388    -63.57600722    -78.87364563
 H     58.21876279    -62.45216437    -80.24769240
 H     56.63639068    -63.07594128    -81.63767648
 H     56.48102019    -64.62349037    -80.77210239
 H     58.34426379    -65.52751997    -80.54861937
 H     59.03244402    -64.47032874    -81.80441446
 H     57.83028353    -64.51147835    -83.51661339
 H     57.02452023    -65.99047913    -82.94079324
 H     58.11106373    -67.46262819    -82.33579262
 H     59.53427809    -66.79728732    -83.17248199
 H     59.37733641    -66.23872436    -84.99702511
 H     57.88516139    -67.18921650    -85.19258857
 H     59.48456144    -69.08237568    -84.18485741
 H     60.78919129    -67.91749041    -84.51538717
 H     60.06119799    -67.79652245    -86.90287479
 H     59.07618376    -69.24456922    -86.58479593
 H     60.97648435    -70.50261165    -85.72611089
 H     62.03674048    -69.25177576    -86.41859423
 H     61.55147827    -68.97089897    -88.44943559
 H     60.66129986    -70.51214699    -88.46952608
 H     61.62043939    -72.07838466    -87.73526366
 H     63.17901737    -71.23126633    -87.88186477
 H     63.31059924    -70.45300879    -89.87129217
 H     61.98509989    -71.52095650    -90.39168226
 H     62.97675756    -73.52265713    -89.53434682
 H     64.08848967    -72.95941018    -88.99610695
 H     65.15370384    -72.09942440    -88.59140767
 H     65.56794534    -72.01735314    -90.32055050
 H     65.59554333    -74.08106013    -91.01946691
 H     65.65476304    -74.65770871    -89.33654204
 H     67.13011928    -73.74052083    -88.25063043
 H     67.92289349    -73.18830348    -89.74556579
 H     67.96841960    -75.35752699    -90.76464403
 H     67.58698811    -76.05803983    -89.17339972
 H     68.99722052    -75.01243667    -87.77225574
 H     69.99045688    -74.88007935    -88.84125187
 H     67.81783602    -76.69634290    -87.44897248
 H     68.30527389    -75.12289660    -86.77448177
 H     70.57903783    -75.71496724    -86.40396687
 H     70.12743759    -77.42054967    -86.63915289
 H     68.37271267    -77.41993728    -85.02720766
 H     69.00585983    -75.87703480    -84.40524040
 H     71.24273934    -77.28554882    -84.24499968
 H     70.19181096    -78.69516578    -84.52212104
 H     68.71732507    -78.21237064    -82.69525310
 H     69.92889630    -77.05869064    -82.08748317
 H     71.41662594    -79.30745633    -82.32324667
 H     69.83907723    -80.10577252    -82.52891149
 H     68.51634479    -79.71815986    -81.06684681
 H     69.82011687    -79.14365987    -79.99989096
 H     71.38078696    -80.47159531    -79.89946797
 H     70.35664064    -81.76508807    -80.56750052
 H     68.56754341    -81.50229304    -79.04355345
 H     69.63684094    -80.51392628    -78.01983444
 H     70.81630691    -83.07317368    -78.61213532
 H     69.16171208    -83.36391463    -79.20039744
 H     68.53151105    -82.70311820    -76.72681746
 H     70.27092932    -82.88260596    -76.39443984
 H     70.22648696    -85.19335488    -77.30837528
 H     68.45064805    -85.10347166    -77.22723434
 H     68.76719139    -84.48562177    -74.75396671
 H     70.45382401    -85.01640503    -74.95843236
 H     69.76895247    -87.20731291    -75.80536396
 H     68.12911999    -86.84868394    -75.21324797
 H     68.97992714    -86.36105562    -72.95338651
 H     70.51322723    -87.11833772    -73.44712866
 H     69.42700854    -89.17078970    -74.16341023
 H     67.96759762    -88.62675506    -73.30177647
 H     69.97437019    -88.52499714    -71.40114365
 H     70.88162182    -89.43685412    -72.63145987
 H     70.49592253    -90.82778183    -73.52774564
 H     69.28460537    -91.28434291    -72.30605444
 H     70.60334448    -91.07531725    -70.40895770
 H     72.04743562    -91.03756953    -71.44888202
 H     71.66001031    -92.96660896    -72.67030161
 H     70.43203127    -93.44703214    -71.47467302
 H     71.94736205    -93.18732881    -69.59818937
 H     73.28838139    -93.12424074    -70.76692958
 H     73.16275096    -94.80654355    -72.04474390
 H     72.05147620    -95.60845679    -70.90884328
 H     73.05205884    -95.50002769    -68.96125006
 H     74.58680876    -95.09586060    -69.76713983
 H     75.18504995    -96.18431275    -71.23393275
 H     74.09216708    -97.50100669    -70.74384012
 H     75.33361288    -97.05790740    -68.41249076
 H     75.70470802    -96.22842186    -68.57544660
 H     75.90150691    -94.88555009    -68.77127423
 H     77.24186930    -95.42234073    -69.81221185
 H     77.56739239    -96.77774056    -67.39879534
 H     76.33319225    -95.61791141    -66.85124348
 H     77.01327018    -93.65395377    -67.28104004
 H     78.67087952    -94.26028157    -67.51118029
 H     78.55064686    -95.38501476    -65.27973203
 H     77.09454455    -94.41057595    -64.96588220
 H     78.61766674    -92.40688010    -65.80326943
 H     79.69692491    -93.10510101    -65.34054513
 H     76.77986955    -92.11067881    -65.07398345
 H     77.92050829    -91.65640098    -66.36271989
 H     79.56733826    -90.72308689    -65.76179117
 H     78.81358944    -90.33679001    -64.19625481
 H     77.12227786    -89.61393846    -64.03865642
 H     77.16579535    -89.07074729    -65.73315229
 H     79.17431608    -87.99074394    -65.77761300
 H     79.19498242    -87.98890582    -63.99777138
 H     77.13337877    -87.06264969    -63.58364451
 H     77.05009037    -86.53816274    -65.28253920
 H     79.24883108    -85.42085064    -65.09162660
 H     79.09865765    -85.59772226    -63.32685154
 H     76.97526550    -84.56337416    -63.14333059
 H     77.18329642    -83.93638700    -64.79616964
 H     79.38996565    -82.95434195    -64.09561765
 H     78.88851291    -83.26498445    -62.41623888
 H     76.85341618    -82.18473480    -62.42152018
 H     77.31308179    -81.37252479    -63.93720124
 H     79.34550515    -80.49686286    -63.29985102
 H     78.92436422    -80.81330233    -61.59962367
 H     77.17827673    -80.16060990    -60.98345984
 H     77.06428317    -79.05766068    -62.37585890
 H     79.31451416    -78.14427373    -61.87851184
 H     79.20195259    -78.94521951    -60.29292602
 H     77.16877983    -78.05819919    -59.60221344
 H     77.29153207    -76.84099069    -60.89511793
 H     79.37260511    -75.99658085    -60.47081418
 H     79.34062635    -76.76897844    -58.86749076
 H     77.31699365    -75.94073565    -58.10841618
 H     77.34432793    -74.73935108    -59.42150210
 H     79.31893763    -73.77129274    -59.23422300
 H     79.49812090    -74.44978226    -57.59843206
 H     77.67314805    -73.90942167    -56.53456669
 H     77.29319792    -72.70176882    -57.78575779
 H     79.44010137    -71.62222083    -57.65822446
 H     79.72873277    -72.49432117    -56.13362628
 H     77.69812873    -71.76604294    -55.09190091
 H     77.53888998    -70.54025218    -56.37266111
 H     78.76415282    -69.40769029    -56.94846862
 H     79.68169759    -69.60295921    -55.43577291
 H     78.08587629    -69.28362289    -53.87632563
 H     77.02173325    -68.58613758    -55.12106677
 H     78.04161144    -67.08523761    -56.17135940
 H     79.27490307    -66.99882935    -54.89081575
 H     77.15342243    -66.71241440    -53.34740557
 H     76.26746054    -66.45500469    -54.86960084
 H     77.77467841    -64.64690997    -55.55070927
 H     78.38377774    -64.61749576    -53.87846542
 H     76.26335231    -64.37215921    -52.84275734
 H     76.22948169    -63.14619805    -54.50942386
 H     77.12227696    -62.22706248    -54.93347786
 H     77.62211562    -62.23069422    -53.22514102
 H     75.26639931    -61.94623993    -52.50367751
 H     74.76386228    -61.78900789    -53.99306757
 H     74.79761410    -61.43343348    -55.39556690
 H     75.63395993    -59.94932522    -54.87960662
 H     74.29004437    -59.22904902    -53.20844321
 H     73.01624809    -60.33855807    -53.76942392
 H     73.40716530    -59.15957038    -56.07250734
 H     74.33257312    -57.95711277    -55.14192542
 H     73.02684266    -57.26615238    -53.56130039
 H     71.62099491    -57.95590494    -54.40752741
 H     71.47547957    -57.44262853    -56.34031441
 H     72.60578481    -56.08942891    -56.09633180
 H     72.02339960    -54.93708750    -54.46034337
 H     70.40059141    -55.66750661    -54.49567266
 H     69.85422368    -55.35034153    -56.69290706
 H     71.19309628    -54.18672683    -56.84017437
 H     70.85761311    -52.76975597    -55.17383295
 H     69.19636350    -53.38126713    -54.98790152
 H     68.44246077    -53.19236145    -57.13636338
 H     69.82967273    -52.14263906    -57.51318235
 H     70.07348973    -50.61250477    -56.22048288
 H     68.40918226    -50.81497662    -55.62269323
 H     67.38826072    -50.90887736    -57.79230355
 H     68.71412440    -50.15989051    -58.41895823
 H     66.54184942    -50.15321974    -56.08454404
 H     66.32947665    -51.32121927    -57.41079499
 H     66.12960469    -49.70192544    -59.13643403
 H     65.89111405    -48.45948898    -57.88433957
 H     64.39848657    -49.00926503    -56.55849005
 H     63.65822626    -49.50741325    -58.42557508
 H     63.68222790    -48.58164569    -59.52081732
 H     63.86535021    -47.31649035    -58.28222343
 H     62.15707864    -47.91831006    -56.86231705
 H     61.49120668    -48.96310088    -58.14032070
 H     61.47166036    -47.15950766    -59.77753451
 H     61.72358954    -46.02119397    -58.43252883
 H     60.14708488    -46.47860160    -56.98665637
 H     59.26536081    -47.39725970    -58.23039935
 H     59.29738337    -45.62331021    -59.84635669
 H     59.78099993    -44.51265143    -58.54220227
 H     57.97528493    -45.08427542    -57.08630798
 H     57.17703889    -45.87778759    -58.46522364
 H     57.14200641    -44.36978362    -60.05267925
 H     57.50627052    -43.09915291    -58.86059036
 H     56.19691254    -43.21047215    -57.24609204
 H     55.08674486    -44.23409852    -58.18842078
 H     54.96482145    -42.78808284    -60.07187363
 H     55.69744945    -41.50497885    -59.07931781
 H     53.69673198    -42.09618300    -57.46173954
 H     53.04558771    -43.00687745    -58.84554350
 H     53.25243718    -40.78398001    -60.14326231
 H     53.49752513    -40.02143437    -58.55369548
 H     51.75589912    -40.68029309    -57.36343812
 H     50.90208408    -40.66813432    -59.18718914
 H     50.88336267    -39.80323745    -60.30134905
 H     51.27952965    -38.52354462    -59.12929758
 H     49.57449974    -39.07601760    -57.57237570
 H     48.81329688    -40.08248571    -58.82770786
 H     48.51017661    -39.23818999    -60.57508882
 H     48.69728587    -37.61893903    -59.86004818
 H     47.38142416    -37.58118999    -58.12564042
 H     46.53758900    -39.02926586    -58.72504443
 H     46.48304772    -37.22920615    -60.83870411
 H     46.35229214    -36.15905207    -59.08799424
 H     45.53531059    -36.24514532    -57.98748313
 H     44.41924902    -37.06235080    -59.10768332
 H     44.30603270    -35.81332104    -60.87445749
 H     45.02648267    -34.45763881    -59.97371103
 H     43.98664208    -34.16159367    -58.17776491
 H     42.62468790    -35.13533215    -58.78206686
 H     42.40746149    -33.90287438    -60.83491224
 H     43.44669155    -32.64288961    -60.12730646
 H     42.68662330    -32.06863314    -58.25495503
 H     41.12185654    -32.82692789    -58.63542939
 H     41.56207491    -31.18807793    -60.78921066
 H     42.85173151    -30.52400632    -59.75767714
 H     41.18800102    -30.06067745    -57.96315511
 H     39.92102845    -30.34298200    -59.18108422
 H     40.38110871    -29.06027431    -60.85903370
 H     41.49572690    -28.11438204    -59.84356299
 H     40.86617705    -27.48729258    -58.12553928
 H     39.17433888    -27.73849608    -58.61833448
 H     38.95404828    -26.76062076    -60.54297676
 H     40.47223456    -25.87103060    -60.27463658
 H     40.15735269    -24.96341868    -58.25036169
 H     38.41584815    -25.31074561    -58.37198649
 H     38.50483948    -24.07257534    -60.62244119
 H     40.11215962    -23.50334818    -60.11178567
 H     39.45775105    -22.58211713    -58.05130918
 H     37.76298577    -22.67655044    -58.58714463
 H     38.46094178    -21.38814887    -60.66380132
 H     39.98131709    -21.03758542    -59.80716204
 H     39.08769353    -20.13122277    -57.86646617
 H     37.51960039    -19.97341272    -58.69377903
 H     37.88343765    -18.93034950    -60.54144947
 H     39.47532988    -18.40348906    -59.94431978
 H     38.90692870    -17.49885905    -57.93678124
 H     37.20068155    -17.48154588    -58.44342468
 H     37.71778224    -16.28153038    -60.51047833
 H     39.32096330    -15.92552684    -59.82393728
 H     38.47578067    -14.97153375    -57.79829974
 H     36.87207320    -14.88471276    -58.56566611
 H     37.27595255    -13.80743091    -60.47370504
 H     38.85760494    -13.28915498    -59.84280692
 H     37.95099115    -12.37138486    -57.80999858
 H     36.33568358    -12.46346064    -58.55200273
 H     36.64180235    -11.37424170    -60.49569934
 H     38.16944711    -10.70670562    -59.87202977
 H     37.06824729     -9.85555581    -57.84897024
 H     35.51070966    -10.14324406    -58.66111472
 H     35.56130437     -9.18446811    -60.56043802
 H     36.96902511     -8.22012822    -60.05384396
 H     36.56135109     -7.30424029    -58.20262214
 H     34.82135084     -7.61731342    -58.40914339
 H     34.13447438     -6.99276152    -60.23936946
 H     35.58550787     -5.98787118    -60.46950827
 H     35.67057073     -4.80681608    -58.56725231
 H     35.09279463     -5.21391921    -57.98520470
 H     34.43688402     -6.08342061    -57.10856456
 H     32.94609632     -5.44277381    -57.84026829
 H     32.55185706     -3.74769940    -58.17642039
 H     33.77257715     -3.20981518    -56.99795117
 H     33.68258617     -4.12392027    -55.21968808
 H     32.02956230     -4.68910771    -55.56077737
 H     31.20465483     -2.51195700    -56.15951580
 H     32.67401339     -1.81402628    -55.43691993
 H     32.36816225     -2.93893161    -53.32093880
 H     30.48362496     -2.33133008    -53.92017996
 H     30.13096388     -1.03912593    -54.33096488
 H     31.59319949     -0.52923873    -53.45338370
 H     31.45986395     -1.49771452    -51.49699075
 H     29.57342727     -0.74934716    -51.89732093
 H     29.37476960      0.58776558    -52.30408958
 H     30.98767823      0.88439007    -51.61213125
 H     30.96600846     -0.01746519    -49.63466475
 H     29.18896650     -0.10580407    -49.68550530
 H     28.63378712      2.01270971    -50.22612642
 H     30.28205642      2.54070652    -49.81056136
 H     29.68165643      1.28575687    -47.54375320
 H     28.01557150      1.29172736    -48.17016521
 H     27.21769438      2.90370101    -48.76647707
 H     28.42401721      3.86551176    -47.87879922
 H     28.57393281      3.19323737    -45.90564041
 H     27.02763680      2.32549479    -46.06139071
 H     25.51903834      3.38672411    -46.79920265
 H     26.37936120      4.90624508    -46.45399653
 H     26.73543247      4.14620450    -44.09621469
 H     25.52891315      2.87746973    -44.41697923
 H     23.87717116      3.19720160    -45.14711019
 H     23.98403236      4.91770021    -44.70356550
 H     24.55332029      4.86814435    -42.55635429
 H     24.09764893      3.14933111    -42.47691065
 H     21.86948454      3.64953395    -43.42685266
 H     22.20165147      5.36756342    -43.10080585
 H     22.72034366      5.07089763    -40.79485558
 H     22.00410414      3.44414476    -40.88942167
 H     19.92355210      4.15406803    -41.80160180
 H     20.34820240      5.82396426    -41.35507592
 H     20.83907550      5.49619067    -39.12217308
 H     20.04605241      3.90482660    -39.20548843
 H     18.00045873      5.00392888    -40.14803274
 H     18.71266495      6.55571214    -39.64504397
 H     19.05410385      5.92932107    -37.37223452
 H     17.18692300      5.21996466    -37.91254607
 H     16.19733222      6.00107169    -38.51121246
 H     17.10987255      7.37844085    -37.84910142
 H     17.17742762      6.33753945    -35.61441097
 H     15.92992774      5.20413955    -36.18661321
 H     14.64337605      7.41369624    -36.78593088
 H     15.87445744      8.22933124    -35.79222830
 H     15.52642931      6.90438913    -33.84678668
 H     14.00726748      6.32218597    -34.56890403
 H     14.07635026      9.19145939    -34.50370926
 H     15.48320056      8.84214914    -33.47074205
 H     14.73883623      7.55000950    -31.88019612
 H     13.06557864      7.99754511    -32.29030289
 H     13.07215522     10.19993520    -32.31363494
 H     14.62735288     10.20692505    -31.44785319
 H     14.54947692      9.00806725    -29.76043135
 H     13.75599957      8.50413085    -29.81386510
 H     12.83469894      7.57252566    -30.14898487
 H     11.68032581      8.84812812    -29.69233656
 H     12.44584856      9.51915202    -27.69986414
 H     13.45066624      8.05346478    -27.59803589
 H     11.87600222      6.44606495    -28.00281639
 H     10.59730601      7.64867541    -27.70797621
 H     11.15338041      8.50656530    -25.72637515
 H     12.26091835      7.14088304    -25.44971946
 H     10.74119847      5.41289168    -25.87092145
 H      9.41420166      6.59271521    -25.74697550
 H      9.13184462      6.16737141    -23.73835921
 H     11.06118475      6.11998076    -23.39600265
 H     10.18175801      4.31791158    -23.70011237
 H      8.56624314      5.05852431    -23.60075867
 H      9.13004791      6.13828102    -21.45477785
 H     10.54948807      5.06726716    -21.37486793
 H      9.46277375      3.03299562    -21.65424629
 H      7.91501895      3.84420228    -21.31562332
 H      9.30926137      4.58749722    -19.14715956
 H     10.46916192      3.34780286    -19.68200091
 H      9.97120127      1.60742144    -20.07455493
 H      8.45909775      1.80238394    -19.15596948
 H      8.59201005      2.56756539    -17.36276262
 H     10.33576373      2.21469279    -17.30734864
 H     10.51522280      0.10906844    -17.87570106
 H      8.77284007     -0.12101007    -17.59386255
 H      8.06794042      0.52592848    -15.87293841
 H      9.70875763      0.57768864    -15.18496572
 H      9.83629675     -1.88836308    -16.05042843
 H      8.07528195     -1.75420276    -16.27200126
 H      7.33760814     -1.10317739    -14.28685660
 H      8.89468316     -1.56354108    -13.55757661
 H      8.16647079     -3.84237352    -14.86825097
 H      6.59507123     -3.01918348    -15.01429295
 H      6.35839764     -2.65324735    -12.64738647
 H      7.67656839     -3.82110643    -12.38893392
 H      7.31319817     -5.59856300    -13.38089006
 H      5.59523014     -5.17146305    -13.56646525
 H      5.10322189     -4.64951184    -11.37198251
 H      6.61657851     -5.44001991    -10.86887677
 H      5.92105944     -7.50070312    -12.11533471
 H      4.29448213     -6.78419773    -12.21090116
 H      3.61168276     -6.20970799    -10.34735515
 H      4.84927781     -7.21581466     -9.55718142
 H      4.54890516     -9.20553372    -10.58071363
 H      2.97543793     -8.64191909    -11.19292770
 H      1.92098452     -7.90548350     -9.40224142
 H      3.09215383     -8.75117336     -8.36231941
 H      3.39349646    -10.67089620     -8.81106076
 H      1.89091785    -10.71490722     -9.76425919
 H      0.44590647     -9.82404984     -8.18314800
 H      1.68271820    -10.10309366     -6.93386903
 H      1.99704850    -12.41548169     -7.45539281
 H      0.49627065    -12.35457989     -8.41049672
 H     -0.82965899    -11.45305052     -6.61751537
 H      0.48672718    -11.88200999     -5.49886087
 H      0.03317026    -14.25843844     -6.71249372
 H     -1.43386678    -13.45546496     -7.32183976
 H     -2.08793351    -12.92706822     -4.95888727
 H     -0.83783377    -14.08734501     -4.44969669
 H     -1.76804097    -15.87094352     -5.83225411
 H     -3.23435714    -14.87801856     -6.01193048
 H     -3.74547629    -14.44213266     -3.84697240
 H     -2.63567763    -15.73691063     -3.33691003
 H     -2.98761833    -17.49920007     -4.31496434
 H     -4.59462343    -16.92659602     -4.82282834
 H     -4.73635223    -16.47913434     -2.17243975
 H     -3.26114237    -17.47293034     -2.10616720
 H     -3.53754323    -19.29379030     -3.04698565
 H     -5.30398309    -19.08265820     -2.98884675
 H     -5.97282796    -18.58239457     -1.12261848
 H     -4.43856903    -19.12214063     -0.39943773
 H     -3.78169488    -20.89198248     -0.91830663
 H     -5.39431365    -21.34950539     -1.51697195
 H     -6.74647307    -20.84357458      0.16590737
 H     -5.34457652    -20.72734564      1.25652351
 H     -4.26947501    -22.64183924      0.93831360
 H     -5.71046515    -23.31748580      0.14124660
 H     -7.30278691    -22.87200192      1.71842167
 H     -6.01464047    -22.55422687      2.90499844
 H     -4.80608437    -24.51390468      2.65532310
 H     -6.18806373    -25.22624499      1.78873726
 H     -7.90592151    -24.90090064      3.13130512
 H     -6.79225473    -24.54468825      4.47336537
 H     -5.47799084    -26.48978710      4.27532186
 H     -6.73790572    -27.19037954      3.23126659
 H     -8.35394246    -26.63110352      5.17190147
 H     -6.88964058    -26.36272347      6.14763649
 H     -5.63323128    -28.02910208      6.03851968
 H     -6.96942879    -29.02184681      5.40820168
 H     -8.37427881    -28.27072470      7.35899378
 H     -6.46179911    -28.49290640      8.10239086
 H     -5.61916740    -29.62392598      7.96298251
 H     -7.11971356    -30.52648419      7.64358219
 H     -8.56146710    -30.08614878      9.07825749
 H     -7.31689963    -29.40211329     10.15129706
 H     -5.72330563    -30.68834913     10.38638090
 H     -6.69428302    -32.04426339      9.76431492
 H     -8.51338485    -31.58924816     11.34122280
 H     -7.38905045    -30.53095144     12.22674347
 H     -5.63179224    -31.91671756     12.56135431
 H     -6.66118656    -33.30599004     12.13881914
 H     -8.43531058    -33.10610008     13.41300632
 H     -7.57014506    -31.93953182     14.44202224
 H     -5.67826455    -32.96571960     14.94778947
 H     -6.37252679    -34.51326281     14.40799633
 H     -8.27885224    -34.69548352     15.45554348
 H     -7.78582501    -33.41453815     16.58884388
 H     -6.06034962    -33.54182645     17.43790720
 H     -5.96232209    -35.27627793     17.05017619
 H     -8.20869843    -35.64791235     18.04262892
 H     -8.06890565    -34.02640999     18.76336102
 H     -6.17763820    -34.00703797     19.83344008
 H     -6.10599370    -35.78385490     19.75562403
 H     -8.19804900    -36.27274765     20.60807673
 H     -8.32452429    -34.59690560     21.19444187
 H     -6.43771769    -34.32526482     22.35593240
 H     -6.19561950    -36.08864811     22.36752957
 H     -8.57041382    -36.25955065     23.30436136
 H     -8.91584266    -35.40226309     23.12737742
 H     -9.47705969    -34.40859692     22.46969890
 H     -8.68886479    -33.44967050     23.74542441
 H     -8.70969623    -33.83272227     25.51019397
 H    -10.13606743    -34.87485937     25.29183157
 H    -10.90989929    -32.56001075     24.07287421
 H     -9.46449907    -31.89169192     24.86813190
 H     -9.98947341    -32.50898186     27.05923258
 H    -11.66044093    -32.82883559     26.53594701
 H    -12.49670771    -31.29269534     25.51477373
 H    -11.25047828    -30.17522525     26.12011618
 H    -11.21437464    -30.46057493     28.28509447
 H    -12.78366191    -31.29695976     28.20721923
 H    -13.83238499    -29.48312768     26.96691279
 H    -12.43533763    -28.46674249     27.39526603
 H    -12.98678706    -29.14242848     29.83751067
 H    -14.52881896    -29.74749385     29.18612739
 H    -15.48988889    -28.26807290     28.08131914
 H    -14.66215929    -27.31781243     28.13765185
 H    -13.57930803    -26.45674310     28.24119347
 H    -14.10995906    -26.26344009     29.92918343
 H    -16.42394604    -25.82263947     29.24395899
 H    -15.81660861    -25.59852514     27.58589365
 H    -14.21012292    -24.12228073     27.75608205
 H    -14.78631879    -23.67457861     29.37960532
 H    -17.05202610    -23.29527921     28.69160458
 H    -16.02573461    -22.76826052     27.01761573
 H    -14.91445712    -22.01401682     26.71076636
 H    -15.27807873    -21.18079203     28.24105471
 H    -17.37008492    -20.68972625     28.21676986
 H    -17.42949723    -20.97518812     26.46085176
 H    -15.71313343    -19.69829281     25.73172379
 H    -15.68048081    -18.86323690     27.30330965
 H    -17.78620838    -18.22231663     27.59897163
 H    -17.30405225    -17.77915800     25.63781599
 H    -16.27043878    -17.17645266     25.10719540
 H    -16.15215429    -16.49997968     26.74934635
 H    -18.57666121    -15.88513801     26.64820651
 H    -18.49188334    -16.20014326     24.89839193
 H    -16.68630798    -14.79944493     24.40895496
 H    -16.89145557    -14.03045758     26.00107292
 H    -19.31554079    -13.62679690     25.40848184
 H    -18.87158427    -14.03763650     23.73445075
 H    -17.17732513    -12.70783124     23.27061884
 H    -17.57882325    -11.70019141     24.68190475
 H    -19.95560698    -11.60048937     23.67863507
 H    -19.22568218    -12.26737724     22.19852122
 H    -17.58187106    -11.03519589     21.64870376
 H    -18.17107483     -9.74280123     22.72146730
 H    -20.41380005     -9.86003920     21.64736239
 H    -19.65440015    -10.82695954     20.36025575
 H    -17.96444658     -8.99918699     20.03510822
 H    -19.02654193     -7.96739511     21.02284586
 H    -20.96630630     -7.97658555     20.28336224
 H    -20.39673962     -8.64104465     18.73340915
 H    -18.79109432     -7.48371657     18.02030300
 H    -19.21553964     -6.16851032     19.14206293
 H    -21.16130300     -5.63838959     19.08416939
 H    -21.36652366     -6.45498118     17.51594450
 H    -19.34973724     -5.12611305     16.70153760
 H    -19.54730364     -4.13509880     18.16684471
 H    -21.99356490     -3.84176438     17.24345125
 H    -21.35131972     -4.53892466     15.73688053
 H    -19.61195951     -3.25529159     15.25469495
 H    -20.19633411     -2.03084197     16.40686513
 H    -22.40404025     -1.92147188     15.45392757
 H    -21.77721959     -2.79552126     14.03568916
 H    -20.06316587     -1.81147850     13.30864008
 H    -20.48267259     -0.35290250     14.23860611
 H    -22.56063404      0.08408005     13.73724200
 H    -22.45644366     -1.00161386     12.33058648
 H    -20.46836798      0.07436754     11.45739882
 H    -20.77477129      1.42023007     12.58124833
 H    -22.96721305      1.88342331     11.99586156
 H    -22.75387538      0.90678693     10.52313107
 H    -20.85125446      1.90971086      9.68440732
 H    -21.10364352      3.27110145     10.80296983
 H    -23.22649012      3.85824471     10.38750758
 H    -23.18840489      2.90826209      8.88273212
 H    -21.10756542      4.15487930      8.20997852
 H    -21.48234179      5.29778276      9.52206885
 H    -23.48901918      5.96929844      9.26168100
 H    -23.48909464      5.36776283      7.58644324
 H    -21.17512071      6.67425355      7.47399108
 H    -21.69317038      7.50311490      8.69188410
 H    -22.35046755      6.30736144      5.82330940
 H    -20.70260932      6.17760878      6.48360794
 H    -20.10710288      8.32532289      6.73228432
 H    -21.46282130      8.81556081      5.68827233
 H    -21.07444607      7.47162810      3.87148122
 H    -19.50163915      7.07751517      4.46880914
 H    -18.27459687      7.37309771      5.14284362
 H    -18.44725158      9.01008096      4.46553804
 H    -18.86594271      8.58070312      2.29519115
 H    -18.30692632      6.90680825      2.52723268
 H    -16.17429622      7.80234804      3.51144274
 H    -16.65194722      9.39014398      2.86412502
 H    -16.97971844      8.71493927      0.63753741
 H    -16.11474393      7.20337385      1.00530875
 H    -14.23089054      8.51705462      2.01224345
 H    -14.79065319      9.83873515      1.18186551
 H    -14.00724703      6.75103128      1.04689440
 H    -13.67681798      7.62767431      2.56036073
 H    -12.11796233      9.11048444      1.15242057
 H    -12.27965285      7.87208040     -0.11583740
 H    -11.70786961      5.99091799      0.94801314
 H    -11.00163034      6.95648780      2.26602973
 H     -9.64544927      8.36596775      1.25793746
 H     -9.71516990      7.37919098     -0.22181836
 H     -9.17484643      5.32141717      0.70030550
 H     -8.61475094      6.15588422      2.16939516
 H     -7.13621296      7.62884508      0.89300078
 H     -7.36258794      6.54033139     -0.49702044
 H     -6.62546176      4.63289282      1.00918097
 H     -6.07069370      5.88418025      2.14706446
 H     -4.70559192      7.05030812      0.59955487
 H     -4.82047669      5.65036696     -0.49371222
 H     -4.05519975      4.12229505      1.28431681
 H     -3.55563437      5.56221577      2.20373479
 H     -2.22602562      6.54248836      0.54200867
 H     -2.24868920      4.99734487     -0.34132854
 H     -1.46468468      3.76445730      1.63406475
 H     -1.04789842      5.33498260      2.36070508
 H      0.30756722      5.96619161      0.40986252
 H      0.23318672      4.26335514     -0.10305284
 H      1.02408766      3.32608459      1.90818854
 H      1.56941064      4.94577648      2.40566989
 H      2.78476720      4.76167652      0.02047954
 H      2.33392392      3.04253169      0.11819372
 H      3.33944013      2.60615447      2.20488998
 H      4.22772255      4.14143117      2.05607312
 H      5.19762813      4.02151149      0.07745305
 H      4.88831829      2.26926490      0.03027277
 H      5.87746004      1.82744435      2.16679587
 H      6.60421533      3.45131892      2.11089619
 H      7.63628039      3.20392382     -0.00491155
 H      7.35636111      1.44977513      0.10855309
 H      8.46994105      1.36145529      2.31141642
 H      9.09162913      2.99560584      1.97776602
 H     10.07176914      2.78853483     -0.00393546
 H     10.04412877      1.01720620      0.16897369
 H     11.11734074      1.07232285      2.34651702
 H     11.54444454      2.77022305      2.02560599
 H     12.60967534      2.11045493     -0.12349244
 H     12.52590592      0.42664638      0.44750504
 H     13.61464235      0.74588301      2.49932406
 H     14.17651526      2.33109460      1.91651215
 H     15.12166070      1.97486813     -0.00073052
 H     15.20565920      0.23260964      0.35387669
 H     16.24327198      0.39695093      2.44958222
 H     16.64531318      2.09118952      2.08054951
 H     17.66236960      1.93022804      0.08985393
 H     17.84790157      0.17675833      0.33314086
 H     18.81983253      0.09074949      2.36731553
 H     19.20644085      1.82393546      2.24538493
 H     20.27194351      1.76762964      0.16603705
 H     20.37893097     -0.00376975      0.30374889
 H     21.09916909     -0.76718923      1.91901834
 H     21.85028445      0.78627503      2.35587206
 H     22.90168209      0.93990145      0.11344369
 H     22.48140319     -0.77492306     -0.11240853
 H     23.35123466     -1.75314155      1.69302320
 H     24.32562782     -0.29728531      2.00815367
 H     25.36692163      0.22136479      0.23688196
 H     25.05299614     -1.39414192     -0.44124452
 H     25.06131803     -2.90500961     -0.02985952
 H     26.24693993     -2.50860653      1.23719690
 H     27.87396132     -2.34399332     -0.34543287
 H     26.40049363     -2.18869870     -1.78691464
 H     27.24642651     -4.31891016     -0.56777562
 H     28.53498396     -3.27743849      0.08278039
 H     29.10450293     -2.65056663     -2.30746106
 H     28.07474146     -4.01548318     -2.80229514
 H     28.92472410     -5.72829423     -1.64561365
 H     30.38536134     -4.76901117     -1.30711469
 H     30.43925111     -4.45480135     -3.90061706
 H     29.22350182     -5.75412781     -3.94501372
 H     29.39296178     -7.36091054     -3.10679028
 H     31.15624318     -7.14540460     -2.99426231
 H     32.25513965     -6.61577619     -4.29287484
 H     31.05356015     -7.07198561     -5.52427499
 H     30.98930276     -9.34646208     -4.27305319
 H     32.45890709     -8.78288699     -3.44184149
 H     33.92980004     -8.11695977     -4.22602144
 H     33.47300608     -8.86890302     -5.77333759
 H     33.07939565    -11.02723022     -4.99507314
 H     33.91708972    -10.60402047     -3.48264833
 H     35.74064613     -9.93835716     -5.42262564
 H     34.63479552    -10.84768637     -6.48020849
 H     34.97312055    -12.80001207     -4.83206840
 H     36.80302011    -11.86682498     -5.08024456
 H     37.46617683    -11.55190294     -6.22488942
 H     36.44674032    -12.82796133     -6.93248453
 H     36.28092964    -14.50760360     -6.01931372
 H     37.74465124    -14.16905939     -5.06475960
 H     39.06748454    -13.63576721     -7.03415593
 H     37.77922747    -14.36669928     -8.02127229
 H     37.53785351    -16.39019200     -7.08164770
 H     39.09182285    -16.17745145     -6.24010898
 H     40.25969899    -15.63989721     -8.32334691
 H     38.83843494    -16.25640474     -9.19981346
 H     38.06222869    -17.88988364     -8.85730464
 H     39.54314074    -18.45502723     -8.04750288
 H     41.18572742    -18.02639688     -9.37644085
 H     40.04799387    -17.79010832    -10.72477195
 H     39.20870800    -20.17861495     -9.95034036
 H     40.70215192    -20.21859610     -8.98271779
 H     42.24026385    -19.80128793    -10.65085918
 H     40.98784113    -20.15913526    -11.86397471
 H     39.93891940    -21.69370905    -11.79239668
 H     41.11288714    -22.48108935    -10.71068568
 H     42.86925470    -21.80694195    -12.48963201
 H     41.47965356    -21.45382319    -13.54442226
 H     40.43622571    -23.55532388    -13.35933915
 H     41.94276549    -24.20200907    -12.66622817
 H     43.14118903    -23.28532801    -14.71647452
 H     41.52596134    -23.07323573    -15.43363772
 H     40.26548910    -24.43551296    -15.48285713
 H     41.53308731    -25.65731584    -15.22082814
 H     42.96319319    -24.88007691    -16.96319621
 H     41.60245920    -23.91790608    -17.58841374
 H     39.94582239    -25.33154620    -17.79879495
 H     41.08439956    -26.69352250    -17.66868238
 H     42.47373044    -25.70256229    -19.48894580
 H     41.09997532    -24.62437458    -19.83329272
 H     39.60484212    -26.61294228    -20.05293022
 H     41.08022571    -27.60678247    -20.11450628
 H     42.43384480    -27.02007924    -21.46499701
 H     41.20856782    -26.04765570    -22.31432347
 H     39.61219242    -27.81869855    -22.49091061
 H     40.90425034    -28.96241925    -22.05415444
 H     42.42858220    -28.24533960    -23.73872797
 H     41.08291156    -27.38827000    -24.52794841
 H     39.45782384    -28.61235325    -24.82166851
 H     40.46778407    -30.05601146    -24.56849272
 H     42.17963903    -29.96031752    -25.76149254
 H     41.43606317    -28.69131182    -26.76398250
 H     39.53491906    -29.26263050    -27.38452455
 H     40.47512033    -31.07140424    -27.39246912
 H     41.75920935    -31.45756355    -27.91293294
 H     41.62956737    -30.02252620    -28.95798194
 H     39.97551194    -29.71998949    -29.90822659
 H     39.49257273    -31.41680050    -29.67186077
 H     41.67660013    -32.18660487    -30.57037724
 H     41.92706467    -30.52595601    -31.16010562
 H     39.57194536    -30.99789183    -32.29831537
 H     39.87477770    -32.69336272    -31.84894057
 H     41.98317914    -32.86841320    -32.91815542
 H     41.61978083    -31.35994589    -33.79035647
 H     39.53482132    -32.03287061    -34.65972035
 H     39.94002874    -33.71227963    -34.23116585
 H     41.98610228    -33.89538214    -35.26134504
 H     41.63107175    -32.41557857    -36.18460089
 H     39.61254503    -32.90823770    -37.07631733
 H     39.86451736    -34.62329041    -36.67212578
 H     41.67118270    -35.32251546    -37.34108555
 H     41.07927845    -34.08540417    -38.87844938
 H     39.78809195    -34.05184533    -39.50152034
 H     39.57619076    -35.69873454    -38.86033357
 H     41.56304306    -36.63445444    -39.56534946
 H     41.79927403    -35.25189522    -40.66124707
 H     41.29653008    -35.82774913    -42.26994049
 H     39.54691384    -36.43167272    -41.54796156
 H     41.09710719    -37.87802855    -41.91396105
 H     41.92424775    -37.37771961    -41.98478030
 H     43.05110422    -36.60491517    -41.76496712
 H     42.73682070    -35.98757305    -43.40459550
 H     42.47306261    -38.00469409    -44.50680948
 H     43.19451862    -38.83555924    -43.10772728
 H     45.16771768    -37.40046340    -43.12562773
 H     44.67617483    -36.85471758    -44.74698944
 H     44.49209619    -39.00835156    -45.70756900
 H     45.38161446    -39.66341340    -44.31189070
 H     47.18761364    -38.49612388    -44.12231440
 H     46.96546203    -37.86462770    -45.77159542
 H     46.58681190    -38.62605791    -47.23955174
 H     47.17149568    -40.17677991    -46.59018833
 H     49.29708510    -38.83542758    -45.94487253
 H     48.65256972    -37.55522849    -47.00031409
 H     48.40044228    -38.91898040    -48.92513926
 H     49.42104441    -40.14638561    -48.13766583
 H     51.22264062    -39.16448823    -47.50118891
 H     50.85963435    -37.78271961    -48.56288972
 H     50.18808426    -38.47905490    -50.45663810
 H     51.05524171    -39.58485100    -50.38874971
 H     50.49000162    -36.56538892    -49.81922296
 H     49.38968459    -37.63496038    -50.72121296
 H     50.09487270    -38.44227242    -52.36801631
 H     51.40722293    -37.24146242    -52.43172594
 H     49.88316383    -35.80513626    -53.35210128
 H     48.37171752    -36.93218492    -52.54454395
 H     49.74060966    -37.26004763    -54.66768220
 H     50.40269305    -35.63614854    -54.36294622
 H     48.72007016    -34.30885788    -54.12629879
 H     47.64347313    -35.52586027    -54.85301102
 H     49.22670413    -35.66555870    -56.81106881
 H     49.97779096    -34.17791419    -56.18572965
 H     47.93108409    -32.93287938    -56.10954944
 H     48.06846795    -33.88767781    -57.92770042
 H     49.21787134    -33.69730609    -58.70248070
 H     49.47177485    -32.25656008    -57.68855240
 H     46.85593413    -32.03577010    -58.54900358
 H     48.06003550    -32.72103767    -60.08621312
 H     49.21089483    -31.95289184    -60.51110880
 H     48.43568848    -30.56584759    -59.70896789
 H     46.34043987    -30.58279336    -60.17266150
 H     46.61593399    -31.24257012    -61.51057947
 H     47.41713384    -29.12934028    -59.30941941
 H     45.91664586    -30.08105404    -59.20433196
 H     45.30305348    -28.82255582    -61.41363459
 H     46.68180159    -27.76427378    -61.02976037
 H     46.53676292    -26.99579818    -59.11855876
 H     44.81057374    -27.42473009    -59.05106789
 H     43.96488959    -26.57272494    -60.90387609
 H     45.42204030    -25.57152723    -61.11022929
 H     45.75787851    -24.53317422    -59.26572822
 H     43.70867130    -24.55086174    -59.35957912
 H     42.72650606    -24.20073642    -60.12214416
 H     43.97742229    -23.49376548    -61.17269990
 H     43.73381205    -22.85900355    -59.52770810
1502
Final Conformation Chain 5 (Simulation Frame 6)
 C      0.00000000      0.00000000      0.00000000
 C      1.54000000      0.00000000      0.00000000
 C      2.16637443      1.40629502      0.03986715
 C      3.70275628      1.40491592      0.14536075
 C      4.32191203      2.80749774      0.29031038
 C      4.48862465      3.55946320     -1.04323935
 C      4.79059841      5.06095197     -0.88217006
 C      4.98595013      5.80709160     -2.21510418
 C      5.77840259      7.12132204     -2.08697351
 C      5.96580233      7.87211312     -3.41843664
 C      6.56214664      9.28344600     -3.26315312
 C      6.69914677     10.05490706     -4.58892791
 C      7.45898583     11.38837928     -4.46205619
 C      7.74218692     12.07857347     -5.80928636
 C      8.35797372     13.48378731     -5.67594218
 C      8.87395380     14.07007932     -7.00320487
 C      9.13897362     15.58640472     -6.95714181
 C      9.30433604     16.23577842     -8.34370917
 C      9.95895153     17.62928236     -8.30870402
 C     10.20172574     18.24241892     -9.70036642
 C     11.02180691     19.54567851     -9.67625566
 C     10.61408546     20.52168885     -8.55698490
 C     11.67707893     21.58972609     -8.23927225
 C     11.42277521     22.35586891     -6.92780178
 C     12.53326169     23.35839220     -6.56260756
 C     12.65024202     24.54571431     -7.53635384
 C     13.48343587     25.72147491     -6.99323780
 C     13.32008459     27.02719615     -7.79324306
 C     14.15084886     28.20380525     -7.24824605
 C     13.93130983     29.52817524     -8.00286301
 C     15.02735043     30.58068716     -7.75283566
 C     15.05648967     31.71434180     -8.79474643
 C     16.17568429     32.74705694     -8.56561147
 C     16.23190087     33.85677504     -9.63189729
 C     17.45384546     34.78548258     -9.50558924
 C     17.27876370     36.14892998    -10.19982087
 C     18.60452232     36.82479521    -10.59626792
 C     19.54942691     35.92118302    -11.41004941
 C     20.99710849     36.44013776    -11.49069695
 C     22.01203276     35.39129864    -11.98208807
 C     23.48234378     35.82398674    -11.83186659
 C     24.49123574     34.84134416    -12.45488391
 C     25.94193644     35.35794338    -12.46876594
 C     26.56637658     35.50925926    -11.06920242
 C     28.00400344     36.06124476    -11.08107717
 C     28.67938679     36.07954340     -9.69719766
 C     30.04408641     36.79279586     -9.67561365
 C     30.64844386     36.94625818     -8.26749384
 C     31.85369901     37.90277643     -8.20398917
 C     32.41911064     38.10464607     -6.78583602
 C     33.79432681     38.79693792     -6.75248229
 C     34.40672894     38.90591352     -5.34369275
 C     35.46343807     37.82902297     -5.03503025
 C     36.16302755     38.00956553     -3.67503799
 C     37.28959749     36.99349482     -3.41038637
 C     38.13891679     37.31009837     -2.16538881
 C     38.94771457     36.11068077     -1.63733241
 C     39.71435573     36.39768961     -0.33292172
 C     40.57881824     35.22128298      0.15735576
 C     41.27917619     35.47749579      1.50474351
 C     41.82958584     34.20567829      2.17640523
 C     43.12899300     34.42972655      2.97198264
 C     43.64103621     33.17401240      3.70177283
 C     45.11056716     33.26717167      4.15277189
 C     45.43812020     34.53562034      4.96230693
 C     46.87729224     35.04822962      4.76835964
 C     47.17622440     36.36852915      5.50255902
 C     48.67771580     36.67843095      5.64776393
 C     49.02775006     37.51055812      6.89541788
 C     50.49413011     37.97837900      6.94514874
 C     50.77601659     39.04223501      8.02234436
 C     52.16490177     39.69748361      7.90724782
 C     52.62575737     40.41775321      9.18803813
 C     54.08840189     40.89776793      9.14494653
 C     54.63124164     41.37531193     10.50468060
 C     55.99430974     42.08698036     10.41998469
 C     56.75490421     42.14484716     11.75779913
 C     58.03933480     42.99321688     11.71189843
 C     58.79051897     43.06557995     13.05431637
 C     60.19828314     43.68146768     12.95193316
 C     60.94491052     43.76456545     14.29627029
 C     62.26025007     44.56306133     14.23393093
 C     62.78608949     45.01232533     15.60988687
 C     64.06060409     45.87410813     15.54248545
 C     64.70927113     46.14132520     16.91340708
 C     66.05079502     46.89356695     16.83565096
 C     66.60605701     47.32720188     18.20504677
 C     67.93840283     48.09544503     18.12594514
 C     68.63212479     48.28812186     19.48727739
 C     69.75233495     49.34480979     19.47545290
 C     70.43477149     49.54949463     20.84073107
 C     71.56707694     50.59315693     20.82481356
 C     72.45434768     50.57398246     22.08337741
 C     73.46539954     51.73341612     22.15470587
 C     74.12541436     51.90489461     23.53549389
 C     75.11961917     53.07840640     23.61312686
 C     76.05109225     53.03018302     24.83853798
 C     76.89127303     54.30541198     25.03725226
 C     77.70483175     54.32209120     26.34470934
 C     78.75283750     55.44823530     26.41600743
 C     79.48237145     55.54021851     27.76912210
 C     80.58620760     56.61312918     27.81393789
 C     81.51188564     56.50861201     29.04023163
 C     82.29185175     57.80028826     29.34816883
 C     82.71314416     57.94115719     30.82270898
 C     83.92647312     58.86382067     31.04208295
 C     84.32933885     59.02827809     32.51932801
 C     85.61984199     59.84185240     32.72980006
 C     86.18924821     59.75482461     34.15801669
 C     87.28435096     60.79456097     34.46017272
 C     87.56227815     60.99319838     35.96180505
 C     88.74625885     61.93144689     36.26093616
 C     88.94353433     62.23327495     37.75812760
 C     89.59243968     63.60089722     38.04120210
 C     89.94683997     63.83156421     39.52201039
 C     90.82358065     65.07306575     39.77020326
 C     91.47625734     65.11037530     41.16455656
 C     92.16515988     66.44669021     41.49813678
 C     92.97770062     66.42314600     42.80612119
 C     93.36601328     67.81920084     43.32750796
 C     94.43247189     67.79867748     44.43829364
 C     94.47139590     69.07913759     45.29299058
 C     95.82810069     69.33610118     45.97484234
 C     96.03912938     70.79525148     46.41975500
 C     97.27181290     71.00387853     47.31895803
 C     97.60196396     72.48232229     47.59609399
 C     98.97741181     72.70466125     48.25207311
 C     99.09204542     74.02626598     49.03426240
 C    100.53531976     74.40621981     49.41399158
 C    100.66111235     75.77688862     50.10467474
 C    100.86362474     76.95269988     49.13099276
 C    101.21049443     78.28493115     49.82124001
 C    101.06023506     79.51901608     48.91236351
 C    101.31280677     80.85879972     49.62845522
 C    100.70017355     82.07690367     48.91256186
 C     99.16024755     82.09066548     48.90635494
 C     98.54766190     83.33564862     48.23825630
 C     97.00959951     83.31389379     48.16415636
 C     96.37194182     84.70274946     47.97422852
 C     94.84003905     84.67278118     47.81938728
 C     94.14194595     85.97830651     48.24349771
 C     92.63478096     85.82194129     48.51845885
 C     91.85690867     87.15104424     48.51867780
 C     90.34383376     86.99122626     48.75671671
 C     89.72816270     88.09497496     49.63665305
 C     88.20220773     88.23777594     49.48608980
 C     87.56008392     89.20145420     50.50127511
 C     86.13912417     89.65685823     50.12038067
 C     85.44000488     90.49942624     51.20339100
 C     84.12175010     91.14653547     50.73965189
 C     83.35912504     91.88372647     51.85614302
 C     82.51006701     93.06808739     51.35815740
 C     82.44779584     94.25145633     52.34170214
 C     81.54561603     95.40833912     51.87341400
 C     81.49864825     96.59994399     52.84782247
 C     80.68915176     97.80253071     52.32811043
 C     80.87994034     99.08929593     53.15238890
 C     79.94282831    100.24052282     52.74239175
 C     80.46546611    101.63874034     53.12112319
 C     79.86745892    102.78046749     52.27824330
 C     80.10026040    102.62901438     50.76349400
 C     78.98646542    103.24175245     49.89423410
 C     79.06592586    102.85045429     48.40689695
 C     77.82952772    103.25914286     47.58476966
 C     77.94196329    102.93815885     46.08279512
 C     78.26406285    101.46298947     45.77993020
 C     78.85977039    101.22665485     44.37961650
 C     78.56178554     99.83159130     43.79944176
 C     79.30729317     99.52677970     42.48684576
 C     78.97202687     98.15124295     41.88096197
 C     79.61234508     97.90088276     40.50295167
 C     79.34330723     96.49566337     39.93323499
 C     79.65259965     96.35912333     38.43080528
 C     79.34988756     94.96399505     37.85323929
 C     79.75462037     94.79594147     36.37690960
 C     78.99588241     93.67454192     35.64316594
 C     79.29110179     93.60243071     34.13344891
 C     78.54315299     92.47216345     33.40223860
 C     79.07974194     92.17787075     31.98906341
 C     78.29338557     91.08982532     31.23447690
 C     78.77791537     90.85354123     29.79190950
 C     77.87001052     89.91860615     28.97141869
 C     78.34124994     89.70175351     27.52141581
 C     77.48904529     88.69214098     26.73019538
 C     78.22635706     88.04440045     25.54343358
 C     77.33471971     87.14439859     24.66788834
 C     78.11844397     86.22861621     23.70939007
 C     77.31071107     85.02265811     23.19477117
 C     78.10253639     84.09268332     22.25681620
 C     77.31750516     82.84978088     21.79799215
 C     78.06839688     81.97694499     20.77529027
 C     77.39444615     80.62101734     20.49448672
 C     78.18919651     79.40750554     21.01155632
 C     77.57985653     78.04775569     20.62247390
 C     78.60212747     76.89758725     20.56185482
 C     78.04722227     75.59797395     19.94973924
 C     78.93154010     74.36167915     20.19703891
 C     78.55337731     73.13946495     19.33984269
 C     79.36786908     71.87266648     19.66143997
 C     79.13391012     70.71106813     18.67779751
 C     79.84788372     69.40430550     19.07049729
 C     80.02036724     68.41063082     17.90668456
 C     80.63192639     67.05965215     18.32195803
 C     79.62394977     66.08523230     18.95920922
 C     80.20723564     64.69379917     19.26790236
 C     79.14510865     63.62822413     19.59659081
 C     79.71580817     62.20897192     19.77442564
 C     78.64630860     61.13178848     20.03413028
 C     79.19240566     59.69189431     20.02503164
 C     78.09909063     58.60734626     20.02081870
 C     78.64121005     57.17193759     19.88925696
 C     77.56042185     56.08107716     20.00553408
 C     78.11832881     54.64578057     20.02176792
 C     77.04699439     53.55518089     19.83620150
 C     77.60893183     52.12145806     19.81991689
 C     76.55804272     51.03348118     20.10894696
 C     77.01826746     49.60768984     19.75269948
 C     75.91673830     48.54061577     19.89265101
 C     76.44964665     47.09879613     19.98627169
 C     75.35817559     46.04297430     20.24226229
 C     75.89930988     44.69217158     20.74635125
 C     74.83599319     43.58085772     20.82341694
 C     75.38963009     42.16577956     20.57313716
 C     74.30344587     41.08126957     20.44806955
 C     74.85536734     39.64428748     20.40262543
 C     73.80603984     38.58188782     20.02603709
 C     74.38858072     37.17107695     19.82144286
 C     73.40557184     36.17456025     19.17937742
 C     74.08865156     35.02224914     18.41965301
 C     73.12651038     33.90075313     17.98591226
 C     73.83366360     32.62543087     17.49084916
 C     72.96408668     31.74136574     16.57768717
 C     73.49784341     30.30765924     16.40108189
 C     72.71942898     29.47234442     15.36767968
 C     73.45077840     28.19447044     14.91627509
 C     72.64691605     27.32841034     13.92867942
 C     73.47036081     26.21106289     13.26154120
 C     72.66689300     25.34601391     12.27273903
 C     73.45379949     24.15100929     11.70322861
 C     72.67845639     23.33359520     10.65333467
 C     73.53538408     22.28796698      9.91581412
 C     72.73348838     21.37675773      8.96804780
 C     73.56953123     20.25890236      8.31763891
 C     72.73477611     19.22297991      7.54197883
 C     73.56436123     18.07261598      6.94193605
 C     72.71831167     16.89784334      6.41685568
 C     73.54610370     15.67154841      5.98958399
 C     72.77533240     14.67207899      5.10721645
 C     73.41972649     13.27534008      5.03321183
 C     72.74844707     12.32865679      4.02090029
 C     71.24535794     12.10685932      4.27215509
 C     70.76137659     10.67948413      3.95598725
 C     69.23896577     10.56455440      3.75435282
 C     68.76209957      9.14960140      3.37738247
 C     67.23156142      8.97978422      3.39204836
 C     66.75006058      7.59776143      2.91270512
 C     65.22632206      7.50031099      2.71189595
 C     64.77320888      6.23461523      1.96069512
 C     63.28465678      6.23964346      1.56599605
 C     62.77825831      4.89380956      1.01473231
 C     61.24758701      4.73229548      1.06531448
 C     60.77013346      3.26904258      1.01502454
 C     59.27274477      3.10948887      0.69258120
 C     58.70831477      1.71297911      1.01317328
 C     57.17482197      1.61798839      0.90840408
 C     56.54443259      0.58700966      1.86302027
 C     55.02041748      0.43462799      1.70252794
 C     54.42898289     -0.77229509      2.45428708
 C     52.90059105     -0.90571075      2.32080067
 C     52.32282492     -2.17351041      2.97690306
 C     50.80320087     -2.33872394      2.78969395
 C     50.26928782     -3.72528669      3.19463912
 C     48.73403388     -3.84046000      3.15816377
 C     48.20839241     -5.27356399      3.36191365
 C     46.67443424     -5.37039243      3.45781245
 C     46.12206170     -6.79214625      3.24544334
 C     44.62046238     -6.93368723      3.55651506
 C     43.85276537     -7.81266342      2.55170554
 C     42.32214869     -7.75628215      2.71181093
 C     41.56152113     -8.75094811      1.81532594
 C     40.04939254     -8.47619548      1.71745812
 C     39.32912047     -8.44470320      3.07827272
 C     37.79914564     -8.30358279      2.97405153
 C     37.08636306     -8.19114150      4.33452863
 C     35.54956219     -8.22471390      4.24116922
 C     34.83569518     -8.03842889      5.59294279
 C     33.30481286     -8.18841200      5.51875125
 C     32.55255331     -7.51751944      6.68305737
 C     31.02252820     -7.49428938      6.50961136
 C     30.27320898     -6.78534113      7.65307674
 C     28.87863855     -6.26391757      7.25951509
 C     28.41561566     -5.03976236      8.07109000
 C     26.89348195     -4.80776593      8.04131364
 C     26.45300695     -3.46210674      8.64693984
 C     24.97961516     -3.42862572      9.09370113
 C     24.64532128     -2.28069816     10.06432459
 C     23.23909195     -2.37473633     10.68503056
 C     23.10264081     -1.65406847     12.03914242
 C     21.67227008     -1.65858734     12.60977289
 C     21.43808536     -0.61888459     13.72142739
 C     19.99893522     -0.60101206     14.26926626
 C     19.81583345      0.27811115     15.52035224
 C     18.47283623      0.06635477     16.24362100
 C     18.25158981      1.00776891     17.44211566
 C     16.97450822      0.70614234     18.24814545
 C     16.51379057      1.86686669     19.14928819
 C     15.26374191      1.54862649     19.99053816
 C     14.80371756      2.70894484     20.89255751
 C     13.45889648      2.45750376     21.59954665
 C     13.30710517      3.20097055     22.93962744
 C     11.87889844      3.17003087     23.51483894
 C     11.77843835      3.66666754     24.96909469
 C     10.38159116      3.49529019     25.59443278
 C     10.12709233      4.39799349     26.81588973
 C      8.63797709      4.68658256     27.08207041
 C      8.38997356      5.87182697     28.03353766
 C      6.98180014      5.89081012     28.65666468
 C      6.51232268      7.28852743     29.10116131
 C      5.17778137      7.28601164     29.86966191
 C      4.66175576      8.69066463     30.23334794
 C      3.35597045      8.68631151     31.04974599
 C      2.89481802     10.08458171     31.50116475
 C      1.67804348     10.06844697     32.44498643
 C      1.17767352     11.46863100     32.84587868
 C     -0.23290057     11.47655189     33.46379293
 C     -0.82260424     12.88548765     33.66064205
 C     -2.30223372     12.89118988     34.08756603
 C     -2.90679054     14.30008238     34.23293785
 C     -4.28508008     14.32247609     34.91953559
 C     -5.04169324     15.65453218     34.76217263
 C     -6.49471777     15.61344334     35.27073080
 C     -7.31434993     16.87116494     34.92730757
 C     -8.69406289     16.92520007     35.60926970
 C     -9.61703280     18.03310617     35.06864911
 C    -10.89899573     18.23979657     35.89656827
 C    -12.03444680     18.94138783     35.12837522
 C    -13.39393759     18.90734757     35.85102730
 C    -14.57581043     19.38102510     34.98476741
 C    -15.94241786     19.29676329     35.68966747
 C    -17.12554517     19.76059219     34.81979822
 C    -18.50360188     19.32977634     35.35548226
 C    -18.77313220     17.81746271     35.24657454
 C    -20.25389219     17.45979452     35.02069111
 C    -20.46976117     16.15963759     34.22407795
 C    -21.95017495     15.78226745     34.03025638
 C    -22.17401976     14.31481368     33.62028938
 C    -23.62670556     13.98914003     33.22628349
 C    -23.81551631     12.57713286     32.64131659
 C    -25.27232852     12.07845754     32.66623818
 C    -25.41599508     10.55509767     32.49206981
 C    -25.31697546     10.07962844     31.03065813
 C    -25.25373749      8.54904002     30.87286062
 C    -24.95129195      8.07926011     29.43778796
 C    -24.82760510      6.55118266     29.29190824
 C    -24.11966975      6.10049329     28.00066596
 C    -24.28561659      4.60223245     27.68558487
 C    -23.50956512      4.13430453     26.44043927
 C    -23.79446099      2.67585540     26.03626051
 C    -23.14567893      2.25696085     24.70389074
 C    -23.27512588      0.75505164     24.38906979
 C    -22.63383424      0.33766039     23.05260821
 C    -22.49098629     -1.18538475     22.87504702
 C    -21.67959514     -1.59780722     21.63281029
 C    -21.21603478     -3.06631701     21.64662294
 C    -20.17638735     -3.40520172     20.56223815
 C    -19.55250723     -4.80555654     20.70845707
 C    -18.75360949     -5.26721447     19.47547923
 C    -18.42369119     -6.77145023     19.47012368
 C    -17.35322510     -7.17426438     18.43888990
 C    -17.33902450     -8.67767310     18.10548241
 C    -16.48280168     -9.03887141     16.87746846
 C    -16.07767259    -10.52313984     16.81100293
 C    -15.08735840    -10.85201195     15.67843023
 C    -14.61640265    -12.31816336     15.66426235
 C    -13.40906310    -12.57938065     14.74464464
 C    -13.06408929    -14.07029506     14.57211264
 C    -11.92116946    -14.33746639     13.57514036
 C    -11.55999929    -15.82652572     13.42067858
 C    -10.40831759    -16.09259217     12.43354237
 C    -10.12145036    -17.58650760     12.19370101
 C     -9.18968731    -17.86144538     10.99878393
 C     -9.12931353    -19.34196698     10.57924750
 C     -8.45291204    -19.57971011      9.21632445
 C     -6.92095342    -19.42461845      9.24180681
 C     -6.26250703    -19.48038883      7.85078631
 C     -4.72526188    -19.39359339      7.88150928
 C     -4.14356992    -18.27108263      7.00218906
 C     -2.60974144    -18.31006477      6.87008837
 C     -2.05204705    -17.38679830      5.77092688
 C     -0.52029240    -17.44404456      5.62243260
 C      0.02785150    -16.60134535      4.45581514
 C      0.14151529    -15.09771556      4.76850986
 C      1.01830609    -14.31545690      3.77306560
 C      1.22997389    -12.83780452      4.15166854
 C      1.94026874    -12.00850086      3.06569586
 C      2.26222089    -10.56389201      3.49119803
 C      3.16345760     -9.80492825      2.49955978
 C      3.19784213     -8.28173756      2.72385378
 C      4.28352105     -7.55314424      1.91018735
 C      4.23140963     -6.01863478      2.02920473
 C      5.28411230     -5.28801932      1.17502786
 C      5.13186422     -3.75557598      1.16886780
 C      6.25453934     -3.01760094      0.41614380
 C      6.04687484     -1.49483628      0.31784206
 C      7.35124432     -0.69466104      0.14481069
 C      7.15658804      0.83283394      0.16644449
 C      8.33223446      1.62271760     -0.43815396
 C      8.12218133      3.14828654     -0.44897576
 C      9.34460965      3.94541173     -0.94076886
 C      9.02947452      5.40397912     -1.32138812
 C     10.25182591      6.20098912     -1.81355894
 C      9.89682128      7.53870467     -2.48890242
 C     11.11878231      8.33259262     -2.98705216
 C     10.76840128      9.69833973     -3.60638081
 C     11.98308305     10.46349649     -4.16377056
 C     11.65521048     11.88476477     -4.65783136
 C     12.83830283     12.60085588     -5.33540497
 C     12.46568194     13.94400548     -5.99015900
 C     13.65960837     14.68789742     -6.61686823
 C     13.32009964     16.10146927     -7.12495133
 C     14.54369807     17.02496300     -7.27180572
 C     14.18723118     18.50784665     -7.48531790
 C     15.35940253     19.36670901     -7.99519019
 C     15.42326406     20.77315469     -7.37114511
 C     16.63130580     21.60912261     -7.83308968
 C     16.50715900     23.11281692     -7.52472140
 C     17.60568681     23.97747127     -8.17063895
 C     17.60842601     25.44300403     -7.69755731
 C     18.88349361     26.22029973     -8.07387365
 C     19.04660264     27.55616783     -7.32524032
 C     19.78268512     28.64112162     -8.13311275
 C     19.74603777     30.03763690     -7.48503710
 C     20.52597463     31.11138835     -8.26629015
 C     21.02976475     32.27738329     -7.39551387
 C     21.93062114     33.27585436     -8.14592262
 C     22.69011035     34.24883261     -7.22500489
 C     23.72311206     35.12611784     -7.95635849
 C     24.51131672     36.07021368     -7.02952708
 C     25.47733888     37.01309014     -7.77073230
 C     25.78184970     38.31919827     -7.01379459
 C     26.93700231     39.13878931     -7.61835473
 C     27.38008458     40.33135868     -6.75056650
 C     28.82613397     40.79252305     -7.01108250
 C     29.27703595     41.96991549     -6.12675539
 C     30.79497299     42.01586392     -5.87110738
 C     31.30558333     43.38147263     -5.37513367
 C     32.70088252     43.33016170     -4.72543577
 C     33.19603664     44.68918849     -4.19678789
 C     34.67633849     44.69447116     -3.77219568
 C     35.15850922     46.03966160     -3.19811027
 C     36.64040522     46.04677336     -2.77914287
 C     37.13115622     47.40150203     -2.23556795
 C     38.65242130     47.47043552     -2.00621947
 C     39.14370508     48.82654963     -1.46659482
 C     40.65647520     48.87685585     -1.18270076
 C     41.14297614     50.22358702     -0.61592745
 C     42.66660052     50.42799196     -0.70751006
 C     43.18535953     51.63818604      0.09118850
 C     44.68781079     51.91716194     -0.09963254
 C     45.27605155     52.90659856      0.92339628
 C     46.80973575     52.84204251      1.04686806
 C     47.40215816     53.86397266      2.03494419
 C     48.10023978     53.22735232      3.25108423
 C     49.03014384     54.18909098      4.01393231
 C     50.01682255     53.48474975      4.96365256
 C     51.15829015     54.38922213      5.46423367
 C     52.17974778     53.66876381      6.36376917
 C     53.19653846     54.61025770      7.03557716
 C     54.24360110     53.88585294      7.90188979
 C     55.12202792     54.83025363      8.74336092
 C     56.18004627     54.10685250      9.59711029
 C     57.26543741     55.03704394     10.17005877
 C     58.40002982     54.29819825     10.90382108
 C     57.94647980     53.01922459     11.63191363
 C     59.09228484     52.24356464     12.30799235
 C     58.67304870     50.87415725     12.87417646
 C     59.68869276     50.26608951     13.85922507
 C     59.08535331     49.21985957     14.81472725
 C     60.03091185     48.79148208     15.95227363
 C     59.33652871     48.01023811     17.08324220
 C     60.29061764     47.53914501     18.19651917
 C     59.57505056     47.05446792     19.47113749
 C     60.49755932     46.33391461     20.47182751
 C     61.81288896     47.08082217     20.76102818
 C     62.81011115     46.28295549     21.62158421
 C     64.25975235     46.79599102     21.53830806
 C     65.21135316     46.15398311     22.56489548
 C     66.70326530     46.41034566     22.28191774
 C     67.65025163     45.85303738     23.36091005
 C     69.14316796     46.09165002     23.06788300
 C     69.99766047     46.33314546     24.32610496
 C     71.48692391     46.59199823     24.03167391
 C     72.28944029     47.08653466     25.24945927
 C     73.79245486     47.27740968     24.97357171
 C     74.63761744     47.50689692     26.24031391
 C     76.15079216     47.61035711     25.97348392
 C     76.51006746     48.40381350     24.70346493
 C     78.02224357     48.61727357     24.50507590
 C     78.38903813     49.30191781     23.17529245
 C     79.71082393     50.09085553     23.22067493
 H     -0.36333333      0.00000000      1.02766186
 H     -0.36333333     -0.88998127     -0.51383093
 H     -0.36333333      0.88998127     -0.51383093
 H      1.88274777      0.66121586     -0.79587534
 H      1.88274777      0.62688473      0.82318862
 H      1.62962592      1.99971865      0.78003567
 H      2.95578501      1.45128994     -0.71040373
 H      4.09345398      0.66285455     -0.55091522
 H      3.97616267      1.12737222      1.16335802
 H      3.73446868      3.36799233      1.01753532
 H      3.68352357      3.51967020     -0.23253813
 H      3.57507096      3.43345639     -1.62430899
 H      5.44957924      4.07372154     -1.02893452
 H      5.54337605      5.17745970     -0.10252157
 H      4.10364256      5.61890663     -1.51847051
 H      4.20432515      5.48771924     -2.90442536
 H      6.05031688      6.00241082     -2.34577101
 H      6.63810546      6.94163089     -1.44143338
 H      5.13050617      7.86901586     -1.62949763
 H      5.01461559      7.86859782     -3.95072549
 H      6.71411266      7.34259317     -4.00813172
 H      7.38992777      9.22986976     -2.55604069
 H      5.78812868      9.94094066     -2.86730344
 H      5.78078695      9.92014263     -5.16037677
 H      7.53773224      9.63525517     -5.14459569
 H      8.33724484     11.34504577     -5.10617057
 H      6.80433762     12.11087204     -3.97467550
 H      6.83729408     12.03196574     -6.41517139
 H      8.54351645     11.53582687     -6.31068154
 H      9.14032290     13.44464892     -4.91798576
 H      7.57567206     14.17181446     -5.35543826
 H      8.12670622     13.88246943     -7.77425842
 H      9.80173795     13.56134099     -7.26493350
 H      9.66388353     15.81458158     -6.02950777
 H      8.17901558     16.10260819     -6.96784380
 H      8.52544517     15.84670371     -8.99949104
 H     10.28240327     15.95909298     -8.73732023
 H     10.81014664     17.59112674     -7.62891653
 H      9.37174573     18.29967465     -8.93628950
 H      9.30894858     18.08383129    -10.30526220
 H     11.04695747     17.72879709    -10.15848861
 H     11.86231279     19.40920694     -8.99579597
 H     11.43754956     19.67058242     -8.67642714
 H     10.48361694     19.95250894     -7.63659792
 H      9.66756313     20.98548780     -8.83462860
 H     12.06016146     21.98279734     -9.18099555
 H     12.48763958     21.11318488     -7.68791039
 H     11.13874664     21.63621743     -6.15999353
 H     10.60232056     23.05432782     -7.09245085
 H     13.17695246     23.48877500     -7.43252854
 H     13.39657198     22.79793789     -6.20387881
 H     11.64658564     24.91174472     -7.75267674
 H     13.70618757     24.78815222     -7.65594845
 H     14.38291893     25.31813422     -6.52810717
 H     12.88997091     26.24458790     -6.24340306
 H     12.25984857     27.17148441     -8.00104220
 H     13.86364515     26.92403423     -8.73239136
 H     15.15108546     27.83841972     -7.01560867
 H     13.67525449     28.56604587     -6.33682314
 H     12.86120812     29.65660323     -8.16561618
 H     14.43986602     29.46295702     -8.96474511
 H     15.99689648     30.08570094     -7.80823512
 H     14.88596865     30.99198540     -6.75336333
 H     14.03201118     32.03905822     -8.97668890
 H     15.48221304     31.32070611     -9.71773644
 H     17.09472161     32.21007721     -8.33082822
 H     15.89518743     33.37443186     -7.71954870
 H     15.21527928     34.20048002     -9.82280943
 H     16.64991639     33.43359980    -10.54528972
 H     18.33496948     34.16988169     -9.32460302
 H     17.29355411     35.44917969     -8.65593471
 H     16.28682597     36.53127765     -9.95905169
 H     17.35858680     35.99815121    -11.27638672
 H     19.42571881     36.18873420    -10.26587010
 H     19.07427769     37.21412952     -9.69302449
 H     18.96133311     35.40618269    -12.16966796
 H     19.99036191     35.18896476    -10.73363775
 H     21.29723846     36.77433551    -10.49755353
 H     21.02087387     37.28374500    -12.18052449
 H     21.58013829     34.87050480    -12.83668795
 H     22.18850863     34.68056413    -11.17473887
 H     23.60862964     36.27266309    -10.84655374
 H     23.70145092     36.56592185    -12.59973661
 H     24.11743564     34.54102805    -13.43375250
 H     24.56130959     33.96639266    -11.80862581
 H     26.03280982     36.14462458    -11.71978348
 H     26.02734188     36.11901052    -13.24438358
 H     26.31775858     34.62304620    -10.48532273
 H     26.13420823     36.39015125    -10.59448164
 H     28.04465650     36.89656833    -11.78013500
 H     28.67214449     35.27002056    -11.42115334
 H     28.47289651     35.13049339     -9.20245951
 H     28.24734297     36.89397430     -9.11569921
 H     29.95524231     37.71995421    -10.24181513
 H     30.77761904     36.14380412    -10.15398547
 H     30.52838705     36.00104225     -7.73810436
 H     30.70701500     38.00926291     -8.03363413
 H     31.61564754     38.79319018     -8.78587821
 H     32.71413649     37.39970589     -8.64520043
 H     32.48028498     37.13110348     -6.29944880
 H     31.73335860     38.74533442     -6.23143312
 H     33.77180675     39.63752811     -7.44602463
 H     34.54755217     38.07872602     -7.07640084
 H     34.31841425     37.93533589     -4.85555387
 H     33.87253364     39.68293838     -4.79691332
 H     36.12009440     37.73531665     -5.89997048
 H     34.94926674     36.88306986     -4.86502861
 H     35.40512746     38.24738186     -2.92862601
 H     36.86442798     38.83978485     -3.75794340
 H     37.89046059     36.90448152     -4.31544999
 H     36.83499488     36.03001488     -3.17985900
 H     37.46686055     37.58979055     -1.35408572
 H     38.79300309     38.14956584     -2.40111211
 H     39.40811762     35.60689244     -2.48723025
 H     38.26082936     35.42713955     -1.13827317
 H     39.05080721     36.93700792      0.34305101
 H     40.57537707     37.02197847     -0.57168032
 H     41.11194917     34.80761521     -0.69865264
 H     39.91844849     34.46172249      0.57578097
 H     40.55920863     35.93412173      2.18388963
 H     42.10655033     36.16660490      1.33538983
 H     42.33073647     33.60619012      1.41643024
 H     40.99032295     33.64425743      2.58694685
 H     43.01877262     35.34176427      3.55861599
 H     43.94831449     34.55035913      2.26327955
 H     43.56892591     32.32743878      3.01897477
 H     43.00368796     32.99731238      4.56818169
 H     45.50575799     34.23237892      3.83607145
 H     45.74632584     33.15790860      3.27415224
 H     44.64224594     34.69262601      5.69034085
 H     45.47395699     35.38101280      4.27519173
 H     47.11263950     35.01470078      3.70459863
 H     47.55275420     34.38682511      5.31094164
 H     46.76063910     36.30323423      6.50810634
 H     46.69022187     37.17976421      4.96052653
 H     49.16396642     36.47253084      4.69420980
 H     49.09029376     36.02322192      6.41495397
 H     48.47933890     37.10254766      7.74446008
 H     48.71344742     38.53948301      6.72041094
 H     50.76913885     38.34959211      5.95789446
 H     51.11880210     37.12172781      7.19819747
 H     50.27813746     38.73805871      8.94304690
 H     50.36285116     39.99193124      7.68253353
 H     52.34649137     39.93396484      6.85881955
 H     52.91110526     38.98205990      8.25286215
 H     52.40400113     39.77608898     10.04079318
 H     52.06564604     41.34846771      9.27829228
 H     54.26892243     41.36020883      8.17455448
 H     54.73753810     40.02975531      9.26016925
 H     54.32341575     40.65970936     11.26708219
 H     54.19578604     42.35010344     10.72436203
 H     55.96732056     42.78031089      9.57935138
 H     56.75437578     41.42163610     10.82951688
 H     56.68920913     41.16562919     12.23205256
 H     56.27482636     42.88917781     12.39309209
 H     57.82024081     43.91824161     11.17858138
 H     58.80100587     42.43288388     11.16969541
 H     58.82389657     42.06390006     13.48282931
 H     58.23804277     43.72773029     13.72096993
 H     60.13924544     44.56862046     12.32139807
 H     60.85971068     42.94956734     12.48832178
 H     60.80938450     42.81971944     14.82257696
 H     60.50713298     44.57282247     14.88207864
 H     62.08168409     45.47358530     13.66195166
 H     63.00694673     43.95427846     13.72410006
 H     62.69966420     44.17341614     16.30043884
 H     62.16623469     45.83730147     15.96101990
 H     63.93450770     46.61104843     14.74931543
 H     64.90196730     45.22360006     15.30363988
 H     64.72222133     45.20688597     17.47443792
 H     64.10133566     46.87475491     17.44311958
 H     65.94406894     47.71198333     16.12367893
 H     66.81266867     46.19980316     16.48020709
 H     66.49771953     46.49324819     18.89850493
 H     66.01883506     48.17392472     18.56047724
 H     67.86536724     48.82624261     17.32052557
 H     68.73181285     47.38319503     17.89944901
 H     68.58813925     47.34443586     20.03098870
 H     68.08999759     49.05323008     20.04298190
 H     69.39555648     50.21641036     18.92670743
 H     70.61687684     48.92208407     18.96362257
 H     70.62562304     48.56982374     21.27881854
 H     69.75477521     50.10866554     21.48340747
 H     71.22573232     51.46062776     20.25994348
 H     72.43172012     50.15324548     20.32785271
 H     72.68424191     49.53623398     22.32488670
 H     71.89473077     51.02264548     22.90412731
 H     72.95253248     52.65319630     21.87350879
 H     74.26748916     51.53292464     21.44438523
 H     74.41183235     50.91958125     23.90321977
 H     73.39426398     52.34690554     24.21235831
 H     74.67007454     53.94152909     23.12217998
 H     76.02909153     52.79264703     23.08463694
 H     76.41584459     52.00929225     24.95184182
 H     75.47319700     53.30941536     25.71954105
 H     76.24328888     55.16930691     24.88925867
 H     77.68409844     54.31352628     24.28928033
 H     78.17330108     53.34582465     26.46936935
 H     77.01958002     54.50462770     27.17248376
 H     78.29134237     56.36900562     26.05921021
 H     79.58565684     55.18314594     25.76467067
 H     79.75584886     54.53201277     28.08029936
 H     79.52317909     56.58822580     28.06596459
 H     80.20114870     57.52067118     27.34896784
 H     81.44182642     56.24855340     27.24551819
 H     81.77591934     55.46062397     29.18203177
 H     80.96627465     56.86714975     29.91307717
 H     81.60598002     58.64322565     29.26369079
 H     83.08774691     57.90414952     28.61069766
 H     83.10788100     56.98257722     31.15946893
 H     81.83015140     58.19650806     31.40855855
 H     83.79077444     59.75873493     30.43478209
 H     84.82225411     58.33554585     30.71558311
 H     84.30971758     58.04597668     32.99134384
 H     83.60037452     59.67844780     33.00305349
 H     85.58171478     60.71842286     32.08306168
 H     86.46803322     59.21835868     32.44708603
 H     86.15278809     58.71369936     34.47868608
 H     85.56290753     60.35923388     34.81413161
 H     86.95849159     61.75879457     34.07008396
 H     88.19838070     60.48717535     33.95207458
 H     87.60850360     60.01213102     36.43453124
 H     86.73872081     61.56447649     36.39016778
 H     88.66653632     62.80213391     35.61005335
 H     89.67075821     61.39730524     36.04163355
 H     88.84544140     61.29952961     38.31183998
 H     88.16376694     62.92644880     38.07367924
 H     89.11709505     64.34473412     37.40178506
 H     90.65236476     63.53475563     37.79567389
 H     90.41424573     62.92555319     39.90772518
 H     89.02423056     64.02559946     40.06904074
 H     90.42543175     65.89761174     39.17884773
 H     91.83819116     64.84731788     39.44202129
 H     91.87456294     64.11958862     41.38317589
 H     90.70834236     65.36273355     41.89580337
 H     91.50483602     67.25834056     41.19269265
 H     93.09557713     66.50307172     40.93311920
 H     93.55592945     65.49957508     42.83383737
 H     92.28000470     66.44026593     43.64339493
 H     92.49455414     68.46915042     43.24861245
 H     94.16771562     68.20863602     42.70004194
 H     95.21483799     67.09687544     44.14936947
 H     93.96086487     67.45779704     45.35997002
 H     93.44679805     69.35914710     45.53772294
 H     94.93345699     69.87090662     44.70332851
 H     96.61796854     69.15276126     45.24642264
 H     95.93145388     68.63869906     46.80613555
 H     95.12360928     71.14362515     46.89783317
 H     96.23857945     71.39824877     45.53391418
 H     98.10582008     70.44700177     46.89185116
 H     97.04318634     70.61239063     48.31020327
 H     96.67320209     73.00303980     47.82923486
 H     98.04198304     72.90995409     46.69519764
 H     99.70726736     72.07885416     47.73848149
 H     98.91145846     72.40273793     49.29734459
 H     98.18718004     74.15228126     49.62876960
 H     99.17228226     74.84315671     48.31707932
 H    101.17336842     74.23902337     48.54621323
 H    100.85626930     73.75986439     50.23088574
 H     99.87060198     75.85861756     50.85067323
 H     99.93500883     76.45474645     49.65591820
 H    100.16942322     76.83244713     48.29929358
 H    101.88719745     76.91648357     48.75804867
 H    101.95914506     78.08855497     50.58874156
 H    100.30581193     78.67509240     50.28752723
 H    100.12377478     79.42746798     48.36212619
 H    101.89422789     79.53147603     48.21065082
 H    102.20342994     80.75372760     50.24801169
 H    100.45297426     81.07617517     50.26212388
 H     99.97581150     81.71660937     48.18209103
 H    101.30630101     82.29887591     48.03424652
 H     98.81106756     81.82247803     49.90347521
 H     98.81373907     81.34769590     48.18800400
 H     99.08990143     83.52981822     47.31285127
 H     98.66839348     84.18192730     48.91452273
 H     96.62480478     82.97720220     49.12679429
 H     96.71380492     82.60835150     47.38774432
 H     96.93847012     85.23877341     47.21276676
 H     96.43479976     85.24098969     48.91998026
 H     94.43309256     83.99317379     48.56813847
 H     94.60349418     84.29942229     46.82301904
 H     94.70634822     86.81689513     47.83567519
 H     94.14735969     86.03184369     49.33216867
 H     92.48603001     84.91758272     49.10846624
 H     92.12068026     85.72084128     47.56264545
 H     92.18827201     87.74225265     47.66499698
 H     92.08837958     87.68349689     49.44118276
 H     90.19814037     86.28390533     49.57315443
 H     89.89385022     86.59374054     47.84698053
 H     90.12080220     89.05631862     49.30536377
 H     90.02743042     87.91671594     50.66949503
 H     87.76256356     87.24038122     49.49018580
 H     87.99579193     88.72191037     48.53157088
 H     88.17937210     90.09627841     50.56349883
 H     87.53502438     88.70863142     51.47317928
 H     85.57983716     88.78562660     49.77942102
 H     86.21699209     90.37937634     49.30797426
 H     86.15407476     91.23011673     51.58325363
 H     85.13581351     89.83447250     52.01172517
 H     83.54978602     90.40109075     50.18714010
 H     84.36265406     91.98105100     50.08113150
 H     84.07494541     92.47432552     52.42788944
 H     82.90020855     91.13940301     52.50689508
 H     81.97680643     92.75416985     50.46083419
 H     83.18084518     93.89147595     51.11282514
 H     83.45272498     94.43400816     52.72234929
 H     81.79093587     93.97692014     53.16708984
 H     80.61985498     94.98493989     51.48379936
 H     82.06234101     95.94565888     51.07818902
 H     82.51521709     96.81222449     53.17891880
 H     80.88865684     96.31727519     53.70579032
 H     79.76272775     97.42922684     51.89166709
 H     81.27652175     98.30457607     51.55931464
 H     81.94310465     99.20794350     53.36144492
 H     80.33528676     98.97953608     54.09015499
 H     78.94060384     99.83443913     52.60548977
 H     80.29959396    100.65337830     51.79879828
 H     81.52346168    101.69040407     52.86407020
 H     80.34606349    101.76955318     54.19663749
 H     78.79381876    102.61471711     52.18922854
 H     79.29025388    102.34019717     51.46516496
 H     79.89672707    101.59444572     50.48719364
 H     81.14361908    102.86303895     50.55198714
 H     78.73145531    104.21950469     50.30297656
 H     78.11501517    102.58886877     49.94340082
 H     79.26891544    101.78136382     48.34412114
 H     79.88674878    103.40355224     47.95035297
 H     77.55820180    104.27893321     47.85773463
 H     77.01123398    102.58520447     47.83834886
 H     78.84727635    102.35214545     45.92437617
 H     78.62527697    103.65603648     45.62910565
 H     77.63852393    100.83778735     46.41705136
 H     79.31357315    101.28604772     46.01513171
 H     79.61587409    101.98988215     44.19552067
 H     78.05953870    101.32354670     43.64589911
 H     77.51210383     99.60151690     43.98201795
 H     79.18830386     99.10453379     44.31612559
 H     80.34160995     99.85277231     42.59647062
 H     78.83193382    100.09017190     41.68389949
 H     77.89252806     98.00872786     41.93067900
 H     79.46755109     97.38445103     42.47643313
 H     80.65022585     98.23159562     40.54209874
 H     79.07132456     98.48900820     39.76166545
 H     78.29034801     96.25940673     40.08672659
 H     79.95933534     95.78088739     40.47885817
 H     80.60779204     96.84509425     38.23195918
 H     78.86481879     96.86373012     37.87145449
 H     78.38180744     94.63819015     38.23372849
 H     80.12420405     94.27661843     38.19389652
 H     80.74554887     95.22939182     36.24170052
 H     79.03505880     95.33507901     35.76074253
 H     77.94036686     93.74635082     35.90552143
 H     79.38989509     92.71610250     35.98117170
 H     80.36650013     93.70633965     33.98915291
 H     78.77720937     94.42964455     33.64382473
 H     77.50944422     92.46557765     33.74793037
 H     79.01801966     91.52511113     33.65854612
 H     80.16872694     92.16033512     32.03270015
 H     78.75556854     92.97956475     31.32551361
 H     77.22877005     91.27566343     31.37645575
 H     78.55317438     90.12103622     31.66115880
 H     79.86745271     90.82221278     29.79709759
 H     78.44134534     91.68773602     29.17632874
 H     76.83334975     90.20454371     29.14939109
 H     78.02937649     88.89686553     29.31601785
 H     79.41766327     89.53056871     27.53282180
 H     78.12298927     90.60483071     26.95140366
 H     76.43779564     88.90231177     26.92717868
 H     77.73118673     87.68927790     27.08195261
 H     79.22539978     87.76056804     25.87427011
 H     78.30401644     88.78176547     24.74445808
 H     76.39039289     87.66086583     24.49581730
 H     77.14813461     86.21662134     25.20873524
 H     78.94996911     85.78810044     24.25949169
 H     78.50532959     86.83810113     22.89272144
 H     76.31729875     85.37097312     22.91209005
 H     77.22481625     84.29726555     24.00380004
 H     79.09092969     83.93232288     22.68747061
 H     78.20312511     84.58587242     21.28999335
 H     76.31156547     83.16343758     21.51905699
 H     77.97988371     81.98596002     21.85427872
 H     79.09976097     81.86688018     21.11036319
 H     78.05177435     82.48665551     19.81195291
 H     76.32419810     80.78868323     20.37383328
 H     77.29608696     80.08512116     21.43854219
 H     78.54299989     79.63292159     22.01759348
 H     79.04324725     79.25109616     20.35259241
 H     77.28795241     78.09063542     19.57316303
 H     76.69672613     77.87900553     21.23867524
 H     79.24712805     76.96577709     21.43788244
 H     79.20115678     77.01865714     19.65929958
 H     77.47583448     75.85579201     19.05802973
 H     77.38831239     75.12898813     20.68048549
 H     79.24970584     74.37084818     21.23952943
 H     79.80579827     74.43060176     19.54971957
 H     78.37759931     73.47809376     18.31879782
 H     77.63670675     72.70870849     19.74266270
 H     79.42880624     71.77023533     20.74490410
 H     80.37014086     71.99627591     19.25123029
 H     79.14380330     71.11270231     17.66453935
 H     78.15638229     70.27651912     18.88685848
 H     79.70143934     69.24123940     20.13823485
 H     80.91176596     69.51931891     18.86306901
 H     80.35782353     68.96424490     17.03047984
 H     79.05210870     67.95553071     17.69821567
 H     80.34164827     66.85426788     19.35232491
 H     81.69592204     67.20742371     18.50682778
 H     78.70991134     66.10084145     18.36558468
 H     79.40649735     66.42967596     19.97023494
 H     81.18769408     64.82690518     19.72515943
 H     80.31498926     64.15125668     18.32868098
 H     78.33171999     63.72167567     18.87703144
 H     79.45253064     63.10590277     20.50255555
 H     80.61617012     62.27563767     20.38516620
 H     79.97254238     61.81698518     18.79028442
 H     77.82009920     61.29527480     19.34221247
 H     78.28990708     61.24254678     21.05824481
 H     80.12153312     59.67410074     20.59468553
 H     79.39405269     59.40832202     18.99206251
 H     77.33323858     58.89550288     19.30072398
 H     77.66069753     58.55872774     21.01758735
 H     79.49866135     57.06712690     20.55400654
 H     78.96001050     57.01912134     18.85818302
 H     76.69980197     56.38644707     19.41040162
 H     77.26761234     55.99888721     21.05224675
 H     78.98026864     54.62061101     20.68849592
 H     78.43366134     54.38916231     19.01042601
 H     76.38058966     53.86293600     19.03041523
 H     76.48056094     53.46983693     20.76354694
 H     78.33500712     52.02870995     20.62757551
 H     78.10638067     51.95913570     18.86372857
 H     75.65943843     51.26431391     19.53682233
 H     76.32632168     51.05504409     21.17381333
 H     78.03892897     49.47709821     20.11227686
 H     76.99890614     49.50226454     18.66798263
 H     75.00028640     48.93436063     19.45312751
 H     76.15370165     47.91413037     20.75257217
 H     77.29580004     47.09006651     20.67332935
 H     76.78326509     46.79165667     18.99507843
 H     74.51114587     46.26096649     19.59178549
 H     75.04548118     46.11880254     21.28369029
 H     76.64754071     44.88779861     21.51445325
 H     76.36600470     44.17542560     19.90773957
 H     74.23933247     43.61357050     19.91181073
 H     74.19620810     43.77770418     21.68366487
 H     76.31994604     42.05811525     21.13082940
 H     74.85152659     41.73124763     19.73068442
 H     73.50648754     41.46613329     19.81180125
 H     73.90740148     40.87652017     21.44271849
 H     75.62421497     39.54802571     21.16924593
 H     75.29853373     39.47823329     19.42072444
 H     73.22208246     38.95937343     19.18663350
 H     73.15144750     38.42753956     20.88381649
 H     75.09016524     36.96925621     20.63085471
 H     74.91809324     37.15372823     18.86885926
 H     72.90423398     36.67370423     18.35015150
 H     72.66887354     35.88803036     19.92989474
 H     74.90975275     34.64786969     19.03098996
 H     74.48321489     35.41571874     17.48284916
 H     72.22957556     34.36022074     17.57058414
 H     72.86091543     33.31707402     18.86731910
 H     74.64923386     32.39738227     18.17709911
 H     74.23835888     32.82139357     16.49791394
 H     72.45503772     32.38555153     15.86075355
 H     72.22557012     31.23161639     17.19643501
 H     73.80351541     29.93296810     17.37794994
 H     74.36271604     30.34308645     15.73863171
 H     72.54403199     30.09192151     14.48821386
 H     71.76381555     29.18688466     15.80747019
 H     73.86469328     27.70658027     15.79873623
 H     74.26111077     28.48185146     14.24629479
 H     72.20193986     27.98477012     13.18082380
 H     71.85723341     26.82053557     14.48236213
 H     74.07729723     25.72854147     14.02763601
 H     74.12157380     26.66469294     12.51438565
 H     72.05905021     26.00683635     11.65472540
 H     72.01692026     24.68465588     12.84566223
 H     73.99009135     23.67204704     12.52242712
 H     74.16892362     24.52853345     10.97235722
 H     72.18934326     24.02853015      9.97074126
 H     71.92408518     22.74005580     11.16979866
 H     74.15220131     21.77044736     10.65053171
 H     74.17694180     22.80978872      9.20573964
 H     72.03904885     21.99749699      8.40188836
 H     72.17333282     20.66262583      9.57165478
 H     74.20058911     19.81178779      9.08572388
 H     74.19709177     20.70498384      7.54609560
 H     71.99503807     19.75646817      6.94508862
 H     72.22658949     18.58292265      8.26320907
 H     74.27533689     17.73351188      7.69534299
 H     74.10631059     18.45563555      6.07724714
 H     71.87886179     17.30500293      5.85325567
 H     72.34325645     16.33623089      7.27244030
 H     74.30520250     15.48855645      6.75009891
 H     74.03055503     15.89899448      5.04001820
 H     72.22195017     15.23458724      4.35525064
 H     72.07589219     14.12516726      5.73949087
 H     73.71991464     12.98262213      6.03934466
 H     74.30101638     13.33784927      4.39483832
 H     72.56488455     12.88448891      3.10141377
 H     71.85995628     12.82221801      3.62709647
 H     70.78803394     13.07217729      4.48921722
 H     71.13534776     11.45038874      5.13531448
 H     71.48395918      9.97387291      4.36597165
 H     70.71597168     10.56497947      2.87296967
 H     68.91290810     11.39339096      3.12600869
 H     68.75763448     10.63676133      4.72965091
 H     69.27410558      8.43293117      4.01951457
 H     69.03111840      8.96288016      2.33773635
 H     66.78599850      9.84494172      2.90105327
 H     66.99358533      8.06297724      3.93142981
 H     67.37900577      6.83658316      3.37437122
 H     66.86126758      7.55285183      1.82932332
 H     64.89148478      8.39633629      2.18928455
 H     64.89424917      6.52773844      3.07511795
 H     65.31664699      5.38171209      2.36730458
 H     65.02163827      6.35451463      0.90617771
 H     63.04119955      7.22121316      1.15936415
 H     62.69164472      6.06063795      2.46287605
 H     63.16211124      4.09649337      1.65116283
 H     63.16586058      4.76996482      0.00353156
 H     60.79335904      5.65998088      0.71720996
 H     60.95608249      4.55084734      2.09982001
 H     61.39439696      2.68148684      1.68820605
 H     60.89157626      2.90373913     -0.00473280
 H     59.02503489      3.78340242     -0.12752876
 H     58.70007520      3.38791122      1.57724530
 H     59.08233761      1.40822575      1.99058430
 H     59.06511230      1.01660029      0.25432411
 H     56.86131830      2.12741361     -0.00280468
 H     56.74046157      2.11983123      1.77303395
 H     57.00969397      0.69750673      2.84252129
 H     56.74917713     -0.41039366      1.47396206
 H     54.79052793      0.39120499      0.63793166
 H     54.54034057      1.30870413      2.14254732
 H     54.86969926     -0.80497161      3.45068124
 H     54.69404205     -1.67862923      1.90985888
 H     52.63176836     -0.73879535      1.27774094
 H     52.43422209     -0.14179870      2.94292475
 H     52.78899401     -2.29637384      3.95449753
 H     52.56922410     -3.02818074      2.34688237
 H     50.55916066     -2.11270067      1.75168728
 H     50.29799600     -1.62880491      3.44458556
 H     50.72672314     -4.00494207      4.14366272
 H     50.55930402     -4.44201910      2.42633888
 H     48.37715793     -3.37525064      2.23929501
 H     48.40993932     -4.38424787      4.04549543
 H     48.76134186     -5.72779521      4.18411855
 H     48.38872412     -5.83808412      2.44709263
 H     46.24204683     -4.74619348      2.67581705
 H     46.36763401     -4.99455725      4.43388701
 H     46.74030231     -7.48826415      3.81227526
 H     46.18704813     -7.03005601      2.18371093
 H     44.09791498     -6.08372538      3.11764255
 H     44.49185508     -6.91985827      4.63881304
 H     44.44633259     -8.70515578      2.35362640
 H     43.72702746     -7.24757449      1.62814477
 H     42.02978753     -6.71494716      2.84689010
 H     42.04898067     -8.32831103      3.59852519
 H     42.07100433     -9.71341113      1.86214288
 H     41.58483273     -8.37691748      0.79177445
 H     39.90413215     -7.40539605      1.57467159
 H     39.79463565     -7.70008704      2.43916069
 H     39.93602253     -7.86524444      3.77397196
 H     39.23764566     -9.46835030      3.44142417
 H     37.44498854     -8.97843482      2.19479067
 H     37.56790571     -7.27513309      2.69670824
 H     37.64810096     -7.49684190      4.95942750
 H     37.08037562     -9.17636267      4.80079400
 H     35.26540986     -9.01849721      3.55032516
 H     35.20877339     -7.26522428      3.85214137
 H     35.32322457     -7.22390223      6.12863058
 H     34.93727819     -8.96115449      6.16422061
 H     32.95709964     -8.62231872      6.45625884
 H     32.89533776     -7.29497958      5.04736111
 H     32.98788313     -6.53225999      6.84994590
 H     32.68585379     -8.12948334      7.57515107
 H     30.70250189     -8.47516627      6.15809509
 H     30.77375691     -6.74135679      5.76174416
 H     30.80094077     -5.86082236      7.88730785
 H     30.28106290     -7.43914484      8.52518856
 H     28.37196010     -7.03987260      6.68569392
 H     29.00689548     -5.37768990      6.63802441
 H     29.24917831     -4.34114660      8.14326575
 H     28.13604279     -5.37621315      9.06945861
 H     26.39759377     -5.76738436      8.18735265
 H     26.62704577     -4.40617053      7.06364657
 H     27.12177273     -2.68468914      8.27751565
 H     26.53870799     -3.52989972      9.73144869
 H     24.76201334     -4.35408177      9.62688078
 H     24.35302461     -3.36593871      8.20400757
 H     25.11422459     -1.36975639      9.69228321
 H     25.05746548     -2.52805131     11.04261574
 H     23.06933380     -3.40598030     10.99457546
 H     22.50929198     -2.09906692      9.92378265
 H     23.59110365     -0.68276351     11.96122759
 H     23.60482725     -2.25343233     12.79853148
 H     21.25891820     -2.66011834     12.49071047
 H     21.07354827     -0.94827364     12.03960920
 H     21.88869140      0.32343595     13.40984079
 H     21.92629337     -0.97230642     14.62963769
 H     19.67734354     -1.63129776     14.42154946
 H     19.35609697     -0.12545288     13.52852174
 H     20.33976460      1.21989710     15.35714875
 H     20.25734128     -0.24055342     16.37132692
 H     18.28350105     -1.00513497     16.30813390
 H     17.68759710      0.53920520     15.65378035
 H     18.54961749      2.01390935     17.14722430
 H     18.88104303      0.66886456     18.26493549
 H     16.90728323     -0.37209648     18.39299655
 H     16.11589143      1.04944602     17.67106677
 H     16.58158985      2.79240073     18.57754525
 H     17.18290261      1.92046511     20.00807588
 H     15.38200496      0.55245212     20.41686019
 H     14.39516862      1.56128813     19.33211570
 H     14.83897868      3.63005713     20.31082835
 H     15.49332399      2.78361140     21.73337133
 H     13.46330176      1.44100137     21.99299741
 H     12.66080629      2.55899237     20.86412017
 H     13.66047830      4.22344050     22.80627584
 H     13.92483188      2.69710359     23.68301954
 H     11.49183512      2.15579062     23.41686604
 H     11.26008013      3.85289379     22.93272027
 H     12.37560476      4.57362181     25.06357340
 H     12.18371135      2.89498152     25.62358266
 H     10.01147546      2.50222517     25.33960685
 H      9.72039200      4.24985422     25.16834735
 H     10.49261833      5.39852606     26.58475055
 H     10.68318648      3.99449761     27.66208733
 H      8.08434952      3.75323869     26.97976825
 H      8.28839757      5.40005060     26.33584154
 H      9.05147652      6.68823279     27.74371814
 H      8.62934627      5.55289855     29.04797611
 H      6.73799445      4.87997105     28.98356397
 H      6.27257622      6.20616934     27.89138696
 H      6.76035947      7.99997067     28.31348989
 H      7.04623509      7.55546341     30.01318253
 H      5.20103465      6.47201634     30.59421069
 H      4.37175338      7.11447478     29.15622377
 H      4.77802254      9.33481623     29.36176849
 H      5.26710686      9.07644842     31.05360455
 H      3.44065325      7.92753410     31.82768278
 H      2.53431014      8.43062530     30.38071766
 H      2.99884630     10.76835789     30.65871104
 H      3.54012718     10.41169036     32.31644140
 H      1.83234051      9.28772159     33.18980877
 H      0.79033062      9.83823566     31.85586112
 H      1.15618529     12.09354975     31.95306582
 H      1.87823566     11.88944827     33.56714528
 H     -0.29775421     10.65783969     34.18045487
 H     -0.95779947     11.31867975     32.66523299
 H     -0.62796636     13.46744660     32.75978697
 H     -0.32168615     13.35120001     34.50934286
 H     -2.43755045     12.13925739     34.86498929
 H     -2.86034012     13.50600213     33.38143351
 H     -2.59273909     14.89777805     33.37723254
 H     -2.52007156     14.74612183     35.14923324
 H     -4.24696381     13.66269736     35.78633383
 H     -5.02642420     13.95067175     34.21223760
 H     -4.95327970     15.97850065     33.72519265
 H     -4.57525808     16.39278455     35.41449286
 H     -6.50705592     15.09943822     36.23184812
 H     -7.09374062     15.05430347     34.55195807
 H     -7.11647985     17.13619167     33.88869876
 H     -6.98673234     17.68199557     35.57793834
 H     -8.57272307     16.63177915     36.65199729
 H     -9.35273783     16.21685192     35.10678564
 H     -9.55599014     18.02933688     33.98036625
 H     -9.26209823     18.99088632     35.44914700
 H    -10.62964917     18.23347632     36.95274651
 H    -11.57771727     17.41235624     35.68973609
 H    -12.10252889     18.49653675     34.13561525
 H    -11.78413618     19.99827557     35.03654436
 H    -13.22958270     19.14575733     36.90185947
 H    -13.80191772     17.90012188     35.76647777
 H    -14.48092558     18.92765125     33.99808154
 H    -14.52044906     20.46574748     34.89304777
 H    -15.83015340     19.68389867     36.70239788
 H    -16.24219360     18.24965666     35.73211988
 H    -17.00772022     19.33234362     33.82439858
 H    -17.09635444     20.84816487     34.75321319
 H    -18.52489400     19.50925632     36.43039322
 H    -18.36896530     18.44167563     35.97293680
 H    -17.87977915     17.28564593     35.57397528
 H    -18.97525584     17.57967240     34.20220784
 H    -20.65750805     18.13278153     34.26419740
 H    -20.78872229     17.60553810     35.95920886
 H    -19.78789765     15.40283046     34.61189893
 H    -20.23708137     16.35626558     33.17751331
 H    -22.49910243     16.68115124     33.74956697
 H    -22.33403236     15.40300247     34.97731053
 H    -21.53618666     13.68466476     34.24011295
 H    -21.88820961     14.20374302     32.57430856
 H    -23.99470520     14.78831408     32.58285743
 H    -24.22739775     13.94853889     34.13492008
 H    -23.25577661     11.87329158     33.25727025
 H    -23.41601238     12.57002694     31.62719326
 H    -25.91805891     12.88958961     32.32979052
 H    -25.52643957     11.81363353     33.69258890
 H    -24.67063102     10.06655862     33.11965408
 H    -24.58502070     10.19991696     31.88262068
 H    -24.48282713     10.59767484     30.55745154
 H    -26.24402472     10.34246505     30.52115190
 H    -25.99968742      8.10538205     31.53227422
 H    -24.26016071      8.21448296     31.17115034
 H    -24.14422202      8.69377721     29.03890596
 H    -25.84804171      8.22099886     28.83458816
 H    -25.64169946      6.08674265     29.84836654
 H    -23.79229194      6.31283199     29.04815507
 H    -23.23914055      6.72649877     27.85614790
 H    -24.80655302      6.24135801     27.16613106
 H    -25.32875842      4.33123149     27.84841487
 H    -23.65227914      4.03614796     28.36861636
 H    -22.51008492      4.56770057     26.47659441
 H    -24.03122712      4.49742042     25.55493625
 H    -24.87004599      2.50841763     26.09266531
 H    -22.86262039      2.22736619     25.69183267
 H    -22.12056747      2.62718664     24.69049866
 H    -23.70796487      2.71471647     23.89001463
 H    -24.29677992      0.44550216     24.60930182
 H    -22.58373909      0.20941665     25.03122769
 H    -21.65974813      0.82048603     22.97427787
 H    -23.27615300      0.68176748     22.24198072
 H    -23.42058616     -1.65638804     23.19457790
 H    -21.67313211     -1.52907480     23.50836502
 H    -20.79355851     -0.96543879     21.57669198
 H    -22.29815041     -1.43573126     20.75007547
 H    -22.05124994     -3.68633684     21.97233914
 H    -20.39512143     -3.15992802     22.35756475
 H    -19.43340151     -2.60800846     20.53868115
 H    -20.68748733     -3.45405241     19.60073390
 H    -20.35042942     -5.51510256     20.92746538
 H    -18.84871143     -4.78205794     21.54045424
 H    -18.13432077     -4.43632387     19.13754093
 H    -19.46017495     -5.53652861     18.69040908
 H    -19.31811133     -7.31957104     19.76622535
 H    -17.63059078     -6.95098363     20.19597456
 H    -16.54251232     -6.44710636     18.48456281
 H    -17.80633492     -7.15147038     17.44779358
 H    -18.36858295     -9.00783887     17.96727976
 H    -16.89620045     -9.21110947     18.94658437
 H    -15.54054067     -8.49506318     16.94467552
 H    -17.01945114     -8.72655778     15.98160711
 H    -16.95155627    -11.12810791     17.05274857
 H    -15.29775452    -10.69905551     17.55186829
 H    -14.31445254    -10.08354733     15.66506375
 H    -15.63036028    -10.83766575     14.73342062
 H    -15.48442742    -12.95851613     15.82104667
 H    -13.90882991    -12.45878513     16.48137087
 H    -12.68103445    -11.78324452     14.90034162
 H    -13.75464793    -12.55867538     13.71108650
 H    -13.99120200    -14.62007964     14.40994320
 H    -12.58952446    -14.42059297     15.48872576
 H    -11.12304366    -13.62076104     13.76860522
 H    -12.30528066    -14.18983635     12.56580198
 H    -12.48529080    -16.39726453     13.34198407
 H    -11.01379568    -16.14077471     14.31006555
 H     -9.61872478    -15.36573627     12.62413010
 H    -10.78770114    -15.95966147     11.42038021
 H    -11.07297558    -18.10101593     12.05960800
 H     -9.61442557    -17.98364786     13.07307890
 H     -8.36010703    -17.15570655     11.04155377
 H     -9.75454059    -17.70296117     10.08013083
 H    -10.14506885    -19.73725642     10.56989910
 H     -8.53563329    -19.88305996     11.31603930
 H     -7.79089055    -18.73851267      9.01086299
 H     -9.14171584    -19.26509005      8.43231964
 H     -6.53951313    -19.93440597     10.12652145
 H     -6.68499508    -18.36231588      9.30455160
 H     -6.85254802    -18.86954764      7.16754062
 H     -6.26852055    -20.51572645      7.50999336
 H     -4.36086849    -20.04674915      8.67441849
 H     -4.44471479    -18.37242450      8.13959343
 H     -4.73535538    -17.36963519      7.16119376
 H     -4.22151330    -18.57758936      5.95907907
 H     -2.30710762    -19.34210280      6.69285894
 H     -2.17604211    -17.96001091      7.80682056
 H     -2.56052757    -16.42517815      5.84045565
 H     -2.26333046    -17.84034187      4.80254806
 H     -0.21176597    -18.48901436      5.65324753
 H     -0.07442645    -16.90869310      6.46070604
 H     -0.62641540    -15.74054774      4.31774887
 H     -0.19838263    -17.11861416      3.52342515
 H      0.57612112    -14.98610927      5.76186871
 H     -0.86067629    -14.66918064      4.76015213
 H      0.76010855    -14.63576082      2.76368984
 H      2.06245563    -14.55493213      3.97432003
 H      1.45083502    -12.78538818      5.21777027
 H      0.30745635    -12.29540276      3.94463784
 H      1.49866432    -12.25739908      2.10074238
 H      2.99596180    -12.27980267      3.06296116
 H      2.67041131    -10.58709606      4.50161485
 H      1.33514588     -9.99064359      3.48693394
 H      2.80165211     -9.99908304      1.48985650
 H      4.18012428    -10.18478871      2.60052952
 H      3.29961506     -8.09492360      3.79289205
 H      2.25641842     -7.86179605      2.36963558
 H      4.27122353     -7.94582122      0.89345063
 H      5.25108719     -7.75952469      2.36770552
 H      4.08311991     -5.76103352      3.07789522
 H      3.38593138     -5.65793767      1.44340262
 H      5.30462306     -5.74941503      0.18771165
 H      6.25651586     -5.40833945      1.65257827
 H      4.94692421     -3.42540287      2.19106294
 H      4.27672985     -3.49860855      0.54371747
 H      6.44129001     -3.54220918     -0.52087828
 H      7.15368300     -3.04225668      1.03180018
 H      5.72390505     -1.12932698      1.29262074
 H      5.26715946     -1.30211104     -0.41904389
 H      7.96823108     -1.20125371     -0.59734240
 H      7.87317422     -0.67891913      1.10159770
 H      6.47937044      1.08050976      0.98383853
 H      6.70894303      1.13475244     -0.78042359
 H      8.63395434      1.13313871     -1.36410083
 H      9.16006442      1.60133634      0.27060582
 H      7.71694721      3.44534205      0.51831082
 H      7.40473198      3.38992923     -1.23317933
 H      9.74125563      3.45190555     -1.82802509
 H     10.09819615      3.93777289     -0.15327345
 H      8.38692319      5.82834806     -0.54993573
 H      8.50072371      5.40288974     -2.27455201
 H     10.81289626      5.57454067     -2.50700137
 H     10.87583701      6.43829693     -0.95193538
 H      9.13886027      8.03718509     -1.88465713
 H      9.49108210      7.32625482     -3.47801352
 H     11.79552834      7.64096233     -3.48881143
 H     11.61987741      8.76849482     -2.12276461
 H     10.03553815     10.18770808     -2.96487458
 H     10.33262533      9.52669253     -4.59062497
 H     12.60177789      9.76276579     -4.72438913
 H     12.55330698     10.86005252     -3.32371819
 H     11.01125896     12.36394062     -3.92039191
 H     11.12401755     11.80393338     -5.60619856
 H     13.32395320     11.89652214     -6.01079944
 H     13.54247057     12.90670443     -4.56164501
 H     11.82784322     14.49640096     -5.30014379
 H     11.91474943     13.73691624     -6.90759424
 H     14.25847325     13.96718937     -7.17368127
 H     14.25891336     15.11360688     -5.81206703
 H     12.71328297     16.60065647     -6.36951392
 H     12.74637964     16.00573974     -8.04678711
 H     15.34378264     16.46031640     -7.75049027
 H     14.86202278     17.33312059     -6.27591001
 H     13.39475653     18.77400619     -6.78585880
 H     13.82657160     18.63004391     -8.50663690
 H     15.86751592     18.81731975     -8.78771288
 H     16.04914526     19.53135191     -7.16739331
 H     15.25265972     20.68029974     -6.29859109
 H     14.63359258     21.38054118     -7.81341269
 H     16.26299315     22.44107766     -8.43333679
 H     17.52372801     21.22312414     -7.34045616
 H     16.13526626     23.22426524     -6.50620529
 H     15.79158508     23.54784435     -8.22243559
 H     17.73743193     23.65013435     -9.20194578
 H     18.53281777     23.82218258     -7.61890205
 H     17.48411995     25.45385538     -6.61472295
 H     16.76766739     25.95561540     -8.16494850
 H     19.13190176     25.99026815     -9.10996190
 H     19.69244157     25.88713594     -7.42371591
 H     18.80897092     27.39135047     -6.27430435
 H     18.34406189     28.27417351     -7.74832937
 H     19.38697019     28.63983992     -9.14874460
 H     20.84332854     28.39090853     -8.15611164
 H     19.95396720     29.92716684     -6.42077129
 H     18.74659689     30.45150898     -7.61893193
 H     20.28938387     31.00456091     -9.32492734
 H     21.59153030     30.94045553     -8.11308088
 H     21.45541985     31.86348789     -6.48139772
 H     20.17884657     32.91108721     -7.14559873
 H     21.47667367     33.48626927     -9.11430130
 H     22.90597008     32.81258365     -8.29483432
 H     23.09826492     33.68121587     -6.38875069
 H     22.66888571     35.23891699     -7.68039750
 H     23.26739256     35.50007012     -8.87318968
 H     24.58433133     34.50611778     -8.20535908
 H     24.81373458     35.50891265     -6.14545435
 H     23.85384251     36.88767441     -6.73357840
 H     24.95919834     37.42179223     -8.63825347
 H     26.33743884     36.43123396     -8.10205004
 H     25.96783158     38.07397300     -5.96814871
 H     24.90899247     38.96814818     -7.08509864
 H     26.81051364     39.16268685     -8.70072691
 H     27.87530250     38.64125351     -7.37309796
 H     27.44376458     39.99684516     -5.71512188
 H     26.62646102     41.11445468     -6.83370603
 H     28.98705422     40.82374821     -8.08868617
 H     29.50367422     40.06542372     -6.56346015
 H     28.95158187     41.77531013     -5.10484130
 H     28.79800527     42.87752097     -6.49401810
 H     31.30729723     41.82601721     -6.81428398
 H     31.04615937     41.23167499     -5.15692735
 H     30.62099979     43.74576202     -4.60914502
 H     31.30901440     44.07277594     -6.21786018
 H     33.34595734     42.70955932     -5.34739330
 H     32.60304865     42.87766023     -3.73863743
 H     32.37440618     45.17065472     -3.66649207
 H     34.09394647     44.96544599     -4.74954437
 H     35.25370284     44.17279897     -4.53548365
 H     34.76298786     44.16294664     -2.82452825
 H     34.40061391     46.40883138     -2.50716282
 H     35.27197567     46.74332064     -4.02278556
 H     37.22037968     45.55867656     -3.56239962
 H     36.73689113     45.48342039     -1.85101363
 H     36.37763745     47.78895179     -1.54986237
 H     37.24488412     48.08691557     -3.07543356
 H     39.14952902     47.02621751     -2.86857338
 H     38.89078372     46.89375509     -1.11250640
 H     38.46645519     49.14592857     -0.67449023
 H     39.11647034     49.54991420     -2.28151934
 H     41.17783198     48.41125793     -2.01906532
 H     40.85324751     48.31149922     -0.27179322
 H     40.44141141     50.54498319      0.15388515
 H     41.15276098     50.95288464     -1.42594549
 H     42.99596148     50.11177724     -1.69727246
 H     43.14215158     49.80491024      0.04993324
 H     42.70172027     51.63697402      1.06801581
 H     42.91404175     52.54612855     -0.44744593
 H     44.91935205     51.83578620     -1.16164320
 H     45.24919265     51.16407900      0.45337423
 H     44.90066852     52.64133878      1.91174077
 H     46.04050153     53.50188592      0.42404751
 H     47.23260045     52.79271004      0.04344803
 H     47.07159724     51.93783769      1.59636074
 H     46.79051278     53.86272875      2.93715724
 H     47.36457670     54.84999909      1.57186806
 H     48.71800847     52.40155373      2.89821239
 H     47.33359699     52.84535552      3.92520386
 H     48.51641786     55.14355297      4.12877095
 H     49.93471012     54.33215212      3.42283726
 H     50.44247673     52.62776388      4.44164323
 H     49.46434992     53.14003490      5.83774961
 H     50.73316144     55.35157550      5.74926275
 H     51.86569161     54.53213430      4.64737426
 H     52.41702586     52.70638052      5.91031849
 H     51.72291470     53.50757307      7.34020200
 H     52.65885721     55.47652502      7.42103766
 H     53.91408677     54.93394480      6.28162022
 H     54.60037911     53.01508340      7.35182629
 H     54.12513931     54.21901638      8.93294213
 H     54.47816991     55.58356113      9.19731539
 H     55.83702594     55.31585653      8.07923167
 H     56.65201616     53.34104201      8.98157905
 H     55.67584971     53.63527782     10.44061676
 H     57.40056052     54.79720250     11.22472357
 H     57.94029862     55.31556112      9.36068214
 H     58.69337317     53.43744234     10.30286439
 H     58.36874112     53.24790564     10.61398242
 H     57.28524296     52.46283875     10.96760899
 H     57.39934810     53.31089581     12.52839274
 H     59.73099546     52.95857013     12.82656336
 H     59.66788557     51.73769942     11.53282516
 H     58.04964242     50.37332245     12.13348144
 H     58.09448625     51.04145749     13.78267860
 H     60.01734100     51.05081323     14.54061998
 H     60.54204528     49.89932662     13.28880902
 H     58.43767869     48.56081865     14.23655542
 H     58.49384906     49.74279569     15.56623276
 H     60.50052204     49.68546703     16.36258715
 H     60.79664686     48.13830650     15.53381031
 H     58.67084377     47.27404974     16.63269780
 H     58.75218428     48.71329659     17.67683328
 H     60.95998388     48.36260426     18.44544429
 H     60.87291936     46.69977198     17.81641707
 H     58.74040933     46.41901149     19.17504776
 H     59.19645524     47.92653085     20.00430897
 H     61.49925214     46.29006726     20.04428932
 H     60.72024850     45.34164477     20.07951374
 H     61.58277720     48.13619904     20.90707011
 H     62.46816885     46.96796212     19.89733212
 H     62.84496944     45.26019327     21.24629453
 H     62.44968649     46.28042863     22.65026671
 H     64.60866026     47.00316358     22.54996156
 H     64.67388565     46.49828493     20.57499882
 H     65.02204529     45.08070649     22.58333035
 H     64.99447462     46.57807132     23.54531013
 H     66.82671888     47.46102588     22.01937195
 H     67.00430109     45.78754890     21.43953917
 H     67.31844743     44.84821074     23.62230895
 H     67.58649732     46.49649515     24.23840505
 H     69.26526578     47.11921555     22.72539037
 H     69.72744071     45.41823639     23.69497107
 H     69.70907929     45.60258102     25.08181423
 H     69.78973116     47.33790292     24.69397428
 H     71.55508569     47.28727083     23.19498401
 H     72.08159668     46.01887933     24.74301000
 H     72.01007405     46.48212456     26.11244416
 H     72.84424984     47.97751586     24.95545439
 H     73.90328090     47.78529990     24.01551893
 H     74.25861775     46.29361581     24.91933361
 H     74.31766088     46.79343755     26.99972391
 H     75.32455650     48.33135678     26.04931480
 H     76.32908727     47.38999912     24.92098536
 H     76.53036429     46.61105035     25.76038537
 H     75.89763643     49.30512636     24.67770905
 H     76.28154619     47.78435703     23.83619813
 H     78.30114685     48.21073583     23.53294421
 H     78.35733088     49.37474652     25.21363164
 H     77.70420649     50.13530451     23.01853709
 H     78.26799960     48.57600727     22.37123800
 H     80.52535762     49.41973706     23.49313569
 H     79.63332370     50.88735229     23.96073346
 H     79.90934016     50.52388121     22.24027702
1502
Final Conformation Chain 6 (Simulation Frame 7)
 C      0.00000000      0.00000000      0.00000000
 C      1.54000000      0.00000000      0.00000000
 C      2.16637443      1.13063187      0.83721363
 C      3.63543344      1.43031935      0.48557028
 C      4.30371997      2.46185838      1.41342822
 C      5.78628002      2.72620714      1.09134836
 C      6.49416120      3.64239073      2.10678514
 C      7.85222660      4.18310814      1.62213779
 C      8.52135530      5.16477103      2.60203818
 C      9.95474411      5.56532558      2.20637092
 C     10.65369259      6.48149090      3.22799323
 C     12.14447535      6.72830800      2.93092747
 C     12.67117074      8.07935650      3.44944453
 C     12.24585935      8.40500945      4.89327983
 C     13.07996874      9.51688646      5.55629646
 C     12.69635607      9.79890559      7.02084640
 C     13.29745566     11.09898826      7.58658870
 C     13.22283810     11.20777238      9.12092837
 C     13.76437525     12.53584319      9.68178970
 C     13.93084294     12.54776183     11.21271963
 C     14.44342747     13.88598434     11.77665013
 C     15.92414189     14.17133182     11.46414155
 C     16.39215026     15.57840489     11.87972975
 C     17.83958190     15.90439678     11.46709075
 C     18.46859334     17.06828765     12.25531828
 C     20.00245554     17.14519132     12.14150884
 C     20.62181941     18.36962256     12.84062009
 C     22.15832053     18.42884819     12.75543426
 C     22.78458769     19.59681729     13.53980510
 C     24.32458240     19.59916688     13.53652128
 C     24.95082001     20.77339714     14.31151145
 C     26.47478316     20.65744235     14.50043152
 C     27.07398002     21.72876793     15.43039101
 C     28.61031915     21.68569276     15.52737864
 C     29.18199256     22.43025992     16.74820183
 C     30.58485939     23.02307392     16.51986830
 C     31.19507314     23.68704103     17.76822195
 C     31.66186378     22.68861730     18.84379462
 C     31.98951002     23.33797018     20.20121452
 C     31.74767767     22.41637162     21.41107947
 C     31.85769680     23.12793912     22.77239041
 C     31.91903411     22.17009120     23.97670146
 C     31.70484568     22.85958368     25.33696740
 C     30.22458948     23.04110707     25.72101279
 C     30.01057167     23.69783250     27.09742410
 C     28.53879435     24.02114368     27.41513683
 C     28.35408855     25.08209541     28.51598432
 C     26.93229676     25.66944279     28.58761660
 C     26.78737676     26.84023923     29.57748219
 C     25.57435872     27.74781752     29.30091596
 C     25.19523191     28.66320639     30.47986722
 C     23.83953239     29.37380269     30.31036288
 C     22.64936101     28.60435495     30.91289276
 C     21.33075638     29.39980126     30.92501748
 C     20.13056543     28.61438344     31.48560691
 C     18.88935518     29.48217205     31.76478437
 C     17.70665455     28.70623406     32.37366816
 C     16.50634905     29.59225942     32.75553955
 C     15.25174949     28.80202410     33.17160214
 C     14.03334681     29.68636307     33.49570013
 C     12.68539078     28.94469718     33.42827434
 C     11.64793392     29.43632119     34.45471922
 C     10.34865113     28.60990471     34.47708083
 C      9.50590380     28.80212140     35.75161199
 C      9.41713616     30.26344543     36.22936967
 C      9.24763124     30.41529476     37.75246188
 C      9.47754150     31.84791382     38.26854705
 C      9.00814284     32.07454412     39.71765146
 C      8.59706087     33.52690909     40.02301620
 C      8.08987706     33.74526399     41.46061340
 C      8.08802637     35.21912113     41.90709038
 C      7.79086153     35.41953033     43.40479836
 C      7.36262067     36.85245088     43.77215170
 C      6.84650322     37.00137895     45.21542687
 C      6.28307568     38.39779005     45.53820457
 C      5.90432201     38.59370282     47.01798963
 C      5.00303705     39.81516237     47.27745442
 C      4.71449797     40.07543657     48.76762305
 C      3.91110979     41.36184137     49.03470005
 C      3.54229549     41.57408402     50.51474365
 C      2.92253463     42.95163158     50.81450887
 C      2.66165613     43.20901485     52.31026830
 C      2.21441312     44.64762210     52.62961585
 C      1.91668500     44.89469272     54.12022447
 C      1.37822941     46.30469589     54.42609477
 C      0.92634338     46.49970177     55.88533146
 C      0.62324049     47.96313358     56.25694413
 C      0.08950102     48.14792971     57.68962434
 C     -0.52398901     49.53522214     57.95542442
 C     -0.47337570     49.97004098     59.43189686
 C     -1.17351649     51.31237987     59.71390606
 C     -0.98798425     51.82518837     61.15411620
 C     -1.89310449     53.01741817     61.51598008
 C     -1.62641598     53.60449751     62.91448467
 C     -2.18813746     55.02425905     63.11534823
 C     -1.76288173     55.68451706     64.44004326
 C     -2.59535520     56.92383886     64.81775931
 C     -1.99805982     57.75205526     65.97053675
 C     -2.75261050     59.06388032     66.25578802
 C     -2.34460992     59.74719932     67.57420020
 C     -3.03766835     61.10048239     67.81893461
 C     -2.67727601     61.75425738     69.16589253
 C     -3.61655049     62.90391750     69.57533734
 C     -3.00316318     63.88067771     70.59577621
 C     -3.59287339     65.30199959     70.53506383
 C     -3.46191857     66.09121792     71.85096096
 C     -4.03723900     67.51821130     71.78541501
 C     -4.01068683     68.26670228     73.13102128
 C     -4.98959686     69.45309202     73.20727449
 C     -4.77026777     70.36881040     74.42586162
 C     -5.45416368     71.74353735     74.30748859
 C     -5.32588830     72.61764345     75.56887036
 C     -5.87483086     74.04645613     75.39929328
 C     -5.20473800     75.08769218     76.31493681
 C     -5.88741270     76.46801131     76.29837361
 C     -5.40046951     77.42096680     77.40578598
 C     -6.31773065     78.63676939     77.63394394
 C     -5.71336472     79.71340233     78.55438043
 C     -6.70377529     80.82233391     78.95557570
 C     -6.03893886     82.05266336     79.60046483
 C     -7.02888587     83.01125762     80.28799806
 C     -6.51031614     84.45483911     80.42495760
 C     -7.15364775     85.24456875     81.57996909
 C     -6.29181932     86.41120144     82.09748228
 C     -7.03017065     87.35392600     83.06583538
 C     -6.12096059     88.40052559     83.73633249
 C     -6.77290362     89.12447689     84.92900377
 C     -6.11903096     90.47505079     85.27541491
 C     -6.58820463     91.07287164     86.61484998
 C     -5.83470474     92.35060018     87.02867084
 C     -4.60251508     92.09171512     87.91539919
 C     -3.98678927     93.36722075     88.52002066
 C     -2.54451135     93.18617061     89.02860226
 C     -1.89458753     94.48366513     89.54406999
 C     -0.35905667     94.41908073     89.64191597
 C      0.35234743     94.33229432     88.27884138
 C      1.88942693     94.32911621     88.37358590
 C      2.60032291     94.17304975     87.01643072
 C      4.06421336     94.65119578     87.01748783
 C      4.79965721     94.41992052     85.68435839
 C      5.96751241     95.39263966     85.43630253
 C      6.40117231     95.48760554     83.96167696
 C      7.78803295     96.12485597     83.75642234
 C      8.24188276     96.17715459     82.28574725
 C      8.97929096     97.47397246     81.90352668
 C      9.84877743     97.35053290     80.63847492
 C     10.39844726     98.69346248     80.12271992
 C     11.55950101     98.55180704     79.12097747
 C     11.99503823     99.88019487     78.47499520
 C     13.29651852     99.78214415     77.65759987
 C     13.64825848    101.06615137     76.88351688
 C     15.16033342    101.29075392     76.69701472
 C     15.58838693    102.76804186     76.77441326
 C     17.09476735    102.99627667     76.55007670
 C     17.52605739    104.47146506     76.64707203
 C     19.04300139    104.69161671     76.49870026
 C     19.51115372    106.10719986     76.88413213
 C     20.98101960    106.39912355     76.52934366
 C     21.61232909    107.53276672     77.35874194
 C     23.14937152    107.47319592     77.43325280
 C     23.69782954    106.15572647     78.01210343
 C     25.07399538    105.75043714     77.45218544
 C     25.49194116    104.30952919     77.79961256
 C     26.71923756    103.80727163     77.01661774
 C     27.18481464    102.39579634     77.41982423
 C     26.09144463    101.31781583     77.30108058
 C     26.36066738    100.05711220     78.14354450
 C     25.73229965     98.77387320     77.56904327
 C     25.86120560     97.54659169     78.49032681
 C     25.27341387     96.25301890     77.89638210
 C     25.58860579     94.98783135     78.71586639
 C     24.93427674     93.70656007     78.16650550
 C     25.45687915     92.40989254     78.81236929
 C     24.80707252     91.12823173     78.25856704
 C     25.30569736     89.83378335     78.92742926
 C     25.08994937     88.56696514     78.07876890
 C     25.62985070     87.27889980     78.72760959
 C     25.39036077     86.00825974     77.89111788
 C     25.67630043     84.69746429     78.64719580
 C     25.46817741     83.42790964     77.80072325
 C     25.84543520     82.12275850     78.52588327
 C     25.86674482     80.88264850     77.61304533
 C     26.43454919     79.61919342     78.28600854
 C     26.37846333     78.35956261     77.40182271
 C     26.41771081     77.03788112     78.19126409
 C     26.49903574     75.78108998     77.30500099
 C     26.05372659     74.48691164     78.01097704
 C     25.67023171     73.34811331     77.04782074
 C     25.12743040     72.08973666     77.75028421
 C     24.67855181     70.97755381     76.78428353
 C     24.26745081     69.66861396     77.48376364
 C     23.57865864     68.65160592     76.55486106
 C     22.10213132     68.38571859     76.90238230
 C     21.44591647     67.28523723     76.04802708
 C     20.13645746     66.73065466     76.63908991
 C     19.60031209     65.48305394     75.91270118
 C     18.10484314     65.20951232     76.15835870
 C     17.64740277     63.80190554     75.73292780
 C     16.12798637     63.57684439     75.84392910
 C     15.69324166     62.11627943     75.62178721
 C     14.17238351     61.89396727     75.71753575
 C     13.76716617     60.42615095     75.94756652
 C     12.24525170     60.19841072     76.00681803
 C     11.56793613     60.12970426     74.62546976
 C     10.05397156     59.85370463     74.68322356
 C      9.43943768     59.44672569     73.33107111
 C      7.98943223     58.93750415     73.42995294
 C      7.39648752     58.47092354     72.08744815
 C      6.02877050     57.77472749     72.21496763
 C      5.54428703     57.10314626     70.91656307
 C      4.20217211     56.36133234     71.05812463
 C      3.67223605     55.76811991     69.73946366
 C      2.25653945     55.17130525     69.84536649
 C      1.85453720     54.29546451     68.64415994
 C      0.45610220     53.66295716     68.77031067
 C     -0.14084755     53.19070285     67.43156990
 C     -1.33402953     52.22884362     67.58237971
 C     -1.82929590     51.63176824     66.25203682
 C     -3.27527602     51.10427953     66.30200832
 C     -3.79970669     50.58512894     64.95032228
 C     -5.33436338     50.48470562     64.87067304
 C     -5.85044440     49.76525210     63.61065439
 C     -7.14553033     48.96244505     63.83393283
 C     -7.57810432     48.12080982     62.61897197
 C     -8.95566633     47.45131158     62.77926865
 C     -9.26111057     46.38355270     61.71240652
 C    -10.60611636     45.66163138     61.91584944
 C    -10.76194494     44.37944133     61.07721594
 C    -11.64462049     43.30330362     61.73631495
 C    -12.02912596     42.14619088     60.79565261
 C    -13.10299248     41.20310420     61.36923627
 C    -13.13668351     39.81435808     60.70451893
 C    -14.33674265     38.94663933     61.12703783
 C    -14.30634478     37.51590383     60.55811615
 C    -15.23486522     36.53029443     61.29161728
 C    -15.25329299     35.11586721     60.68280200
 C    -15.90601382     34.05339648     61.58652290
 C    -15.91449251     32.63685893     60.98241240
 C    -16.71501334     31.60997230     61.80476893
 C    -16.66062825     30.17752202     61.24198259
 C    -17.32152480     29.12275900     62.14878506
 C    -17.31073123     27.69833112     61.56355971
 C    -18.04560293     26.65929459     62.43071983
 C    -18.20736867     25.28362836     61.75768622
 C    -18.99611993     24.26336303     62.59942853
 C    -19.30381264     22.94708433     61.86163751
 C    -20.29199667     22.02883612     62.60454568
 C    -20.33767389     20.58837603     62.06178576
 C    -21.55130641     19.77421666     62.54742001
 C    -21.51758336     18.29158193     62.13238146
 C    -21.41993547     18.06888208     60.61170080
 C    -22.13886384     16.80000854     60.11702724
 C    -21.68373856     16.32472640     58.72470261
 C    -22.37642594     15.03545716     58.24556900
 C    -22.04867298     14.65190599     56.79055474
 C    -22.67679099     13.32100326     56.33694073
 C    -22.17405555     12.82544285     54.96826364
 C    -22.54312156     11.36298746     54.65743489
 C    -21.84136727     10.79109134     53.41161156
 C    -22.26721958      9.35424443     53.05704031
 C    -22.02016796      8.97278142     51.58562892
 C    -22.93105877      7.84319499     51.06996197
 C    -22.47170849      7.22831261     49.73485262
 C    -23.55601130      6.40012658     49.02071304
 C    -23.19230886      6.00341158     47.57782090
 C    -24.40614286      5.87361226     46.63901360
 C    -24.05015072      5.40427870     45.21613075
 C    -25.27239089      5.04468490     44.35101731
 C    -24.92255613      4.66128888     42.90111278
 C    -26.13925730      4.25162356     42.05057614
 C    -25.77942634      3.77629286     40.63065276
 C    -26.94661193      3.11035414     39.87845370
 C    -26.61511913      2.72189973     38.42558905
 C    -27.68587467      1.84347071     37.75220578
 C    -27.41791785      1.56089106     36.26225683
 C    -28.22611597      0.37982358     35.69349024
 C    -28.04249796      0.16657257     34.17942009
 C    -27.92895747     -1.31208437     33.76435117
 C    -27.44519560     -1.52110829     32.31732545
 C    -27.48423371     -2.98781732     31.84952139
 C    -26.70033132     -3.25205794     30.55057030
 C    -27.14462463     -2.37908098     29.36224598
 C    -26.46566195     -2.74353465     28.02891061
 C    -26.83400424     -1.80823994     26.86222823
 C    -26.28883265     -2.26573316     25.49654602
 C    -26.68042477     -1.34535621     24.32557980
 C    -26.16064842     -1.81916518     22.95556608
 C    -26.12980408     -0.71586828     21.88160864
 C    -25.46582283     -1.14618749     20.56041438
 C    -25.40383133     -0.03240576     19.49869534
 C    -24.30852408     -0.24007202     18.43625628
 C    -23.81812968      1.06348415     17.77909980
 C    -23.09021323      0.85370319     16.43830541
 C    -22.37052090      2.10979296     15.91306123
 C    -22.12366662      2.10068156     14.39300204
 C    -21.84807190      3.49274069     13.79482237
 C    -21.78218384      3.51154289     12.25634740
 C    -22.14064124      4.87227302     11.63063038
 C    -21.99094010      4.91609476     10.09855035
 C    -21.96598520      6.33984070      9.51209938
 C    -21.80671782      6.38389496      7.98099091
 C    -22.06678551      7.77064428      7.36382712
 C    -22.21492110      7.75629984      5.83103553
 C    -22.29911559      9.15707986      5.19674329
 C    -22.60556180      9.14392773      3.68759858
 C    -22.30381064     10.47566200      2.97553813
 C    -22.60272944     10.46001018      1.46490827
 C    -22.26634080     11.77977646      0.74611786
 C    -22.42126137     11.71639472     -0.78475848
 C    -22.78157858     13.06544031     -1.43425635
 C    -22.63704113     13.08095899     -2.96737999
 C    -23.10667522     14.39060636     -3.62758268
 C    -23.05776237     14.36883731     -5.16665176
 C    -23.07314854     15.76624363     -5.81365937
 C    -22.48223168     15.80483424     -7.23525286
 C    -22.11153230     17.21830582     -7.72133934
 C    -21.97934175     17.34010309     -9.25081346
 C    -21.14284780     18.54767332     -9.71303852
 C    -21.16381055     18.77823097    -11.23553769
 C    -20.25137649     19.92534844    -11.70796293
 C    -20.30685710     20.18570165    -13.22478135
 C    -19.42857821     21.36165172    -13.69100835
 C    -19.62750007     21.74438443    -15.16936750
 C    -18.79549773     22.95972372    -15.61917023
 C    -18.63460972     23.07813835    -17.14615845
 C    -17.59486550     24.12507392    -17.58713222
 C    -17.24184466     24.06497536    -19.08491874
 C    -16.17253689     25.08514733    -19.51785065
 C    -16.05244159     25.25738180    -21.04346934
 C    -14.81036724     26.05172454    -21.48829617
 C    -14.58733537     26.06406881    -23.01201019
 C    -13.23260341     26.65688215    -23.44197957
 C    -13.08105312     26.83360489    -24.96428098
 C    -11.64576621     27.15985230    -25.41717627
 C    -11.52353608     27.50104081    -26.91392280
 C    -10.11770337     27.26625591    -27.49711267
 C    -10.05434897     27.35302930    -29.03336024
 C     -8.71641859     26.88153252    -29.63272082
 C     -8.65318600     26.96798935    -31.16899125
 C     -7.29913559     26.54058513    -31.76520693
 C     -7.34369579     26.25169539    -33.27721126
 C     -8.07820589     24.94896879    -33.64463240
 C     -7.53862987     24.26198584    -34.91290373
 C     -7.72306909     22.73310933    -34.92380322
 C     -7.25005443     22.05437460    -36.22271673
 C     -7.75543605     20.60984813    -36.39456747
 C     -7.10943356     19.85613190    -37.57193429
 C     -7.51952025     18.37484638    -37.66796614
 C     -7.25493346     17.73971423    -39.04571829
 C     -7.95168164     16.38221007    -39.25386346
 C     -7.20706842     15.19231873    -38.62037333
 C     -7.99977594     13.87224764    -38.64541559
 C     -7.34978975     12.73581375    -37.83446803
 C     -8.19437031     11.44966508    -37.77039559
 C     -7.75481685     10.46582704    -36.67018858
 C     -8.41333160      9.07744030    -36.77187730
 C     -8.02742831      8.11616531    -35.63230323
 C     -8.59818512      6.69473427    -35.79158429
 C     -8.07392774      5.68887940    -34.74994606
 C     -8.80780663      4.33504046    -34.76185753
 C     -8.28297030      3.32887695    -33.72080910
 C     -9.17667592      2.08730475    -33.54364044
 C     -8.74623840      1.16551206    -32.38751684
 C     -9.81958248      0.14395666    -31.96804449
 C     -9.52915850     -0.55467430    -30.62671354
 C    -10.68389320     -1.43698710    -30.11709418
 C    -10.30547561     -2.33812972    -28.92699246
 C    -11.32114718     -3.46041739    -28.64329959
 C    -11.11656703     -4.16247583    -27.28799117
 C    -11.80683441     -5.53511147    -27.18309904
 C    -11.31717395     -6.39386276    -26.00226084
 C    -12.28030615     -7.53061160    -25.61267331
 C    -11.87253759     -8.28661130    -24.33447565
 C    -12.87675187     -9.37051173    -23.90052459
 C    -12.63637873     -9.91442848    -22.47997001
 C    -13.50594792    -11.13356339    -22.12058233
 C    -13.20320228    -11.73207704    -20.73431883
 C    -14.05764619    -12.96446113    -20.38395465
 C    -13.76739728    -13.55225155    -18.99044900
 C    -14.49548631    -14.87917858    -18.70628174
 C    -13.97566883    -15.62518082    -17.46335357
 C    -14.48578706    -17.07325122    -17.34305601
 C    -13.77657623    -17.89870912    -16.25345091
 C    -14.19963948    -17.53579934    -14.81786254
 C    -13.40130170    -18.27049069    -13.72493737
 C    -13.82365674    -17.90679645    -12.28933898
 C    -12.67067129    -17.38936420    -11.40928874
 C    -13.06456316    -17.14527034     -9.94066102
 C    -11.86538331    -16.94336663     -8.99577871
 C    -12.26010698    -16.66206370     -7.53404621
 C    -11.06348513    -16.56651252     -6.56938766
 C    -10.37079110    -15.19110164     -6.56492839
 C     -9.39305661    -14.98598507     -5.39293758
 C     -8.78820257    -13.57151549     -5.32203358
 C     -7.67295949    -13.41913552     -4.27102777
 C     -7.07385482    -12.00252279     -4.19433373
 C     -6.02051420    -11.82713815     -3.08468795
 C     -5.24821010    -10.49685260     -3.15876052
 C     -4.27442052    -10.27183320     -1.98713766
 C     -3.37247649     -9.03441436     -2.15112415
 C     -2.41665879     -8.79472754     -0.96767041
 C     -1.43713212     -7.62560905     -1.18048362
 C     -0.62923383     -7.24882832      0.07527776
 C      0.46243390     -6.19207069     -0.17596884
 C      0.83474905     -5.36757409      1.07030030
 C      1.90351098     -4.28938839      0.81172046
 C      2.49141491     -3.67012451      2.09331369
 C      3.63809145     -2.67417326      1.83872772
 C      4.17178722     -1.99429252      3.11329863
 C      5.48749553     -1.22108519      2.90675060
 C      6.07086432     -0.62088927      4.19943993
 C      7.43758811      0.06337587      4.01116536
 C      7.89724467      0.88947959      5.22684150
 C      9.23269522      1.62644425      5.01458002
 C      9.82412183      2.23391106      6.30019218
 C     11.15226339      2.98325898      6.08544185
 C     11.82646877      3.44922450      7.38925289
 C     13.03515122      4.37846154      7.17198520
 C     13.77052898      4.76331125      8.46917843
 C     14.73239104      5.95589216      8.31370447
 C     15.21598357      6.54893137      9.65013358
 C     16.19740781      7.72547145      9.49469907
 C     16.96889438      8.07183414     10.78172718
 C     17.41254005      9.54395611     10.86910819
 C     17.96834387      9.94994022     12.24673623
 C     18.99545290     11.09621420     12.19474577
 C     19.61559951     11.44401866     13.56078026
 C     20.35033791     12.79715263     13.58885060
 C     20.82250702     13.22455854     14.99098488
 C     21.19225225     14.71553655     15.09994843
 C     22.18232778     15.03397493     16.23570697
 C     22.47999279     16.53546931     16.40455653
 C     23.53189274     16.84786344     17.48507326
 C     23.98341523     18.31992560     17.51264947
 C     25.13141950     18.60460821     18.49887561
 C     25.55188128     20.08482598     18.56025347
 C     26.19083246     20.49950304     19.89867953
 C     26.15110934     22.01511105     20.16878029
 C     27.14024556     22.48448578     21.25178394
 C     27.16777538     24.01065255     21.45588461
 C     28.32091191     24.50227430     22.35041476
 C     28.12895266     25.93155245     22.89070692
 C     29.15470670     26.33810601     23.96501733
 C     29.04324615     27.80716495     24.41339480
 C     29.39299892     28.03803241     25.89527645
 C     29.42754150     29.52159016     26.30693555
 C     29.36906071     29.75091205     27.82864231
 C     28.85689483     31.14593071     28.23263370
 C     28.41757784     31.24972500     29.70498805
 C     27.52954058     32.47058639     30.00910529
 C     26.82468822     32.40728769     31.37686858
 C     26.31549601     33.76978013     31.88277138
 C     25.73019393     33.73031946     33.30666195
 C     25.42622802     35.11953498     33.89766531
 C     24.70998309     35.07747517     35.26031867
 C     24.49333913     36.46281756     35.89710110
 C     23.87036229     36.41470813     37.30464696
 C     23.73173599     37.79384072     37.97574760
 C     22.77534121     37.80984440     39.18266636
 C     22.71781997     39.16150475     39.91840110
 C     21.55799019     39.27800207     40.92479230
 C     21.75163835     40.38436613     41.97838565
 C     20.96446174     40.15295892     43.28161384
 C     21.05416365     41.31940600     44.28309013
 C     20.08215383     41.20065605     45.47165875
 C     20.08602197     42.42290197     46.40851517
 C     19.10269885     42.31084687     47.58839622
 C     18.88069344     43.63282405     48.34647929
 C     17.84779261     43.53636700     49.48464093
 C     17.59298260     44.86864355     50.21382612
 C     16.66459707     44.74598250     51.43638679
 C     16.63378274     46.00128036     52.32794597
 C     15.81214973     45.83228039     53.61944054
 C     14.31180446     45.58172596     53.37905218
 C     13.42841852     45.83623341     54.61455015
 C     11.92838719     45.58308607     54.37492038
 C     11.01700218     46.10831712     55.49969134
 C      9.51227090     45.96716832     55.20395364
 C      8.60747685     46.75392890     56.17036738
 C      7.12251122     46.35097935     56.10626790
 C      6.19358597     47.24670540     56.94672773
 C      4.69946943     46.89754485     56.81518811
 C      3.82357753     47.45434918     57.95289736
 C      3.68150693     48.98773520     57.94092782
 C      3.63505731     49.62345087     59.34282226
 C      3.15685700     51.08729972     59.35124853
 C      3.35496284     51.80320955     60.70025824
 C      2.66817527     53.17891113     60.78609527
 C      2.95909792     53.94393524     62.09058831
 C      2.23657591     55.29982904     62.19601102
 C      2.49284373     56.04493534     63.51916762
 C      2.05823067     57.52221729     63.50047133
 C      2.38015618     58.28631819     64.79820542
 C      1.72531819     59.67746107     64.88485811
 C      1.75331953     60.29621638     66.29480768
 C      0.78690128     61.48113018     66.47815177
 C      1.11720042     62.37773012     67.68588148
 C      0.47110892     63.77429633     67.62449267
 C      0.75489614     64.65054222     68.85869604
 C      0.45269803     66.14584790     68.64813197
 H     -0.36333333      0.00000000      1.02766186
 H     -0.36333333     -0.88998127     -0.51383093
 H     -0.36333333      0.88998127     -0.51383093
 H      1.88274777      0.99763252     -0.27450560
 H      1.88274777      0.01384723      1.03461694
 H      1.62962592      1.19391985      1.78378410
 H      2.05048553      2.06648346      0.29054045
 H      3.73079215      1.45029676     -0.60006668
 H      4.23877675      1.28555831      1.38174051
 H      4.03644673      2.22117681      2.44237787
 H      4.79510905      3.21225907      0.79412572
 H      5.88916630      2.82983635      0.01117458
 H      6.36828792      2.56423107      1.99861379
 H      6.21127658      3.32476736      3.11037454
 H      6.15528585      4.66490391      1.94026098
 H      7.74124349      4.51187773      0.58884533
 H      8.59109108      4.00354531      2.40312209
 H      8.43459188      4.75649360      3.60895508
 H      7.99216357      6.11620854      2.54890832
 H      9.96784061      5.78084736      1.13797079
 H     10.61574824      4.72422765      2.41548289
 H     10.46226004      6.08970144      4.22697000
 H     11.17889941      7.26540279      2.68233772
 H     12.25257496      6.93163888      1.86553035
 H     12.69897386      5.82538614      3.18659036
 H     11.82522546      8.65660116      3.82262705
 H     12.29141720      8.86757504      2.79936856
 H     12.37775588      7.50899886      5.49980133
 H     11.19287015      8.68651996      4.88518232
 H     13.20414438     10.32697713      4.83766337
 H     14.05640145      9.10604360      5.81298172
 H     12.57111713      8.84449502      7.53223242
 H     11.75148772     10.34227954      7.02912624
 H     13.17948804     11.88439322      6.84004822
 H     14.03908433     10.83414606      8.34021031
 H     13.51920880     10.24940381      9.54730156
 H     12.19184092     11.42603653      9.39932657
 H     13.38034701     13.34964351      9.06668698
 H     14.63896645     12.31782120     10.29469804
 H     14.39492289     11.60874572     11.51434613
 H     12.94192170     12.62586496     11.66442163
 H     13.89813137     14.69447184     11.28972085
 H     14.88464266     14.45596973     10.95900362
 H     16.10760089     13.92399767     10.41854669
 H     16.53780727     13.53444223     12.10123373
 H     16.00378411     15.78835785     12.87631968
 H     15.98326746     16.29878909     11.17123738
 H     17.98625152     15.57165244     10.43953577
 H     18.51498828     15.35838137     12.12572068
 H     18.22773182     16.93749637     13.31029665
 H     18.03289319     18.00058480     11.89603091
 H     20.27669950     16.99382896     11.09748791
 H     20.41503453     17.26265807     13.14354683
 H     20.14968883     18.48228452     13.81658115
 H     20.41622197     19.25129690     12.23359451
 H     22.45460098     18.18663238     11.73482200
 H     22.56840143     17.68538832     13.43895536
 H     22.29834126     19.65551631     14.51357039
 H     22.60224905     20.51808036     12.98651767
 H     24.66548923     19.38953892     12.52264818
 H     24.66996096     18.81148561     14.20612703
 H     24.41590911     20.88577651     15.25456034
 H     24.83228024     21.67888859     13.71642024
 H     26.91462662     20.34373751     13.55373886
 H     26.66936365     19.90033273     15.26005212
 H     26.43027066     21.82225868     16.30503250
 H     27.09568514     22.67642797     14.89227454
 H     29.01381226     21.56068797     14.52255671
 H     28.89115580     20.82956356     16.14079005
 H     28.58164021     22.17051392     17.62010153
 H     29.10762444     23.50165182     16.56195260
 H     30.59825237     23.50528229     15.54242484
 H     31.30783904     22.20745203     16.53257131
 H     30.67459688     23.30730853     18.64743051
 H     30.69151327     24.64006649     17.93030195
 H     32.19890243     21.87888144     18.34981354
 H     30.78074001     22.28769643     19.34477702
 H     31.20157496     24.05285750     20.43826820
 H     32.94054206     23.86259777     20.10954138
 H     32.14942276     21.43057942     21.17674080
 H     30.67272608     22.34104065     21.57510487
 H     31.32694531     24.07771297     22.70656870
 H     32.91187704     23.31427521     22.97753154
 H     32.60908700     21.36123973     23.73652171
 H     30.92214539     21.76070691     24.14015602
 H     30.94057766     23.62721355     25.21556406
 H     32.60864280     23.41599194     25.58528292
 H     29.69703857     22.11307615     25.50067523
 H     29.80986909     23.84728059     25.11587540
 H     30.69511389     24.54155669     27.18478218
 H     30.24077040     22.96191030     27.86783117
 H     27.93000822     23.16340754     27.12918549
 H     28.24351791     24.88901968     26.82547330
 H     29.05404125     25.89628822     28.32821772
 H     28.58174662     24.62168338     29.47738567
 H     26.21836950     24.84974728     28.50694979
 H     26.99852890     26.74687656     28.43645519
 H     27.63815531     27.50857070     29.44478365
 H     26.79705797     26.43635184     30.58984638
 H     24.71317841     27.11396661     29.08948869
 H     25.79716729     28.36113450     28.42781881
 H     26.10947263     29.09760339     30.88429663
 H     24.71274351     28.05479913     31.24481530
 H     23.13858541     28.67164204     29.85898304
 H     23.96015776     30.17203778     29.57798986
 H     22.94238856     28.23454931     31.89548049
 H     22.42070244     27.76140501     30.26078029
 H     21.21820485     29.89152035     29.95876467
 H     21.39184115     30.15264877     31.71088597
 H     20.45233687     28.09486752     32.38819560
 H     19.81897820     27.88489974     30.73803288
 H     18.74339610     30.15381655     30.91879997
 H     19.07575389     30.06731807     32.66531735
 H     18.09198190     28.05298629     33.15654119
 H     17.25184818     28.10278026     31.58811441
 H     16.32564284     30.29408911     31.94136490
 H     16.76148390     30.14356170     33.66056551
 H     15.55927435     27.99769079     33.83986585
 H     14.80130869     28.37696364     32.27464803
 H     13.95323123     30.45467942     32.72669331
 H     14.19990831     30.15773507     34.46428968
 H     12.79826444     27.98246205     33.92773714
 H     12.43538836     28.78270621     32.37977173
 H     11.66119026     30.52622612     34.46033181
 H     11.93578887     29.06439134     35.43803388
 H     10.61402239     27.55315457     34.44614127
 H      9.76546595     28.86413383     33.59200310
 H     10.10405406     29.35180709     36.47835949
 H      9.99465369     28.27178414     36.56890382
 H      9.23082040     30.89686989     35.36209815
 H     10.37182203     30.53544916     36.67957946
 H      9.93892443     29.73087985     38.24418332
 H      8.22373936     30.14615167     38.01189861
 H      8.96502787     32.53949088     37.59985358
 H     10.54828054     32.05109871     38.25027707
 H      9.33607512     31.22774672     40.32055659
 H      7.91924142     32.12331389     39.72155042
 H      7.98526495     33.89073583     39.19752492
 H      9.50155103     34.13048810     40.09844780
 H      8.75929159     33.22203974     42.14341687
 H      7.08824516     33.32247682     41.53861698
 H      7.67946368     35.82233717     41.09634570
 H      9.11768128     35.51994881     42.10051604
 H      8.36893279     34.68827193     43.96977160
 H      6.72718916     35.24729510     43.56922498
 H      6.64035684     37.19493469     43.03111203
 H      8.24473090     37.49205853     43.74242628
 H      7.51842574     36.45553248     45.87774988
 H      5.84917866     36.56489806     45.26953936
 H      5.65207596     38.71324927     44.70728650
 H      7.11932144     39.08914158     45.64225297
 H      6.70391504     38.18203031     47.63384411
 H      4.81908958     38.66858745     47.08700300
 H      4.22258758     39.83301127     46.51674419
 H      5.61263274     40.71487817     47.19376111
 H      5.64761848     39.96969261     49.32098037
 H      4.00007305     39.32860308     49.11394194
 H      3.09563828     41.41266534     48.31322715
 H      4.57422741     42.21544938     48.89424232
 H      4.42044050     41.35391574     51.12177516
 H      2.74057159     40.88146984     50.77091623
 H      2.18681959     43.17210707     50.04106595
 H      3.71605123     43.69831494     50.78458631
 H      3.53572712     42.87992688     52.87223007
 H      1.79362802     42.62314836     52.61257221
 H      1.46571824     44.94477919     51.89527693
 H      3.08223594     45.30221185     52.54901930
 H      2.71133233     44.43646010     54.70900158
 H      0.96542333     44.42104619     54.36283568
 H      0.62359464     46.55277328     53.67971418
 H      2.20573409     47.01055132     54.35465172
 H      1.67911421     46.05912942     56.53903787
 H     -0.02247228     45.98102779     56.02253984
 H      0.04015703     48.40783047     55.45049614
 H      1.56970102     48.49450577     56.35672417
 H      0.69275769     47.53742345     58.36153468
 H     -0.94472533     47.80481739     57.71700656
 H     -1.15792514     49.79763525     57.10845078
 H      0.28727787     50.25828705     58.03982334
 H      0.51648965     49.73679446     59.82415016
 H     -1.22488814     49.40367304     59.98194814
 H     -2.12629987     51.31985961     59.18452163
 H     -0.54099486     52.11512612     59.33494057
 H      0.05827832     51.69683366     61.43153233
 H     -1.61509819     51.22638031     61.81461375
 H     -2.89695067     52.81064609     61.14498394
 H     -1.50030222     53.90751873     61.02452575
 H     -0.54826504     53.68820757     63.05117114
 H     -2.03473037     52.91932999     63.65740109
 H     -3.19694655     55.05514172     62.70370461
 H     -1.55272201     55.72420012     62.57273446
 H     -0.69830831     55.50265872     64.58738967
 H     -2.32614420     55.22134708     65.25017225
 H     -3.64716287     56.69586187     64.64505401
 H     -2.29212430     57.74959523     64.17411544
 H     -0.92696000     57.85716870     65.79792052
 H     -2.16459983     57.21209978     66.90263787
 H     -3.82208405     58.85367823     66.24389649
 H     -2.51341225     59.77563746     65.46567032
 H     -1.25738122     59.72619380     67.64898341
 H     -2.77661966     59.18294743     68.40069121
 H     -4.09450013     60.99349275     67.57447640
 H     -2.28470017     61.81663378     68.14797276
 H     -1.60039495     61.66868425     69.31116614
 H     -3.19489591     61.21394939     69.95850650
 H     -4.64365460     62.59037510     69.38866033
 H     -3.38409358     63.77242644     68.95909387
 H     -1.98318886     64.10593656     70.28431060
 H     -2.98606671     63.39239481     71.57014140
 H     -4.67683948     65.22020152     70.45489775
 H     -3.19941194     65.79873123     69.64818967
 H     -2.45432853     65.94431773     72.23991166
 H     -4.18711694     65.69512984     72.56180661
 H     -5.00122908     67.47616219     71.27840910
 H     -3.35052950     68.13850550     71.20942441
 H     -3.03922241     68.10049634     73.59656661
 H     -4.79386777     67.85512458     73.76767772
 H     -5.94463454     69.13694864     72.78768375
 H     -4.58399265     70.27094748     72.61170949
 H     -3.70033682     70.54809537     74.53171375
 H     -5.14196320     69.85471809     75.31223153
 H     -6.46335858     71.59244817     73.92434671
 H     -4.88502888     72.34995320     73.60289978
 H     -4.29685025     72.55882001     75.92344124
 H     -5.99608086     72.22004140     76.33100849
 H     -6.83290454     73.98650824     74.88295902
 H     -5.16993069     74.61466276     74.79236908
 H     -4.12786886     74.92036888     76.29358820
 H     -5.57520267     74.94086433     77.32947981
 H     -6.96552096     76.31788502     76.35533556
 H     -5.63851001     76.96224257     75.35928740
 H     -4.31333590     77.36040547     77.45650919
 H     -5.82729583     77.09194171     78.35323613
 H     -7.35111271     78.29009674     77.64023721
 H     -6.17357709     79.33447674     76.80900503
 H     -4.67547031     79.87155558     78.26135699
 H     -5.74945205     79.34686647     79.58026989
 H     -7.65058034     80.35486566     79.22600797
 H     -6.85354271     81.47555799     78.09594320
 H     -5.15372040     82.30852707     79.01820883
 H     -5.74239095     81.78926751     80.61573916
 H     -7.73481978     82.41684940     80.86802924
 H     -7.56596229     83.56141070     79.51535291
 H     -6.05054608     84.74495145     79.48021090
 H     -5.76034441     84.47605457     81.21564863
 H     -7.18695563     84.60056155     82.45874399
 H     -8.16878255     85.51332187     81.28778235
 H     -5.89043772     86.94833249     81.23813192
 H     -5.47090566     85.99741628     82.68312945
 H     -7.59169774     86.74566627     83.77492453
 H     -7.72048657     87.96762974     82.48710257
 H     -5.46288377     88.82050002     82.97563783
 H     -5.52310701     87.89825818     84.49685767
 H     -7.28125440     88.38212162     85.54429894
 H     -7.50205946     89.83583916     84.54119520
 H     -5.94447892     91.01940451     84.34734670
 H     -5.16579764     90.27850070     85.76614326
 H     -6.60240922     90.27678364     87.35925721
 H     -7.59702878     91.46341393     86.48124403
 H     -5.74753617     92.99549704     86.15425122
 H     -4.78488049     92.23135375     86.76081018
 H     -4.04714834     91.25367864     87.49425475
 H     -4.94864807     91.83213938     88.91585528
 H     -4.79594815     93.99381530     88.89517553
 H     -3.45270594     93.89709832     87.73129716
 H     -1.98579643     92.62261220     88.28138103
 H     -2.57792220     92.62088884     89.95996697
 H     -2.62101478     95.00753065     90.16533351
 H     -1.63757189     95.10310187     88.68480223
 H     -0.01402056     93.56559033     89.05830288
 H     -0.09602870     93.80703229     90.50465174
 H     -0.11271683     95.05013472     87.60317845
 H      0.21875528     93.32433869     87.88605824
 H      2.18197599     93.65166978     89.17582113
 H      2.22017151     95.33980469     88.61278625
 H      2.10838264     94.82525603     86.29482021
 H      2.50187173     93.13612971     86.69517662
 H      4.54577989     94.27874711     87.92163144
 H      4.06876555     95.74115277     87.02603461
 H      4.13791332     94.71896545     84.87148254
 H      5.02497252     93.35703686     85.59711547
 H      6.54233885     95.48024331     86.35825706
 H      5.55302902     96.36568784     85.17271047
 H      5.50523498     95.55615590     83.34467036
 H      6.94949452     94.58075900     83.70658462
 H      8.47242093     95.70027170     84.49088900
 H      7.69946127     97.19878014     83.92056235
 H      7.40119683     96.51433053     81.67939790
 H      8.53009031     95.17138829     81.98001772
 H      9.69225924     97.70854285     82.69393984
 H      8.24503713     98.27589834     81.82680515
 H      9.27715062     96.81480805     79.88062159
 H     10.74213427     96.77934752     80.89098396
 H     10.76918766     99.26225003     80.97544043
 H      9.58200643     99.23891112     79.64942284
 H     11.30383132     97.76737276     78.40866021
 H     12.45472304     98.26423668     79.67232202
 H     12.04898190    100.63932286     79.25532511
 H     11.24255287    100.16704876     77.74043367
 H     13.25202816     98.87870928     77.04938443
 H     14.13323710     99.71142336     78.35258231
 H     13.49270111    101.91853372     77.54483845
 H     12.97892223    101.14408770     76.02677017
 H     15.61347916    100.34455792     76.40125793
 H     15.57933225    101.61189050     77.65064530
 H     15.07750434    103.22908354     77.61971768
 H     15.28319740    103.26209812     75.85198832
 H     17.41067684    102.38967261     75.70135254
 H     17.62722657    102.67429684     77.44501590
 H     17.03966603    104.91432730     77.51620751
 H     17.19531038    104.98531551     75.74448457
 H     19.39814475    104.08209062     75.66776637
 H     19.52797189    104.36828789     77.41976600
 H     19.01587693    106.39103855     77.81269904
 H     19.21624864    106.79369104     76.09049440
 H     21.17122840    106.02632963     75.52289182
 H     21.61660247    105.86960436     77.23909280
 H     21.32966499    107.39246856     78.40206233
 H     21.21558727    108.48225584     76.99934474
 H     23.53291097    107.26053522     76.43536858
 H     23.47772845    106.53236444     76.99153132
 H     23.14987606    105.32863941     77.56069010
 H     23.52960802    106.15822533     79.08904134
 H     25.71069482    106.63496377     77.43411718
 H     24.93543560    105.38167985     76.43585909
 H     24.63415115    103.65606490     77.64061341
 H     25.78110452    104.28038735     78.85015304
 H     27.46989111    104.59758756     77.01214861
 H     26.40949284    103.59457805     75.99342682
 H     26.43625633    101.96485427     78.08469218
 H     27.68358086    102.46256231     78.38671334
 H     25.57019050    101.46112326     76.35458329
 H     25.39034584    101.44847414     78.12539174
 H     26.70037154    100.37062034     79.13066847
 H     27.14596257     99.47993463     77.65540772
 H     25.91885889     98.75187988     76.49535246
 H     24.65803910     98.80732137     77.75055219
 H     25.61820604     97.85441967     79.50732885
 H     26.89297123     97.19704267     78.45324353
 H     25.58999500     96.17881116     76.85601217
 H     24.18630394     96.31819388     77.94159520
 H     25.43087469     95.21434108     79.77033984
 H     26.63397301     94.72557032     78.55299673
 H     25.06518355     93.69167275     77.08449729
 H     23.87075202     93.73613876     78.40344488
 H     25.51535584     92.56313459     79.88995796
 H     26.45346977     92.20873757     78.41937588
 H     24.76437224     91.20742574     77.17228669
 H     23.79529580     91.05690096     78.65771586
 H     25.33989452     89.99586877     80.00476805
 H     26.30986871     89.62281135     78.55969196
 H     25.38284324     88.78801005     77.05239064
 H     24.03067820     88.31156689     78.10734006
 H     25.33991662     87.27687289     79.77833987
 H     26.71711181     87.28611722     78.65072531
 H     25.63649881     86.23007665     76.85269922
 H     24.33590927     85.74244472     77.96577991
 H     25.24057424     84.77432726     79.64335581
 H     26.75656915     84.57894600     78.73129646
 H     25.91752941     83.59155756     76.82123249
 H     24.39664966     83.26421623     77.68612503
 H     25.44367345     82.16470271     79.53827063
 H     26.93256749     82.05645764     78.56886660
 H     26.37529949     81.14800611     76.68619179
 H     24.83691322     80.60024543     77.39442381
 H     26.00778989     79.54229071     79.28603978
 H     27.51665485     79.72718103     78.36007608
 H     26.71098302     78.62932832     76.39944698
 H     25.34517565     78.01491533     77.36138958
 H     25.74247976     77.12678947     79.04229777
 H     27.43538310     76.88274867     78.54956150
 H     27.23592900     75.96080994     76.52219255
 H     25.52105309     75.61685435     76.85258901
 H     25.13764729     74.69568795     78.56352674
 H     26.83789742     74.18888361     78.70693350
 H     26.42140156     73.29834531     76.25955238
 H     24.69948318     73.58144238     76.61043666
 H     24.42076379     72.40389706     78.51841541
 H     25.96411749     71.56993237     78.21703705
 H     25.43458094     70.87383792     76.00597577
 H     23.74379394     70.55760764     77.15573064
 H     23.64252725     69.91963700     78.34082722
 H     25.17106092     69.16547105     77.82790892
 H     24.13743726     68.60802918     75.61999876
 H     22.68082566     69.11461937     76.14545360
 H     21.61955148     69.34230964     77.10275760
 H     22.06712754     67.76632387     77.79861045
 H     22.13969030     66.44760335     75.97628200
 H     21.25982968     67.68914697     75.05287451
 H     19.53484600     67.57031928     76.98712293
 H     20.38654667     66.08822952     77.48339158
 H     20.43570330     64.80698458     75.73062502
 H     19.17345280     65.79784764     74.96044277
 H     17.56547049     66.15294559     76.07403310
 H     17.98997940     64.81427772     77.16766337
 H     18.38871020     63.08149881     76.07872752
 H     17.59317620     63.77346096     74.64464917
 H     15.62124964     64.45180646     75.43679366
 H     15.87380099     63.46758864     76.89823122
 H     16.37360808     61.46833006     76.17438395
 H     15.76563439     61.89530805     74.55687832
 H     13.67402315     62.69195988     75.16713160
 H     13.88439235     61.94215871     76.76769702
 H     14.42022623     60.00614475     76.71255498
 H     13.90523212     59.88200938     75.01324979
 H     11.76232608     60.94344976     75.37452089
 H     11.87996230     60.57083070     76.96387968
 H     12.17927905     59.50452507     73.97469268
 H     11.51824915     61.13925686     74.21750560
 H      9.62082879     60.48035994     75.46283274
 H      9.90637727     58.80398498     74.93700412
 H     10.10004941     58.71922899     72.85943493
 H      8.49904526     59.98361106     73.20650706
 H      7.43652107     59.60392282     74.09197666
 H      8.00675338     57.93436700     73.85599969
 H      8.14403199     57.86591362     71.57437869
 H      7.16906975     59.35262290     71.48829257
 H      5.41186567     58.35429684     72.90171925
 H      6.18878562     56.77711449     72.62394618
 H      6.38259713     56.56295777     70.47663970
 H      5.21395463     57.88271147     70.23008031
 H      3.51799029     56.99526868     71.62214588
 H      4.37788445     55.43685480     71.60818504
 H      4.50146159     55.28374562     69.22384118
 H      3.28964892     56.58382290     69.12598527
 H      1.63370688     55.86460668     70.41062105
 H      2.32311805     54.22385942     70.38016896
 H      2.69404678     53.64536537     68.39779682
 H      1.64149534     54.94986453     67.79889444
 H     -0.23332234     54.42514899     69.13343246
 H      0.51190394     52.84930726     69.49347041
 H      0.63674472     52.66737395     66.87517335
 H     -0.46091677     54.06858148     66.87033482
 H     -1.99436594     52.62053660     68.35609311
 H     -0.95254566     51.25494925     67.88913664
 H     -0.96067554     51.32247300     65.67071493
 H     -2.77800642     52.10379262     65.99661298
 H     -3.89010727     51.83837177     66.82276845
 H     -3.27914218     50.16692745     66.85829613
 H     -3.02130898     49.97497424     64.49216484
 H     -4.01135793     51.44321912     64.31236852
 H     -5.75991229     51.39233778     65.29870576
 H     -5.65233625     49.62270786     65.45714820
 H     -5.24525396     48.87238877     63.45368433
 H     -5.73399340     50.43722336     62.76036396
 H     -7.83058590     49.57353814     64.42160970
 H     -6.96660587     47.93144725     63.52876143
 H     -6.69737006     47.61839566     62.21898802
 H     -7.98699648     48.79291185     61.86452776
 H     -9.64594820     48.18353201     63.19815308
 H     -8.85156278     46.61389687     63.46919550
 H     -8.37422484     45.76282976     61.58498305
 H     -9.48727685     46.89094444     60.77458861
 H    -11.36211522     46.40784875     62.16023714
 H    -10.49941334     44.96632557     62.74847439
 H     -9.83326061     43.81248623     61.14207987
 H    -10.94038967     44.66713502     60.04112240
 H    -12.53119283     43.78939619     62.14350471
 H    -11.07784092     42.84392765     62.54615112
 H    -11.14025224     41.84553469     60.24102717
 H    -12.78660707     42.50726813     60.09999064
 H    -13.88706078     41.81088006     61.82083941
 H    -12.63925916     40.58094764     62.13472475
 H    -12.11138045     39.45958710     60.59968001
 H    -13.58813986     39.91752838     59.71778540
 H    -15.23121826     39.56942545     61.11475699
 H    -14.15905459     38.58591553     62.14015446
 H    -13.29522824     37.12425905     60.66928138
 H    -14.56372218     37.56228261     59.49995459
 H    -16.19357107     37.02159165     61.45778028
 H    -14.78216340     36.28284640     62.25178942
 H    -14.22634406     34.82376076     60.46337152
 H    -15.82743602     35.14872855     59.75685388
 H    -16.82373097     34.47188409     61.99975811
 H    -15.21513927     33.82165969     62.39713403
 H    -14.93336193     32.44328399     60.54880945
 H    -16.67120883     32.60303265     60.19861638
 H    -17.65581565     32.07064675     62.10604962
 H    -16.13525607     31.35425586     62.69166836
 H    -15.62973118     29.95700474     60.96499276
 H    -17.29253657     30.13355684     60.35493189
 H    -18.27025795     29.52358572     62.50563708
 H    -16.66255693     28.93897514     62.99736318
 H    -16.32124325     27.50559737     61.14899098
 H    -18.05397380     27.64908802     60.76777984
 H    -18.98725054     27.09549826     62.76407571
 H    -17.42307665     26.43358810     63.29652443
 H    -17.25987253     25.01784303     61.28895470
 H    -18.98057589     25.36463717     60.99369135
 H    -19.87095658     24.76431150     63.01392997
 H    -18.35503980     23.92040113     63.41152052
 H    -18.40219360     22.62857936     61.33843804
 H    -20.09609167     23.13713384     61.13756906
 H    -21.11395419     22.64007232     62.97720658
 H    -19.76946616     21.57137965     63.44466201
 H    -19.31426609     20.25231441     61.89505526
 H    -20.87649401     20.59603554     61.11430795
 H    -22.43801623     20.40385754     62.47394848
 H    -21.38553082     19.50027014     63.58932776
 H    -20.51130743     17.91003257     62.30538098
 H    -20.66676345     18.14092980     61.46791971
 H    -20.67345578     18.75526273     60.21201382
 H    -22.39125494     18.29088841     60.16971475
 H    -23.11127245     16.74422612     60.60632247
 H    -21.53973903     15.93439502     60.39962712
 H    -20.59569113     16.37559749     58.68389906
 H    -22.10713345     16.99640385     57.97791874
 H    -23.44133623     15.11731943     58.46320319
 H    -21.95624131     14.19500031     58.79799741
 H    -20.97645109     14.77398076     56.63713385
 H    -22.98292256     14.42385194     56.27745721
 H    -23.71162842     13.29641064     56.67841794
 H    -22.12198565     12.50483720     56.79971931
 H    -21.09123690     12.94627750     54.93659721
 H    -23.01761229     12.39498187     54.42861991
 H    -23.58532810     11.20600084     54.93539300
 H    -21.90535914     10.71364687     55.25719809
 H    -20.79212981     11.08458276     53.44422350
 H    -22.31123039     11.21983128     52.52645016
 H    -23.35204339      9.28796494     53.13989150
 H    -21.80591804      8.67359294     53.77259215
 H    -21.02784107      9.32382373     51.30250943
 H    -22.77061179      9.47088875     50.97176970
 H    -23.94772413      8.04058233     51.40985870
 H    -22.58262954      6.90140791     51.49391264
 H    -21.39447111      7.06924214     49.78339348
 H    -22.69910485      7.93430507     48.93612517
 H    -24.49349213      6.95468436     49.06188781
 H    -23.66965973      5.45450398     49.55079033
 H    -22.15883093      5.65711490     47.56772172
 H    -23.28580920      6.88643227     46.94565624
 H    -25.06558935      6.72412299     46.81181934
 H    -24.93175288      4.95066638     46.88397281
 H    -23.34155910      4.57973784     45.29442685
 H    -23.58336066      6.23556268     44.68776157
 H    -26.02849557      5.81779911     44.48776570
 H    -25.66530674      4.08751436     44.69386086
 H    -24.06351167      3.99067713     42.92166719
 H    -24.66087481      5.57046283     42.35979437
 H    -26.94385287      4.96253007     42.23855988
 H    -26.45466185      3.25549331     42.36097023
 H    -24.92303319      3.10560843     40.70046082
 H    -25.51016224      4.64862183     40.03513700
 H    -27.84169719      3.71314209     40.03197586
 H    -27.10176334      2.11620875     40.29762311
 H    -25.63097550      2.25352128     38.41206311
 H    -27.47582446      2.96250165     37.80157218
 H    -28.66633282      2.25803367     37.98659725
 H    -27.60996999      0.83616611     38.16168829
 H    -26.36432952      1.30702441     36.14562341
 H    -27.63827382      2.46623338     35.69666110
 H    -29.25354612      0.46563275     36.04721906
 H    -27.78923936     -0.54612952     36.06745505
 H    -26.98083918      0.25160234     33.94757840
 H    -28.59276456      0.94719305     33.65412176
 H    -28.69361191     -1.87733257     34.29717202
 H    -26.94222078     -1.67428244     34.05290493
 H    -26.60862453     -0.84662002     32.13480308
 H    -28.26498453     -1.27401501     31.64279522
 H    -28.43145280     -3.42375911     32.16705997
 H    -26.66120088     -3.52127215     32.32506623
 H    -25.74301387     -2.73508678     30.61678302
 H    -26.38858689     -2.29285923     30.13722632
 H    -27.26775646     -1.35548403     29.71606490
 H    -28.10093600     -2.75549286     28.99908946
 H    -26.46851391     -3.82887313     27.92825150
 H    -25.43705947     -2.38409484     28.05857454
 H    -26.79391322     -0.77993605     27.22151060
 H    -27.84957305     -2.04220034     26.54288120
 H    -26.46146872     -3.33765578     25.40022016
 H    -25.21749731     -2.06651680     25.47098363
 H    -26.53991862     -0.31135735     24.64054708
 H    -27.73182892     -1.51473792     24.09328873
 H    -26.90685667     -1.57015893     22.20106681
 H    -25.09024716     -1.61915468     22.90722417
 H    -25.71552287      0.18723524     22.32979957
 H    -27.15273271     -0.52431360     21.55753486
 H    -25.83289736     -2.13886472     20.29974560
 H    -24.38773325     -1.18672373     20.71591250
 H    -25.08251640      0.88813728     19.98599116
 H    -26.40365946      0.10444355     19.08672934
 H    -24.33148281     -1.28280688     18.11959099
 H    -23.34305183     -0.01985203     18.89174117
 H    -23.67253991      1.80813745     18.56165656
 H    -24.58653334      1.40877522     17.08741353
 H    -23.65974676      0.13611909     15.84770858
 H    -22.09971830      0.44874246     16.64573396
 H    -21.84046395      2.57405830     16.74468454
 H    -23.12188752      2.80041779     15.53019630
 H    -23.03333627      1.75770287     13.90008545
 H    -21.31156756      1.40498514     14.18181115
 H    -21.14962836      4.01470532     14.44890917
 H    -22.78902060      4.04157465     13.75613377
 H    -22.60939641      2.91574020     11.87055146
 H    -20.83731240      3.06388574     11.94825480
 H    -21.63706043      5.65420887     12.19903403
 H    -23.21969603      5.00878049     11.70208992
 H    -22.42360401      4.00480572      9.68568933
 H    -20.92829745      4.95470036      9.85896693
 H    -21.31445499      6.95485733     10.13287545
 H    -22.97936341      6.74025061      9.54102194
 H    -22.46920538      5.63567748      7.54581183
 H    -20.77284674      6.13982754      7.73677449
 H    -21.56457703      8.51854211      7.97745199
 H    -23.14115907      7.95427350      7.37391517
 H    -22.85510578      6.91794768      5.55639170
 H    -21.22670973      7.61774894      5.39246749
 H    -21.53833977      9.78784336      5.65658844
 H    -23.28672307      9.56872987      5.40477146
 H    -23.40333520      8.42370455      3.50611535
 H    -21.70588748      8.83073480      3.15788516
 H    -21.33700544     10.83914441      3.32377402
 H    -23.07986852     11.19200639      3.24513948
 H    -23.56708222      9.97571709      1.31133768
 H    -21.82315178      9.88324568      0.96721219
 H    -21.29311927     12.12285483      1.09716925
 H    -23.02684936     12.51571371      1.00712187
 H    -23.35534365     11.20342543     -1.01378424
 H    -21.58508327     11.14700577     -1.19059392
 H    -22.15439828     13.83821386     -0.98977248
 H    -23.82869599     13.27989768     -1.22059034
 H    -23.07126343     12.16231631     -3.36190073
 H    -21.57520607     13.11487762     -3.21121568
 H    -22.72106529     15.22630080     -3.04361369
 H    -24.19641706     14.40985303     -3.61371617
 H    -23.46681847     13.41833254     -5.50916276
 H    -22.01617212     14.44930214     -5.47764239
 H    -22.38313555     16.40619387     -5.26370868
 H    -24.08297271     16.16903985     -5.73549067
 H    -22.87081760     14.95161362     -7.79123447
 H    -21.39792035     15.72482610     -7.15800242
 H    -21.59624693     17.73503799     -6.91166727
 H    -23.03181058     17.74967062     -7.96390753
 H    -22.81838781     16.81742358     -9.71006050
 H    -21.04600278     16.86511395     -9.55307771
 H    -20.24962463     18.60417131     -9.09089679
 H    -21.73874845     19.45001606     -9.57599838
 H    -22.19105051     18.67184418    -11.58419213
 H    -20.53992080     18.01822124    -11.70590646
 H    -19.29551811     19.83790196    -11.19144782
 H    -20.72342423     20.87088117    -11.44105696
 H    -21.35074372     20.16649565    -13.53788174
 H    -19.76139650     19.38836023    -13.72957773
 H    -18.46120885     21.28480881    -13.19462977
 H    -19.91551366     22.29114680    -13.39599518
 H    -20.69703534     21.75707545    -15.37920849
 H    -19.14494955     20.98720154    -15.78736351
 H    -17.78546970     22.84856870    -15.22472386
 H    -19.25061278     23.85911707    -15.20436677
 H    -19.60365871     22.89028756    -17.60849614
 H    -17.92220224     22.32172575    -17.47542363
 H    -16.70951252     24.01362900    -16.96116886
 H    -18.02251383     25.11658935    -17.43842424
 H    -18.16690876     23.95572415    -19.65097579
 H    -16.15999295     23.97047394    -19.17854755
 H    -15.37282966     25.07861773    -18.77722544
 H    -16.63286655     26.07274916    -19.54682040
 H    -17.05710999     25.32294645    -21.46113270
 H    -15.54702354     24.38074198    -21.44863009
 H    -13.95245494     25.69330650    -20.91941745
 H    -14.97945528     27.10526799    -21.26568569
 H    -15.54552590     26.25005865    -23.49716861
 H    -14.21236763     25.08538284    -23.31146465
 H    -12.45885353     26.25228189    -22.78951520
 H    -13.27885443     27.73936519    -23.32285229
 H    -14.00343120     27.26539021    -25.35271388
 H    -12.92415091     25.85110536    -25.40945103
 H    -10.95989011     26.50302006    -24.88215722
 H    -11.43203614     28.19686267    -25.15827677
 H    -12.33667368     28.17681937    -27.17893334
 H    -11.61807458     26.57735236    -27.48485374
 H     -9.75198076     26.30581891    -27.13392161
 H     -9.46242572     28.06204864    -27.14295858
 H    -10.62903464     28.22286552    -29.35151325
 H    -10.50350916     26.44987625    -29.44648213
 H     -8.42477228     25.95677034    -29.13486809
 H     -7.96614398     27.64893936    -29.44226154
 H     -9.07043150     27.92710023    -31.47576888
 H     -9.25667523     26.16015128    -31.58287337
 H     -6.97763111     25.62687220    -31.26534340
 H     -6.57530215     27.33295737    -31.57465144
 H     -7.91732246     27.04256684    -33.76050703
 H     -8.35661175     25.94479775    -33.53781650
 H     -8.99735113     24.89742658    -33.06100972
 H     -7.43523690     24.10800860    -33.38486936
 H     -6.44949619     24.27039167    -34.87027548
 H     -7.87271617     24.83188021    -35.77991397
 H     -8.73207533     22.50713278    -34.57892498
 H     -6.99801488     22.29550730    -34.23758105
 H     -6.28624335     22.48074005    -36.50089062
 H     -7.97969484     22.26470313    -37.00469292
 H     -8.81217256     20.58253246    -36.12874457
 H     -7.19355114     19.96722923    -35.71675755
 H     -6.03717773     20.05143372    -37.55694642
 H     -7.53556934     20.23908409    -38.49921846
 H     -8.59628325     18.30656219    -37.51298637
 H     -7.00357190     17.82466112    -36.88107767
 H     -6.26294077     18.04471163    -39.37892557
 H     -8.00360996     18.11277157    -39.74458288
 H     -8.97510680     16.46248337    -38.88745229
 H     -8.03303105     15.88679305    -38.28636966
 H     -6.88510761     15.48263498    -37.62029447
 H     -6.33345631     14.96931594    -39.23288589
 H     -8.44853918     13.76060527    -39.63245537
 H     -8.78639655     13.93049417    -37.89312883
 H     -7.01576117     13.14329988    -36.88027729
 H     -6.48980814     12.36517000    -38.39228059
 H     -8.58124201     11.24359997    -38.76837729
 H     -8.50313943     11.29352116    -36.73677056
 H     -7.56980480     11.03248411    -35.75762609
 H     -6.83201814      9.98261901    -36.99120657
 H     -8.38888140      8.76206586    -37.81496941
 H     -9.44881343      9.16428816    -36.44273474
 H     -8.07316618      8.66429676    -34.69126127
 H     -7.00707300      7.77331770    -35.80385658
 H     -8.45868083      6.38338455    -36.82681368
 H     -8.87918414      6.32569665    -34.80520161
 H     -8.09239126      6.16813194    -33.77113243
 H     -7.04700863      5.43111511    -35.00897249
 H     -8.92935655      4.02017047    -35.79828529
 H     -9.78854207      4.47278679    -34.30657306
 H     -8.14213059      3.85477811    -32.77651459
 H     -7.32437591      2.94413626    -34.06890592
 H     -9.47106395      1.73310612    -34.53155694
 H    -10.06442141      2.38110945    -32.98356299
 H     -8.51269776      1.78656994    -31.52273601
 H     -7.85318513      0.62232275    -32.69654955
 H    -10.24948888     -0.29144084    -32.87010297
 H    -10.59597163      0.67080489    -31.41329154
 H     -9.19718476      0.19891474    -29.91257281
 H     -8.73252239     -1.28173261    -30.78437494
 H    -11.06463645     -2.02091774    -30.95504381
 H    -11.47236262     -0.78558385    -29.74014619
 H     -9.72994612     -1.74434400    -28.21686266
 H     -9.68963439     -3.15683997    -29.29921970
 H    -11.60319134     -3.91548828    -29.59275290
 H    -12.20104099     -3.01668067    -28.17748355
 H    -10.93407055     -3.39975494    -26.53098928
 H    -10.24491211     -4.81218958    -27.36666607
 H    -11.61951443     -6.08435731    -28.10578005
 H    -12.87845435     -5.37200186    -27.06853048
 H    -11.25114034     -5.75744232    -25.11981617
 H    -10.32761342     -6.78013664    -26.24651978
 H    -12.62204495     -8.01828957    -26.52562719
 H    -13.13314474     -7.09418181    -25.09277391
 H    -11.57444357     -7.55473193    -23.58374765
 H    -11.02482403     -8.92928385    -24.57207555
 H    -13.17678380     -9.93338495    -24.78441066
 H    -13.74860042     -8.87754782    -23.47044706
 H    -12.43822048     -9.07073987    -21.81889298
 H    -11.76449698    -10.56805988    -22.50620375
 H    -13.49927683    -11.82070073    -22.96668975
 H    -14.52395876    -10.78761254    -21.94149592
 H    -13.10579960    -10.91336144    -20.02135496
 H    -12.26040468    -12.27580994    -20.79421211
 H    -14.08975441    -13.61827928    -21.25549976
 H    -15.06614127    -12.62598617    -20.14631550
 H    -13.69557185    -12.72918977    -18.27945644
 H    -12.81463436    -14.08003401    -19.03273968
 H    -14.40467415    -15.51533977    -19.58670896
 H    -15.54747324    -14.66048245    -18.52299102
 H    -13.84536872    -14.90143889    -16.65879188
 H    -13.01244086    -16.07196184    -17.70968382
 H    -14.41123279    -17.54540128    -18.32265591
 H    -15.53015319    -17.04404176    -17.03233718
 H    -13.36823385    -17.21045585    -15.51340772
 H    -12.78022901    -18.15629320    -16.61267600
 H    -15.28488808    -17.43672835    -14.79505034
 H    -13.74211522    -16.58159850    -14.55657285
 H    -12.34585429    -18.24534643    -13.99604350
 H    -13.74246008    -19.30507533    -13.68825526
 H    -14.91268973    -17.89804924    -12.24427646
 H    -13.49888570    -16.88665466    -12.08455988
 H    -12.08622718    -16.67836930    -11.99325050
 H    -12.04261176    -18.23668393    -11.13416966
 H    -13.66117982    -17.99173170     -9.60058496
 H    -13.66373598    -16.23596912     -9.89308776
 H    -11.15664671    -16.27167976     -9.48016407
 H    -11.39306667    -17.91157887     -8.82970024
 H    -13.05351903    -17.35494933     -7.25385554
 H    -12.63154058    -15.63930052     -7.47007305
 H    -10.22165561    -16.13314408     -7.10940142
 H    -10.68262948    -17.57280812     -6.39497973
 H    -11.14059359    -14.41971562     -6.54330113
 H     -9.78844243    -15.09765343     -7.48157306
 H     -8.79299183    -15.88952246     -5.28503740
 H     -9.97486497    -14.82567033     -4.48524919
 H     -9.58693065    -12.84850295     -5.48752171
 H     -8.04333433    -13.47725963     -6.11221530
 H     -7.01178846    -14.28252950     -4.34521471
 H     -8.13341611    -13.39792229     -3.28328808
 H     -7.89202920    -11.28267764     -4.21699714
 H     -6.43438675    -11.85326031     -5.06433448
 H     -5.35575001    -12.69075434     -3.10354671
 H     -6.53662443    -11.78678220     -2.12546867
 H     -5.96219804     -9.69634704     -3.35244088
 H     -4.53840703    -10.55808596     -3.98370298
 H     -3.72990603    -11.19951263     -1.81102732
 H     -4.85678024    -10.01857130     -1.10123949
 H     -3.98720177     -8.20664325     -2.50468860
 H     -2.60867019     -9.26308450     -2.89436698
 H     -1.97206419     -9.74963592     -0.68733911
 H     -2.99733136     -8.40491241     -0.13163002
 H     -1.99115243     -6.78657604     -1.60141722
 H     -0.67016973     -7.94514358     -1.88600922
 H     -0.27514968     -8.16730498      0.54338571
 H     -1.29069113     -6.72208426      0.76311128
 H      0.03949554     -5.40372176     -0.79864783
 H      1.28686313     -6.67004907     -0.70507480
 H      0.93162028     -6.04886715      1.91561429
 H      0.02998904     -4.65874873      1.26530779
 H      1.65460910     -3.77582480     -0.11693464
 H      2.86968818     -4.78284051      0.70633254
 H      2.70038124     -4.47487269      2.79816363
 H      1.74843488     -2.99669140      2.52059407
 H      3.35078054     -2.02479107      1.01177233
 H      4.52859099     -3.23963570      1.56420488
 H      4.28291668     -2.75456349      3.88643399
 H      3.44260521     -1.25134776      3.43644981
 H      5.40532516     -0.64478018      1.98521897
 H      6.29835418     -1.94338946      2.81249145
 H      6.00828604     -1.37348552      4.98543156
 H      5.46986698      0.24508639      4.47690768
 H      7.39440413      0.67260636      3.10835123
 H      8.19501699     -0.71118346      3.89091843
 H      7.70839766      0.30674440      6.12842705
 H      7.31117108      1.80796580      5.25847761
 H      9.21634206      2.08792210      4.02722458
 H     10.03910845      0.89451994      5.06023639
 H      9.73895812      1.49651001      7.09836938
 H      9.24330248      3.11899995      6.55974282
 H     11.05586520      3.60302618      5.19398461
 H     11.94066044      2.24635708      5.93212621
 H     11.78151463      2.63218216      8.10933687
 H     11.27189928      4.30457298      7.77516954
 H     12.76997817      5.11378821      6.41232874
 H     13.87155328      3.77578863      6.81798385
 H     13.88585838      3.86586603      9.07695405
 H     13.16078843      5.48991362      9.00617513
 H     14.22915136      6.72860351      7.73252723
 H     15.61698235      5.61490777      7.77581241
 H     15.48373628      5.72631354     10.31323870
 H     14.39634296      7.11761050     10.08932980
 H     15.81591535      8.38990144      8.71939506
 H     17.16447979      7.32690033      9.18808394
 H     17.31267910      7.14249735     11.23586944
 H     16.28692851      8.57916402     11.46410461
 H     16.57812332     10.17244397     10.55789808
 H     18.25118613      9.69017544     10.18837869
 H     19.05699121      9.94181274     12.19306198
 H     17.13258121     10.03938485     12.94071060
 H     18.61737109     11.86489695     11.52074208
 H     19.93247492     10.69936174     11.80410801
 H     19.87457412     10.51378933     14.06645362
 H     18.87135794     11.98183423     14.14811228
 H     19.73120398     13.53403101     13.07720284
 H     21.29551863     12.68502896     13.05766167
 H     21.27126717     12.35987120     15.47989195
 H     19.95288304     13.55305573     15.56014542
 H     20.42311190     15.29740870     14.59206270
 H     22.15051427     14.86820197     14.60343341
 H     22.97358113     14.28444375     16.22083627
 H     21.64650764     14.97790403     17.18325793
 H     21.53787807     17.08044759     16.34523935
 H     23.13306813     16.84911806     15.59017514
 H     24.35833739     16.14624159     17.37186540
 H     23.07009382     16.71059976     18.46282600
 H     23.09916655     18.95133991     17.42593013
 H     24.63888215     18.49342924     16.65920960
 H     25.87692168     17.81638982     18.39381243
 H     24.72601634     18.58876746     19.51055606
 H     24.65010773     20.69611307     18.59536140
 H     26.57288457     20.13571266     18.93848993
 H     26.90124641     19.72706737     20.19322182
 H     25.40184372     20.57200980     20.64723785
 H     25.15800933     22.38324450     19.91123391
 H     26.89341878     22.49631681     19.53197755
 H     28.09843074     21.99555182     21.07592963
 H     26.75172139     22.18318114     22.22459661
 H     26.13977350     24.37253362     21.47470573
 H     27.69562537     24.45951286     20.61445796
 H     29.23195311     23.98430513     22.05072848
 H     28.08363113     24.25135465     23.38426057
 H     27.10044828     26.03162537     23.23749817
 H     28.30743283     26.63292821     22.07565056
 H     30.14262216     26.01742708     23.63442986
 H     28.89894550     25.82785577     24.89363506
 H     27.98907130     28.04113617     24.56196413
 H     29.44757569     28.43860755     23.62225773
 H     30.29630295     27.47340827     26.12623405
 H     28.56779700     27.66819259     26.50384880
 H     28.55663584     30.01680606     25.87753534
 H     30.33576584     29.96844715     25.90252565
 H     30.04726966     29.04494911     28.30796365
 H     28.34977769     29.56102659     28.16495414
 H     27.98654308     31.38205981     27.62039936
 H     29.64667816     31.87108156     28.03642329
 H     29.16672633     30.75355405     30.32198961
 H     27.46084725     30.73896282     29.81402278
 H     26.78362958     32.55717314     29.21902966
 H     28.15946625     33.36012412     30.01313911
 H     27.54789052     32.07118529     32.11991205
 H     26.01056206     31.68561953     31.30983371
 H     25.83140911     34.28444769     31.05278513
 H     27.17269404     34.35195789     32.22097337
 H     26.39668573     33.13943680     33.93495038
 H     24.75251045     33.25046953     33.26217552
 H     24.93352047     35.71775147     33.13119528
 H     26.37059604     35.58876088     34.17352052
 H     25.19728410     34.32521332     35.88059267
 H     23.67118242     34.79294943     35.09287238
 H     24.13663777     37.14340321     35.12401164
 H     25.45025341     36.81744738     36.28005378
 H     24.37336156     35.63425611     37.87559913
 H     22.81368203     36.16712695     37.20350159
 H     23.34034988     38.49561493     37.23924922
 H     24.72089988     38.11924401     38.29787725
 H     22.98267658     36.93290719     39.79593072
 H     21.75229545     37.75895236     38.80999040
 H     22.65536158     39.95481157     39.17350968
 H     22.70442771     38.96763816     40.99093847
 H     21.50730483     38.35228911     41.49801697
 H     20.63147637     39.41061821     40.36614653
 H     22.11573054     41.27891517     41.47309475
 H     22.49632384     40.04532370     42.69852018
 H     21.08150375     39.10887344     43.57193550
 H     19.91208142     40.36040821     43.08780867
 H     20.92278822     42.25246641     43.73514966
 H     22.04331794     41.30296356     44.74069634
 H     20.11301246     40.17469856     45.83848154
 H     19.07727067     41.42957794     45.11682835
 H     20.07713184     43.32438661     45.79585996
 H     20.99944098     42.39641445     47.00270717
 H     19.18771124     41.30993980     48.01154860
 H     18.09223258     42.45977974     47.20776921
 H     18.75220252     44.43024096     47.61455282
 H     19.76496993     43.83378463     48.95126846
 H     18.04022640     42.62177571     50.04552595
 H     17.07997135     44.29132755     49.31556969
 H     17.49562413     45.65556251     49.46590909
 H     18.45046614     45.07898296     50.85302820
 H     16.96679976     43.86956689     52.00968358
 H     15.64348106     44.61217341     51.07929127
 H     15.59345457     46.23703985     52.55207709
 H     17.56483045     46.04316407     52.89318567
 H     16.06101687     44.86690515     54.06013975
 H     15.21393513     44.92561334     53.52891905
 H     14.21064372     44.84867049     52.57874213
 H     13.85239418     46.52112229     53.07151886
 H     13.74921494     46.76865690     55.07906721
 H     13.57267680     45.01318256     55.31446216
 H     11.82232661     44.64952975     53.82235930
 H     11.53304218     46.40527781     53.77842806
 H     11.35528205     47.10674315     55.77684147
 H     11.11154612     45.44168399     56.35687377
 H      9.33600744     44.97443953     54.78980301
 H      9.23525941     46.72221394     54.46824260
 H      9.03625483     47.74625841     56.31012283
 H      8.58763286     46.22890810     57.12538538
 H      7.06339503     45.26286689     56.08143723
 H      6.69588719     46.75903073     55.18997864
 H      6.47544185     48.28611138     56.77852408
 H      6.33608857     46.99719603     57.99817344
 H      4.59453742     45.81401762     56.87048744
 H      4.34997786     47.24731780     55.84378988
 H      4.36649211     48.26568927     58.43773860
 H      4.00364561     46.85798178     58.84733651
 H      3.49585296     49.30675442     56.91532588
 H      4.47021207     49.40989730     58.56368248
 H      4.40947088     49.16091441     59.95474027
 H      2.65721145     49.41986993     59.77925354
 H      2.58434864     51.25560392     60.26339319
 H      3.96220561     51.71317642     58.96681132
 H      4.35005093     51.56145783     61.07369605
 H      2.60477027     51.43220434     61.39858929
 H      1.66529179     53.08795715     60.36889975
 H      3.24559748     53.88787898     60.19275879
 H      4.02441680     53.86147974     62.30598740
 H      2.38875795     53.47929153     62.89490078
 H      1.20473121     55.16447496     61.87185706
 H      2.96801643     56.05689914     62.47874700
 H      3.55735624     55.98494537     63.74569423
 H      1.92525881     55.54960788     64.30694809
 H      1.07669025     57.58480303     63.03061877
 H      2.92542404     58.13767204     63.73982694
 H      3.39391497     58.02891057     65.10501877
 H      1.67602292     57.96808438     65.56698601
 H      0.68968343     59.58984993     64.55639968
 H      2.26242627     60.35128970     64.21734790
 H      1.88735434     61.37322382     66.19386389
 H      1.01461058     59.78191117     66.90954278
 H     -0.16941437     61.21641579     66.02705680
 H      1.20423117     62.34660240     65.96347363
 H      2.19255154     62.55549230     67.69686278
 H      0.82691173     61.84979970     68.59424371
 H     -0.56597848     63.65861709     67.30958311
 H      1.01039958     64.36934032     66.88747962
 H      1.81188027     64.55864214     69.10857385
 H      0.15200007     64.28028183     69.68786645
 H     -0.59579231     66.27000503     68.37729436
 H      1.08303984     66.53482558     67.84846606
 H      0.65695310     66.69107880     69.56959990
1502
Final Conformation Chain 7 (Simulation Frame 8)
 C      0.00000000      0.00000000      0.00000000
 C      1.54000000      0.00000000      0.00000000
 C      2.16637443      0.49741550     -1.31599122
 C      3.70629252      0.51228592     -1.31040952
 C      4.31842947      1.70659359     -0.55508340
 C      3.80367845      3.07824080     -1.02965198
 C      4.60780861      4.27242434     -0.48293419
 C      4.15617598      5.63717556     -1.03527657
 C      4.70587306      6.84324075     -0.25115932
 C      4.45223481      8.20117202     -0.93181366
 C      5.30183316      9.35405303     -0.36555575
 C      5.03215260     10.71638029     -1.03109074
 C      5.93847130     11.85258574     -0.52195071
 C      7.40775260     11.43847219     -0.31867153
 C      8.36964847     12.62326980     -0.11224726
 C      9.79847913     12.36699529     -0.62641291
 C     10.76647843     13.54286449     -0.39857746
 C     12.24504123     13.19528837     -0.65282711
 C     13.23420123     14.26858644     -0.16171230
 C     14.70460623     13.97153546     -0.50995049
 C     15.71606249     14.55149113      0.49613483
 C     15.97520990     16.05984172      0.32490071
 C     16.81983364     16.68222374      1.45222115
 C     17.03870637     18.19957989      1.30619020
 C     18.04520027     18.78700682      2.31291739
 C     18.14333984     20.32344404      2.27645780
 C     19.58725488     20.85867945      2.26121290
 C     19.69336482     22.36622028      1.96513634
 C     20.99423210     23.01448703      2.47414966
 C     21.26724568     24.41310184      1.89024883
 C     22.59972150     25.03417825      2.34891241
 C     22.94439000     26.36309799      1.65121910
 C     24.33700887     26.91517936      2.00817688
 C     24.73006933     28.17947861      1.22163326
 C     26.24285698     28.31332856      0.96637314
 C     26.64720371     29.62755693      0.27289820
 C     28.16842381     29.85729893      0.20428318
 C     28.93676034     28.74722050     -0.53665194
 C     30.43403027     28.67854182     -0.18300521
 C     31.16790640     27.47178539     -0.79681685
 C     32.69569180     27.50449984     -0.60602501
 C     33.46153151     26.52507338     -1.51476774
 C     34.91032059     26.25721113     -1.06659365
 C     35.02969053     25.27209477      0.11107208
 C     36.48086242     24.94490608      0.50937813
 C     36.60946263     24.20130886      1.85181068
 C     38.06093071     24.03319960      2.33820528
 C     38.18757405     23.31871168      3.69653825
 C     39.62064008     23.29351378      4.25982043
 C     39.73707828     22.63400585      5.64657615
 C     41.18677468     22.37763936      6.09852370
 C     41.30198069     21.58165232      7.41181431
 C     41.48105512     20.06526930      7.21152729
 C     41.86942127     19.30566101      8.49362205
 C     42.10312786     17.79826456      8.28211042
 C     42.85366561     17.11240605      9.43878289
 C     43.18337469     15.63052277      9.18010574
 C     43.87737606     14.92774256     10.36165644
 C     44.34553406     13.49404224     10.05031823
 C     44.88996457     12.73334839     11.27364987
 C     44.74568294     11.20330156     11.17496096
 C     45.87614031     10.42145370     11.86949682
 C     45.84976097      8.90623627     11.59559856
 C     47.15002973      8.17713162     11.98200196
 C     47.67975247      8.54056338     13.38161304
 C     49.21454948      8.49842413     13.50087080
 C     49.76938826      9.26105633     14.71830501
 C     51.23602913      8.92888436     15.05030852
 C     51.56471378      8.97907542     16.55398643
 C     53.04982343      8.73336809     16.87906681
 C     53.47455884      9.22293296     18.27603713
 C     54.99060748      9.14165294     18.53408766
 C     55.37579605      9.18980161     20.02435994
 C     56.88634603      9.04345340     20.28593396
 C     57.25191933      8.88413658     21.77340641
 C     58.76574004      8.92075732     22.05377362
 C     59.14802239      8.50040145     23.48512303
 C     60.60839320      8.81306550     23.86083339
 C     60.96094050      8.49198233     25.32514756
 C     62.45787912      8.63871355     25.65566946
 C     62.76830877      8.64809795     27.16402796
 C     64.19188849      9.12452376     27.50759634
 C     64.47291332      9.21976262     29.01873982
 C     65.91406809      9.63980761     29.36259316
 C     66.25216467      9.54863688     30.86225266
 C     67.76153626      9.57452482     31.16676411
 C     68.09630769      9.72650723     32.66223374
 C     69.59204122      9.56087594     32.98926198
 C     69.89007147      9.39304494     34.49079810
 C     71.38601058      9.48009452     34.84602841
 C     71.69064989      9.24261639     36.33679970
 C     73.18959717      9.29567768     36.68600099
 C     73.53403678      8.69425827     38.06123044
 C     75.00539195      8.88095961     38.47578630
 C     75.27421495      8.61449356     39.96854550
 C     76.76552278      8.64459089     40.35155349
 C     77.06860165      8.04466844     41.73713505
 C     78.53300338      8.20942117     42.18433086
 C     78.82829760      7.63971482     43.58427228
 C     80.32532806      7.60639484     43.94397989
 C     80.60801831      7.25592924     45.41668491
 C     82.10466638      7.23213279     45.77873228
 C     82.40774910      6.59674131     47.14841054
 C     83.78179435      6.98200565     47.72735011
 C     83.86496144      6.88315584     49.26192234
 C     85.29938581      6.73921243     49.80350059
 C     85.37360878      6.48591433     51.32071219
 C     86.80477880      6.28625159     51.85314732
 C     86.86781652      5.79850706     53.31250728
 C     88.25554125      5.94754095     53.96335978
 C     88.24097304      5.84537344     55.49989796
 C     89.63359643      5.95472765     56.14815852
 C     89.62379595      5.81122737     57.68142680
 C     90.78013709      6.54422413     58.38654447
 C     90.87090009      6.26311336     59.89794740
 C     92.20006991      6.70436024     60.53842282
 C     92.43862944      6.12807176     61.94646435
 C     93.65193554      6.73569814     62.67466658
 C     94.01289789      6.02397931     63.99177040
 C     95.00281502      6.80570293     64.87527041
 C     95.63383095      5.96696148     66.00218286
 C     96.17860545      6.80285377     67.17525780
 C     97.33007811      6.12808394     67.94363035
 C     98.16821665      7.09914824     68.79577934
 C     99.15150081      6.40242302     69.75459436
 C    100.12156325      7.36464248     70.46502561
 C    101.29829839      6.66217297     71.16747205
 C    101.96314380      7.50604942     72.27085463
 C    103.30785686      6.94210213     72.76614264
 C    104.03338198      7.84945026     73.77704950
 C    105.02523068      8.83630278     73.13365362
 C    105.91232914      9.58294840     74.14715085
 C    106.57681847     10.85218043     73.58225796
 C    107.37838424     11.65577176     74.62309094
 C    107.67355366     13.10733293     74.20184848
 C    106.42446992     14.00531703     74.13103630
 C    106.72821201     15.47466211     73.78409860
 C    105.47357722     16.35473940     73.63258788
 C    105.74842647     17.86461812     73.76035393
 C    104.51059845     18.74904743     73.52125855
 C    104.57607219     20.12010505     74.21948070
 C    103.20994435     20.81664032     74.36137269
 C    103.30340200     22.31418534     74.70810686
 C    101.93897600     23.02254919     74.79845248
 C    101.83987747     24.04735831     75.94367986
 C    100.72894385     25.09633970     75.75115830
 C    100.47306118     25.97255583     76.99146849
 C     99.66765220     27.25216804     76.69904935
 C     99.26331392     28.03949951     77.95929524
 C     98.66398731     29.42731475     77.66539651
 C     98.13423642     30.15787204     78.91329476
 C     98.23926939     31.69216826     78.83265248
 C     98.56492510     32.36923380     80.17694806
 C     98.58758365     33.90778473     80.11411807
 C     98.93591873     34.58429506     81.45299688
 C     99.06465361     36.11642634     81.36581282
 C     99.70777338     36.76260660     82.60696069
 C     99.59569250     38.29810423     82.64280638
 C    100.66659208     38.98421237     83.51115521
 C    100.90169913     40.46549016     83.16166873
 C    101.31880056     40.70534175     81.69876148
 C    100.85125378     42.05695638     81.12767666
 C    100.99724837     42.17531817     79.59918849
 C    100.28506033     43.39973968     78.99488711
 C    100.49868027     43.56345139     77.47858734
 C    100.11605160     42.32018202     76.65428365
 C    100.76290176     42.27127173     75.25757587
 C     99.93291713     41.50715999     74.20931122
 C    100.61912278     41.38307516     72.83623993
 C     99.76650020     40.66704281     71.77231681
 C    100.39328519     40.66364116     70.36564378
 C     99.57340175     39.88996211     69.31644796
 C    100.04052123     40.11470077     67.86631281
 C     99.19580586     39.37259700     66.81401156
 C     99.69840900     39.54950195     65.36912584
 C     98.62726650     39.28017142     64.29594608
 C     99.10211905     39.54860706     62.85578728
 C     98.03371993     39.27102851     61.78197469
 C     98.51780344     39.51128980     60.33991448
 C     97.43404172     39.28494439     59.26948078
 C     97.92070171     39.51593287     57.82677278
 C     96.79555552     39.49620867     56.77546073
 C     97.28823244     39.67429950     55.32730566
 C     96.17658142     39.55461997     54.26829252
 C     96.67503965     39.09248227     52.88642128
 C     95.57349416     39.02958040     51.81206525
 C     95.98294231     38.26565813     50.53912574
 C     94.79329281     37.77130925     49.69535251
 C     95.20245027     37.05484342     48.39501913
 C     94.01400453     36.52663980     47.57027816
 C     94.41374624     35.92389355     46.21068134
 C     93.27539686     35.16618777     45.50241399
 C     93.48310307     33.64163575     45.43761221
 C     92.39996040     32.89539089     44.63666241
 C     92.79368517     31.46155906     44.23577951
 C     91.81887151     30.79805927     43.24527138
 C     91.92651126     29.26268279     43.19396100
 C     91.20677320     28.62414777     41.99152591
 C     91.15352849     27.08577358     42.03810757
 C     90.61079970     26.43853086     40.75042658
 C     90.57565754     24.89943393     40.78974170
 C     90.48591753     24.23927458     39.40131223
 C     90.34854739     22.70602052     39.44445665
 C     88.91889084     22.21317203     39.73563100
 C     88.76617489     20.68106180     39.70536411
 C     87.30526049     20.19838432     39.63939784
 C     87.15510593     18.69541957     39.33914699
 C     85.69423597     18.22483900     39.21260502
 C     85.54432853     16.77026121     38.72956132
 C     84.09534531     16.36579791     38.40023308
 C     83.96340454     14.96707990     37.76953542
 C     82.50805999     14.50996309     37.55830931
 C     82.36934000     13.03387018     37.14176820
 C     80.98263933     12.66925617     36.57988041
 C     80.82278612     11.17938907     36.22443283
 C     79.35858980     10.71898116     36.09891912
 C     79.19082287      9.33674165     35.44099192
 C     77.72749439      8.95469227     35.15063346
 C     77.48880259      7.43836929     35.02657352
 C     76.01121628      7.05078110     34.83134523
 C     75.70692757      5.57115954     35.13089226
 C     74.28180041      5.13402311     34.74420850
 C     74.17875275      3.66671117     34.28816373
 C     72.79840471      3.28146573     33.72440382
 C     72.62148721      1.77158450     33.47831673
 C     71.38132565      1.41501926     32.63780466
 C     71.31728460     -0.06352142     32.21187483
 C     70.26360732     -0.35808216     31.12808603
 C     70.58877648     -1.58444772     30.25522148
 C     69.40532502     -2.07757250     29.40206815
 C     69.66164276     -3.41962517     28.69157828
 C     68.74726123     -3.67060562     27.47810589
 C     68.84920130     -5.09470406     26.90091281
 C     68.05003868     -5.30239768     25.60098879
 C     68.54788165     -6.47877808     24.74082512
 C     67.73187012     -6.70335910     23.45424495
 C     68.40772491     -7.64490197     22.44018512
 C     67.57670919     -7.89595608     21.16818485
 C     68.14945365     -8.99354163     20.25228653
 C     67.41011082     -9.13730866     18.90904298
 C     68.08532293    -10.10885969     17.92325537
 C     67.30991694    -10.30538375     16.60730558
 C     67.92841539    -11.35633388     15.66679322
 C     67.03109553    -11.73460642     14.47376055
 C     67.63079724    -12.81736860     13.55747243
 C     66.65975718    -13.33389991     12.47956863
 C     67.15939566    -14.58554403     11.73435163
 C     66.37275133    -14.90532490     10.44962174
 C     66.59803557    -16.33225110      9.91602204
 C     65.96611257    -16.59191764      8.53586023
 C     64.45009934    -16.32674997      8.48117957
 C     63.67790966    -17.29294030      7.56368332
 C     62.27635070    -16.79370971      7.16618957
 C     61.53898133    -17.71756683      6.17908549
 C     60.08244690    -17.30195649      5.90092099
 C     59.38396458    -18.15074077      4.82236283
 C     58.01821939    -17.59639495      4.37622298
 C     57.42309532    -18.31059643      3.14848376
 C     56.17718621    -17.61906428      2.56445143
 C     55.54709373    -18.36508269      1.37363657
 C     54.06341474    -18.02707665      1.13689080
 C     53.29195683    -19.10684382      0.35551025
 C     51.93078331    -18.63430091     -0.18809793
 C     50.96410110    -19.78072307     -0.53858579
 C     49.52160399    -19.32008219     -0.81896420
 C     48.44596364    -20.33956193     -0.40032486
 C     47.00723614    -19.90646844     -0.73810173
 C     45.96422308    -21.03000576     -0.59185654
 C     44.51404883    -20.57449516     -0.83905026
 C     43.47993686    -21.71378805     -0.77405692
 C     42.04135098    -21.27345746     -1.10296366
 C     41.05372786    -22.44171639     -1.28008409
 C     39.59081806    -22.00131356     -1.47383712
 C     38.64293279    -23.14203627     -1.88840343
 C     37.15381788    -22.74944038     -1.89069399
 C     36.25335673    -23.71250774     -2.68647723
 C     34.74859990    -23.40898173     -2.56327477
 C     33.97193341    -23.54436802     -3.88617300
 C     32.54445145    -22.96869718     -3.83618968
 C     31.71252623    -23.24605420     -5.10211761
 C     30.42062383    -22.41330014     -5.19755798
 C     29.46930547    -22.59354553     -4.00001676
 C     28.12400064    -21.85977519     -4.15277797
 C     27.20613970    -21.97160672     -2.92126467
 C     25.81797789    -21.33347834     -3.11465275
 C     24.88956851    -21.47147087     -1.89374568
 C     23.48753952    -20.86926358     -2.10173869
 C     22.73776392    -20.56083478     -0.79242275
 C     21.44856402    -19.74126167     -0.98700829
 C     20.70635622    -19.42060265      0.32368060
 C     19.75157286    -18.21639126      0.22436468
 C     19.57586222    -17.44567085      1.54599845
 C     18.31262598    -16.56622391      1.59506262
 C     18.24268356    -15.63830175      2.82211948
 C     16.83315494    -15.09087066      3.11392123
 C     16.66010656    -14.53413949      4.53930001
 C     15.20938416    -14.15712636      4.89266328
 C     14.87110804    -14.30181405      6.38806782
 C     13.45647635    -13.81986891      6.75974787
 C     13.24299465    -13.60998821      8.27036882
 C     11.83025778    -13.12209084      8.64148966
 C     11.53923929    -13.13790104     10.15365972
 C     10.04290968    -13.04077533     10.50460743
 C      9.76148028    -12.88766114     12.01091202
 C      8.26852347    -12.96632974     12.38035919
 C      7.93503293    -12.38592494     13.76726738
 C      6.44576567    -12.48562304     14.14640231
 C      6.11399278    -11.91457069     15.53759818
 C      4.61319842    -11.93674511     15.88216253
 C      4.31814241    -12.05984906     17.38861113
 C      2.87244570    -11.69665478     17.77545856
 C      2.51391099    -12.02442741     19.23683393
 C      1.04090078    -11.75459166     19.59604082
 C      0.77744927    -11.63105155     21.10830110
 C     -0.48028748    -10.81513204     21.46040000
 C     -0.54044537    -10.35996462     22.93036723
 C     -1.93815294     -9.90320117     23.38794861
 C     -1.92837758     -9.03693814     24.66117003
 C     -3.33053992     -8.71608975     25.21125829
 C     -3.32434692     -7.78298824     26.43636368
 C     -4.72371427     -7.49396608     27.01067826
 C     -4.71384861     -6.59916355     28.26400627
 C     -6.08821900     -6.45917939     28.94452846
 C     -6.07669757     -5.57103640     30.20257030
 C     -7.47406917     -5.10925355     30.65612210
 C     -7.45132969     -3.98505778     31.70838954
 C     -8.82269750     -3.32861937     31.95341805
 C     -8.79155468     -2.17450218     32.97255672
 C    -10.18312653     -1.73740822     33.46659786
 C    -10.19563651     -0.36924806     34.17340851
 C    -11.60704521      0.15998663     34.48874348
 C    -11.63017329      1.60659753     35.01636266
 C    -13.00499853      2.05979173     35.54178684
 C    -13.11157167      3.57570430     35.79128885
 C    -14.38416297      3.99788098     36.54883637
 C    -14.80327907      5.45932829     36.30365588
 C    -16.20927341      5.80426204     36.82882313
 C    -16.75302230      7.15359404     36.32360999
 C    -18.14646268      7.51242852     36.87239201
 C    -18.72117347      8.82651667     36.31160699
 C    -20.22498133      9.01844758     36.58239187
 C    -21.12421242      7.97924675     35.88737742
 C    -22.51794571      8.51197237     35.50618072
 C    -23.14221755      7.81443955     34.28334278
 C    -24.56533762      8.29663325     33.94597283
 C    -25.33044051      7.36712523     32.98564350
 C    -26.65844103      7.95349703     32.47165640
 C    -27.33262823      7.10953667     31.37402143
 C    -28.83322927      7.40331682     31.19101942
 C    -29.58467293      6.33790181     30.37137116
 C    -29.42355193      6.49120910     28.84751523
 C    -29.98875921      5.31072051     28.03598123
 C    -29.63492390      5.35410121     26.53780945
 C    -30.09861338      4.11567493     25.74857411
 C    -29.44852316      3.97876908     24.35924351
 C    -30.11289826      2.92118851     23.45828343
 C    -29.42236799      2.73745985     22.09409439
 C    -30.17116815      1.79340015     21.13511076
 C    -29.57703243      1.74269011     19.71524061
 C    -30.17891778      0.64092246     18.82336502
 C    -29.61002202      0.61284292     17.39257183
 C    -29.98744832     -0.64808565     16.59306666
 C    -29.27783036     -0.76189514     15.23104986
 C    -29.35680109     -2.16391627     14.59883125
 C    -28.42037807     -2.36055321     13.39216401
 C    -28.30808651     -3.82141690     12.91796164
 C    -27.58862399     -3.98774687     11.56655200
 C    -27.76750143     -5.37795267     10.92864080
 C    -26.80239280     -5.66085372      9.76239368
 C    -27.25092901     -6.81233396      8.84342223
 C    -26.49996126     -6.87057798      7.50019660
 C    -26.54365602     -8.25027353      6.81745876
 C    -25.64052870     -8.36330385      5.57520871
 C    -25.60349323     -9.77187288      4.95378964
 C    -24.47781310     -9.97193718      3.92208304
 C    -24.56085963    -11.30467659      3.15493968
 C    -23.46871839    -11.47972574      2.08340558
 C    -23.54900492    -12.81443347      1.31939685
 C    -22.45365957    -12.99176593      0.25151494
 C    -22.64516757    -14.23103947     -0.64242341
 C    -21.76235371    -14.23562521     -1.90425488
 C    -22.12460442    -15.33670970     -2.91815199
 C    -21.41772365    -15.19250334     -4.27871221
 C    -19.93123457    -15.59439971     -4.25798699
 C    -19.19206087    -15.32890073     -5.58265017
 C    -17.71259756    -15.75627816     -5.57095249
 C    -16.73037529    -14.62270940     -5.92003885
 C    -15.28494484    -15.09760012     -6.15838656
 C    -14.37664682    -14.03771884     -6.80896044
 C    -12.91721475    -14.49264643     -6.99523691
 C    -12.03300458    -13.47283008     -7.73668615
 C    -11.45347685    -12.37066596     -6.83060565
 C    -10.27684123    -11.59932839     -7.45683803
 C     -9.62965445    -10.56930377     -6.51248717
 C     -8.59093908     -9.65986486     -7.19482964
 C     -7.90662182     -8.66424706     -6.23981390
 C     -6.75021785     -7.87497848     -6.88120690
 C     -6.24165437     -6.70117433     -6.02379977
 C     -5.07103871     -5.92514642     -6.65549563
 C     -4.67727102     -4.65024282     -5.88662124
 C     -3.51534647     -3.86714247     -6.52559320
 C     -3.23409776     -2.50807679     -5.85818055
 C     -1.96373624     -1.80747879     -6.37484683
 C     -1.69005162     -0.44203448     -5.71738310
 C     -0.20406675     -0.03785048     -5.70820437
 C      0.06798026      1.33389989     -5.06330798
 C      1.48242060      1.88172306     -5.32948141
 C      1.75025084      3.25922235     -4.69516077
 C      3.20366817      3.74581933     -4.84483189
 C      3.39088245      5.25098185     -4.57830492
 C      4.82699081      5.75486686     -4.81344885
 C      4.97474388      7.28565112     -4.73302135
 C      6.43521029      7.77347254     -4.70717359
 C      6.58698754      9.28223245     -4.43845960
 C      8.02252800      9.80945178     -4.61974208
 C      8.17088668     11.32154353     -4.36840915
 C      9.57537655     11.87290949     -4.67663597
 C      9.73573868     13.37662905     -4.38558361
 C     11.13927844     13.92869021     -4.69687867
 C     11.45842641     15.26109749     -3.99371766
 C     12.92263166     15.71386509     -4.14439774
 C     13.26459045     16.99767168     -3.36561354
 C     14.49558415     17.74890125     -3.90589923
 C     15.32350235     18.45844104     -2.81837694
 C     16.74691048     18.84102447     -3.26462713
 C     17.43296337     19.87443895     -2.35194650
 C     18.88238429     20.20242572     -2.75593127
 C     19.71788779     20.83863435     -1.62953326
 C     21.20025690     21.04766117     -1.99076671
 C     22.09889624     21.37530850     -0.78383068
 C     23.41113138     22.09036571     -1.15576098
 C     24.53485279     21.91746216     -0.11703361
 C     25.74866292     22.83652457     -0.34852714
 C     26.72608794     22.89459572      0.84011413
 C     27.63517482     24.13763653      0.84336790
 C     28.62514138     24.18656173      2.02199953
 C     29.67117739     25.31172182      1.91511904
 C     30.74106188     25.27956463      3.02232863
 C     31.78213406     26.40977590      2.92039134
 C     32.78479862     26.44505065      4.08873182
 C     33.71353009     27.67345846      4.08024005
 C     34.77236554     27.66591899      5.19845767
 C     35.60029209     28.96148706      5.28587046
 C     36.76189813     28.89564637      6.29479882
 C     38.05858271     28.29685994      5.71889615
 C     39.19107250     28.14528060      6.75141277
 C     40.40576925     27.35080532      6.23670816
 C     41.64677273     27.44656236      7.14353832
 C     42.63020696     26.27205632      6.98544757
 C     43.86400779     26.36036603      7.90280078
 C     44.60829885     25.02412200      8.08191719
 C     45.60365062     25.01415979      9.25698129
 C     46.61374441     23.85255511      9.21242698
 C     47.75640119     23.97644110     10.23740881
 C     48.71274801     22.76955808     10.25824464
 C     49.88273576     22.91451159     11.24906105
 C     50.99325912     21.86357443     11.06502587
 C     52.13732395     21.97518036     12.08984770
 C     53.02169697     20.71771551     12.18076798
 C     54.01401530     20.73364212     13.35832931
 C     55.02040578     19.56804981     13.34518421
 C     56.21999886     19.76556017     14.29047046
 C     57.24374637     18.61575099     14.25200106
 C     58.02818071     18.43133855     15.56434812
 C     58.58345147     17.00938992     15.76766184
 C     59.09188351     16.73362820     17.19491526
 C     59.68233668     15.32450940     17.38817478
 C     60.26738363     15.07752023     18.79114178
 C     61.22384311     13.87298286     18.86779023
 C     62.01588686     13.78493750     20.18555907
 C     62.90625953     12.53353287     20.29879754
 C     63.73994731     12.47291228     21.59219996
 C     64.80344110     11.35912803     21.60029999
 C     64.83288810     10.53061238     22.89810379
 C     66.12378969      9.71313452     23.09020543
 C     66.31937369      9.17822609     24.52101634
 C     67.76508889      8.75327493     24.83870186
 C     67.95686682      8.20080424     26.26334124
 C     69.26876615      7.41873775     26.46055217
 C     69.38285535      6.72179522     27.82907501
 C     70.67766328      5.90833874     28.01172494
 C     70.79061702      5.20937893     29.37931283
 C     71.95282945      4.20350204     29.47457023
 C     73.34346230      4.85946485     29.56090131
 C     74.47593339      3.88130371     29.92464573
 C     75.88993026      4.45351539     29.71301716
 C     76.02201262      5.94541495     30.07133260
 C     77.47725991      6.43008240     30.20900170
 C     77.60890132      7.90239386     30.64093865
 C     79.05923752      8.35309882     30.89586992
 C     79.20577581      9.85877837     31.18406364
 C     80.65751777     10.36930876     31.12571980
 C     80.84998221     11.77884982     31.71542435
 C     82.31960776     12.14698139     31.99161247
 C     82.56604751     13.65789211     32.15899302
 C     84.04036259     14.02858891     32.40512092
 C     84.25690085     15.49698182     32.81564915
 C     85.68776271     15.80989492     33.29137989
 C     85.90254239     17.27677490     33.70819259
 C     87.37738597     17.65090916     33.94580564
 H     -0.36333333      0.00000000      1.02766186
 H     -0.36333333     -0.88998127     -0.51383093
 H     -0.36333333      0.88998127     -0.51383093
 H      1.88274777     -0.53598361     -0.88506810
 H      1.88274777      0.99531165     -0.28280503
 H      1.62962592      1.39091360     -1.63483628
 H      2.90481617     -0.23488414     -1.64239745
 H      4.05646206     -0.42039538     -0.86815747
 H      4.04437683      0.60986998     -0.27877182
 H      3.77703247      1.83310272      0.38245845
 H      3.50612015      2.34384329     -0.20556033
 H      3.65114672      3.70885441     -0.15377496
 H      4.26296030      3.30230715     -1.99243671
 H      5.66906025      4.03868375     -0.56784770
 H      3.90489486      5.01374337     -0.10285742
 H      3.06682665      5.67052154     -1.01778177
 H      5.04292500      6.24599675     -1.21166515
 H      5.76290094      6.66860976     -0.05042047
 H      3.91973466      7.59525023     -0.18357111
 H      4.26160435      8.94299941     -0.15628019
 H      5.13320247      8.29294312     -1.77795851
 H      6.32466680      8.99787513     -0.24288281
 H      4.89552738      9.63391963      0.60639605
 H      3.95393348     10.84231319     -1.12950029
 H      5.48912911     10.71085890     -2.02065731
 H      6.45607574     11.50382843      0.37166777
 H      5.60031364     12.14087807      0.47335674
 H      7.71979672     10.84810780     -1.18018088
 H      7.47028147     10.82788377      0.58209033
 H      7.90766914     13.32238954      0.58482281
 H      8.51964606     13.11449831     -1.07365003
 H      9.73052975     11.89528940     -1.60670697
 H     10.29665129     11.69085892      0.06839937
 H     10.61963726     13.91626543      0.61488660
 H     10.52514453     14.32903632     -1.11397371
 H     12.30789482     12.61949410     -1.57619615
 H     12.60235085     12.58820078      0.17896283
 H     12.92225032     14.59371963      0.83079716
 H     13.19358140     15.11277099     -0.85004542
 H     14.75006171     13.63315983     -1.54510059
 H     15.17409029     13.50396053      0.35553112
 H     15.35169649     14.34968690      1.50341456
 H     15.25101647     15.39893251      0.99979673
 H     15.01662243     16.55800753      0.17984592
 H     16.59638393     16.20267836     -0.55931674
 H     17.65525996     16.01461808      1.66308968
 H     16.19367718     16.77225183      2.33987144
 H     16.08870142     18.65805134      1.03160957
 H     17.76568552     18.36607629      0.51128124
 H     18.90786098     18.12258035      2.36245497
 H     17.56518179     18.83270857      3.29046207
 H     17.13331080     20.73034626      2.22775547
 H     18.79163299     20.60589348      1.44697705
 H     20.16465578     20.26694894      1.55088678
 H     20.00757984     20.73937028      3.25980804
 H     18.93482966     22.88488045      2.55140935
 H     19.50103809     22.52138620      0.90351778
 H     21.82644594     22.35780727      2.22059136
 H     20.92666704     23.11363057      3.55752656
 H     20.33813050     24.98248543      1.91569096
 H     21.59308173     24.29543049      0.85676717
 H     23.37289290     24.26805284      2.29096535
 H     22.48797001     25.36011286      3.38301986
 H     22.04580842     26.97950401      1.62486053
 H     23.26380136     26.14268428      0.63264452
 H     25.05048385     26.09172494      1.97693139
 H     24.29575547     27.32203893      3.01855475
 H     23.87347175     28.85333712      1.20565524
 H     24.97987755     27.88515073      0.20228693
 H     26.62390206     27.34299940      0.64799289
 H     26.72368385     28.60380001      1.90046728
 H     26.10882602     30.44652813      0.74990516
 H     26.35778885     29.56470955     -0.77609620
 H     28.66705005     28.96900668      0.59210883
 H     28.51778303     30.13826827      1.19781444
 H     28.38963572     28.50031803     -1.44648369
 H     28.98096615     27.87078761      0.10988594
 H     30.53544034     28.77165075      0.89826567
 H     30.93953461     29.51328707     -0.66856235
 H     30.85706228     27.37444140     -1.83700918
 H     30.87749155     26.57740239     -0.24560158
 H     32.90641394     27.79395818      0.42349432
 H     33.11001799     28.24973586     -1.28503685
 H     33.04453421     26.59240433     -2.51959599
 H     33.31811975     25.51585514     -1.12874753
 H     34.94975623     26.31952942      0.02090865
 H     35.51147219     27.13373832     -1.30828940
 H     34.36166434     24.43140903     -0.07624717
 H     34.72015364     25.78642142      1.02088250
 H     37.04921058     25.87482153      0.52775221
 H     36.90062033     24.27734501     -0.24312803
 H     35.85440432     23.41577547      1.88221205
 H     36.42599385     24.91297195      2.65677953
 H     38.58151808     24.98042049      2.19727489
 H     38.53823920     23.26268986      1.73273741
 H     37.51901863     22.45782260      3.69462768
 H     38.69588658     23.98857279      4.39008310
 H     40.05672240     24.28423599      4.13175126
 H     40.19953944     22.56549642      3.69151923
 H     39.14629309     21.71801254      5.64117987
 H     39.33298311     23.32261624      6.38861578
 H     41.77755144     23.26605584      5.87536690
 H     41.57700190     21.53063525      5.53424827
 H     40.57290440     20.77176184      7.38681086
 H     41.03835891     22.24262869      8.23747392
 H     42.21643961     19.90825122      6.42244239
 H     40.52345084     19.64462537      6.90468413
 H     41.24514970     19.66924055      9.30982969
 H     42.91560446     19.51778225      8.71408818
 H     42.69943448     17.66725583      7.37914024
 H     41.13431646     17.31631884      8.15083674
 H     42.42805853     17.46283952     10.37907805
 H     43.90337741     17.40107376      9.38515357
 H     43.56369868     15.53650781      8.16294555
 H     42.26454903     15.05258168      9.27932019
 H     43.36186978     15.21063686     11.27943860
 H     44.91113781     15.27059518     10.40511587
 H     44.82315712     13.49461109      9.07053464
 H     43.47013347     12.84500533     10.02740768
 H     44.21696592     12.90783441     12.11313033
 H     45.87752671     13.12866963     11.51143578
 H     45.04599496     10.89458979     10.17365694
 H     43.69855465     10.94671019     11.33553247
 H     46.06514375     10.88130499     12.83950429
 H     46.77186461     10.49342284     11.25257023
 H     45.66619433      8.75332096     10.53210423
 H     45.03481873      8.46793625     12.17167340
 H     47.88066791      8.92258124     12.29596488
 H     47.91076957      8.41601205     11.23882564
 H     46.83950377      8.54375753     14.07592703
 H     48.11598048      9.53835578     13.33454441
 H     49.64002193      8.98464384     12.62299633
 H     49.52786733      7.45472346     13.52578735
 H     49.15667426      9.01464719     15.58546365
 H     49.69824392     10.32955395     14.51495481
 H     51.80384809      8.91707443     14.11996334
 H     51.26834951      7.94028527     15.50826838
 H     50.76434959      8.47615858     17.09674955
 H     51.61042997     10.02419876     16.86013545
 H     53.65397081      9.30930997     16.17806974
 H     53.25765806      7.67112947     16.75040490
 H     52.71099756      8.91961501     18.99232786
 H     53.53942164     10.31075599     18.25293148
 H     55.50903654      9.51883904     17.65257648
 H     55.25583900      8.09628069     18.69204048
 H     54.70178792      8.53274202     20.57398321
 H     55.25291188     10.21375800     20.37722364
 H     57.42011478      9.67188691     19.57300882
 H     57.16198865      8.00068084     20.12862366
 H     56.55807019      8.17362769     22.22268415
 H     57.14370222      9.85410427     22.25874314
 H     59.20117997      9.73784408     21.47856817
 H     59.06480038      7.94974855     22.44849487
 H     58.57531431      7.61026403     23.74543212
 H     58.88499043      9.31269260     24.16269021
 H     60.84273191      9.82037616     23.51657970
 H     61.25388293      8.09626972     23.35324416
 H     60.53960207      7.51785815     25.57345384
 H     60.51180107      9.25488974     25.96102967
 H     62.81876471      9.56434134     25.20725582
 H     62.98955630      7.79263942     25.22026397
 H     62.18911794      7.85569861     27.63809679
 H     62.46478404      9.61288276     27.57043049
 H     64.41127932     10.00859012     26.90893590
 H     64.89104097      8.32884585     27.25033681
 H     64.07600255      8.32497630     29.49823881
 H     63.95937655     10.09882684     29.40813175
 H     66.19444532     10.46762471     28.71128106
 H     66.57224956      8.79132796     29.17556526
 H     65.86226085      8.60537182     31.24477853
 H     65.76438390     10.37789323     31.37460395
 H     68.22035371     10.35485167     30.55957670
 H     68.18287414      8.60697901     30.89394641
 H     67.44584945      9.05994682     33.22853869
 H     67.90152189     10.75853661     32.95390798
 H     70.16812825     10.11857857     32.25089113
 H     69.84253040      8.50221872     32.92143831
 H     69.16859105      8.68991292     34.90693674
 H     69.77249288     10.36295268     34.97407261
 H     71.81874636     10.32069332     34.30359556
 H     71.86813256      8.55564277     34.52814894
 H     71.10809181      8.38500522     36.67329515
 H     71.38744837     10.12899639     36.89402436
 H     73.62961275     10.15403197     36.17834539
 H     73.65830709      8.38032779     36.32469006
 H     72.99025083      7.75597933     38.17090946
 H     73.21064854      9.39386232     38.83199254
 H     75.29760272      9.90650836     38.25003725
 H     75.61603072      8.19227288     37.89189344
 H     74.74736989      7.70413243     40.25451212
 H     74.88454495      9.45529473     40.54240148
 H     77.22606668      9.50650048     39.86873761
 H     77.23211236      7.73033431     39.98477146
 H     76.50693747      7.11607753     41.83888118
 H     76.73947672      8.75348610     42.49697340
 H     78.84711491      9.22888956     41.96046002
 H     79.14537196      7.50786953     41.61782400
 H     78.34878824      6.66422723     43.66548027
 H     78.40378052      8.31613298     44.32612384
 H     80.77067421      8.55554471     43.64585017
 H     80.79358924      6.79459983     43.38736482
 H     79.96953748      6.41862330     45.69839574
 H     81.31396925      7.98564104     45.81323751
 H     82.57865032      8.10755585     45.33480245
 H     82.54476314      6.32806614     45.35792552
 H     81.81857113      5.68437425     47.24090741
 H     82.11160553      7.30088282     47.92596035
 H     83.92330595      8.05399663     47.58983716
 H     84.55021599      6.44037242     47.17575096
 H     83.39479344      5.94968461     49.57123369
 H     83.31907608      7.72408999     49.68963596
 H     85.93767744      7.44797057     49.27591581
 H     85.64105260      5.72369698     49.60327030
 H     84.62426036      5.73816889     51.58043069
 H     85.14853602      7.41992832     51.83555211
 H     87.44659190      7.04382493     51.40341565
 H     87.14690891      5.29569471     51.55340733
 H     86.13182528      5.00479407     53.44071253
 H     86.61722416      6.63517608     53.96464870
 H     88.64965514      6.93138349     53.70874615
 H     88.90998045      5.17725451     53.55535472
 H     87.60315047      5.00758465     55.78166436
 H     87.82502041      6.76963347     55.90093012
 H     90.17102600      6.77349690     55.66973779
 H     90.16667216      5.01989448     55.97490378
 H     88.97386452      4.97632208     57.94338538
 H     89.22431752      6.73075935     58.10918598
 H     90.88124464      7.53371592     57.94069330
 H     91.69619318      5.97663671     58.22288096
 H     90.73805331      5.19286104     60.05609826
 H     90.06816591      6.80645405     60.39644388
 H     92.44990998      7.69591719     60.16093804
 H     92.97470764      5.99702332     60.24226264
 H     92.17402599      5.07075680     61.93342269
 H     91.79155848      6.65593176     62.64700913
 H     93.63051183      7.81630862     62.53352123
 H     94.55900011      6.32881017     62.22770344
 H     93.97221248      4.94801040     63.82225463
 H     93.27506146      6.30134269     64.74460967
 H     94.69159012      7.85009378     64.89733426
 H     95.99400540      6.73132441     64.42793444
 H     95.92980892      5.00330981     65.58760775
 H     94.88278707      5.81385066     66.77716038
 H     95.44171709      7.56686370     67.42301651
 H     97.10410645      7.28111869     66.85461695
 H     98.02466290      5.70485223     67.21800862
 H     96.91184951      5.32870286     68.55532858
 H     97.48740650      7.76551499     69.32545177
 H     98.80124943      7.68282967     68.12743401
 H     99.64867926      5.59883746     69.21130453
 H     98.58215455      5.98240982     70.58377091
 H     99.55464825      8.22851906     70.81204815
 H    100.87236299      7.68845922     69.74423267
 H    101.69377547      5.90087704     70.49506861
 H    100.92229063      6.18686191     72.07345084
 H    101.17779821      7.96655206     72.87024567
 H    102.56007534      8.28387467     71.79466074
 H    103.89226667      6.63722780     71.89803157
 H    103.10539800      6.07254736     73.39143050
 H    103.30241713      8.20849589     74.50153319
 H    103.89725973      8.88550743     73.46695874
 H    104.54875584      9.28016646     72.25955021
 H    105.90917674      8.27972839     72.82226268
 H    106.27189258      8.86375232     74.88306602
 H    105.30360692     10.33811343     74.64442645
 H    105.83013598     11.40544553     73.01264143
 H    107.38764113     10.54879103     72.91997292
 H    107.97109630     10.95690540     75.21332668
 H    106.67334806     12.17367008     75.27332575
 H    107.01305323     13.36501340     73.37393546
 H    108.45425964     13.09151516     73.44135655
 H    105.81583591     13.81624137     75.01529590
 H    105.86024408     13.73783032     73.23761587
 H    107.44870074     15.49186958     72.96635787
 H    107.16388506     15.95118466     74.66228722
 H    104.79367594     16.12654140     74.45341668
 H    104.99460664     16.10853041     72.68492322
 H    106.64234333     18.10034395     73.18290612
 H    105.92412546     18.09327067     74.81151894
 H    103.66743997     18.30994924     74.05452823
 H    104.29846149     18.75993025     72.45215637
 H    105.57136490     20.53655394     74.06435901
 H    104.40711625     19.97011801     75.28580982
 H    102.48173878     20.07796476     74.69629816
 H    102.91669040     21.19848190     73.38346721
 H    104.07260300     22.76399762     74.08033402
 H    103.58977370     22.40620467     75.75578224
 H    101.25735602     22.38322347     75.35948441
 H    101.55723062     23.16139179     73.78697178
 H    102.75427522     24.64056341     75.95287021
 H    101.75038454     23.50312563     76.88384037
 H     99.82933874     24.58415270     75.40987380
 H    101.05474990     25.80479354     74.98955238
 H    101.43632154     26.27949129     77.39892413
 H     99.94027197     25.37373671     77.73015064
 H     98.83548917     26.99144635     76.04511594
 H    100.32178078     27.96005683     76.19002160
 H    100.12554803     28.08820891     78.62433639
 H     98.45323513     27.50305625     78.45336101
 H     97.95415421     29.32722012     76.84428869
 H     99.47313965     30.09387878     77.36695913
 H     98.86791258     30.04822701     79.71191686
 H     97.19748976     29.68831673     79.21350052
 H     97.90517901     32.00710112     77.84406717
 H     99.28386790     31.97186469     78.96934136
 H     99.35839444     31.80172906     80.66320395
 H     97.66931809     32.34685757     80.79782437
 H     97.72170152     34.24022540     79.54155250
 H     99.50038717     34.21660868     79.60468947
 H     99.77771663     34.05276701     81.89679211
 H     98.07031829     34.50791690     82.11102595
 H     98.23331012     36.49702035     80.77241901
 H    100.00490664     36.35360644     80.86804797
 H    100.57422748     36.16660799     82.89356661
 H     98.97697305     36.75354328     83.41563165
 H     98.58012805     38.57434781     82.35922511
 H    100.29963169     38.71011933     81.91974818
 H    101.62982998     38.52120088     83.29692846
 H    100.41191344     38.82493348     84.55894766
 H     99.93164234     40.94421524     83.02783257
 H    100.35393932     40.69300384     82.24717613
 H    100.68197968     40.09688706     81.05662283
 H    102.35652867     40.39273855     81.58257363
 H    101.04188521     42.82857546     81.87357454
 H     99.78033248     41.99528723     80.93422259
 H    100.64004665     41.24958321     79.14805466
 H    102.05330814     42.30969389     79.36513525
 H    100.49806574     44.26472301     79.62300537
 H     99.21231985     43.20653663     78.99422420
 H    101.01922294     42.68019772     77.10845456
 H    101.51318048     43.92582557     77.31253232
 H     99.16245073     41.94370041     77.02442821
 H    100.88646075     41.56275131     76.79874280
 H    101.81264970     42.54770004     75.35614901
 H    100.25518066     42.99432334     74.61920633
 H     98.89122076     41.81249503     74.30799845
 H    100.01982157     40.44021891     74.41469953
 H    101.66207284     41.11050877     72.99767948
 H    100.56952070     42.35202269     72.33947004
 H     98.74922348     41.05409644     71.83094756
 H     99.76292867     39.60043607     71.99689933
 H    101.45040499     40.41604156     70.46203968
 H    100.29129921     41.66298630     69.94255024
 H     98.52371889     40.15837203     69.43570396
 H     99.69898096     38.82321301     69.50185620
 H    101.12890055     40.05948794     67.84435842
 H     99.72075592     41.10863768     67.55335983
 H     98.14322478     39.50325375     67.06521243
 H     99.45036333     38.31352918     66.85494855
 H    100.78219567     39.43331249     65.36658483
 H     99.44001180     40.55501242     65.03704212
 H     97.70201205     39.76604924     64.60566685
 H     98.46873528     38.20362882     64.23251193
 H    100.09852965     39.12259224     62.73841064
 H     99.14811207     40.62721484     62.70548796
 H     97.08788429     39.69230456     62.12259391
 H     97.93165692     38.19150349     61.67102932
 H     99.51090082     39.07454705     60.23449456
 H     98.57418065     40.58680264     60.17200459
 H     96.51149142     39.75424217     59.61118317
 H     97.27746936     38.21163079     59.16185635
 H     98.89481479     39.04018618     57.71333215
 H     98.01975527     40.58948175     57.66620756
 H     95.95780520     40.07855952     57.15905152
 H     96.48231587     38.46265051     56.62802110
 H     98.16726273     39.04578100     55.18458130
 H     97.56195901     40.71966095     55.18450085
 H     95.31131467     40.12006549     54.61424748
 H     95.90790944     38.50276210     54.17077132
 H     97.36933768     38.26486407     53.03167402
 H     97.19606658     39.92517169     52.41391808
 H     94.96707050     39.93197883     51.88970164
 H     94.95198171     38.15609267     52.00914766
 H     96.49402475     37.35049463     50.83807473
 H     96.66653822     38.89346619     49.96758951
 H     94.06365214     38.57808907     49.62584851
 H     94.34403574     36.91787791     50.20321374
 H     96.01971474     36.37066562     48.62322853
 H     95.54527792     37.80577984     47.68321600
 H     93.24791677     37.30134671     47.53804886
 H     94.26448029     35.52962916     47.20788101
 H     95.28725706     35.28937809     46.36057795
 H     94.66944370     36.74056772     45.53557979
 H     92.36682017     35.76352311     45.57843290
 H     92.90792000     34.39201636     46.17600094
 H     93.82868364     33.30101027     46.41364928
 H     94.24617755     33.43122893     44.68824828
 H     92.20922420     33.45062848     43.71827747
 H     91.49086250     32.86307343     45.23715935
 H     93.25197306     30.97806655     45.09851192
 H     93.51880106     31.51950448     43.42402261
 H     91.57138958     31.52331632     42.47012307
 H     90.91419018     30.52257163     43.78726607
 H     91.99016703     28.88921026     44.21600122
 H     92.83646051     29.00073852     42.65407438
 H     91.44114625     29.20867504     41.10186466
 H     90.13318122     28.65893158     42.17670245
 H     90.88167202     26.78268887     43.04921276
 H     92.14461763     26.70107797     41.79758394
 H     91.07305146     26.93399537     39.89664780
 H     89.53197324     26.59091850     40.71862276
 H     90.17593737     24.59028224     41.75553102
 H     91.59583151     24.53048543     40.68380734
 H     91.18705602     24.74333819     38.73616210
 H     89.47111147     24.36879388     39.02515612
 H     89.82492565     22.43447074     40.36107052
 H     91.31669649     22.28254654     39.71177127
 H     88.22515220     22.79742546     39.13108602
 H     88.70799308     22.37819754     40.79222398
 H     89.60550654     20.24222944     40.24485326
 H     88.79183725     20.35452888     38.66574028
 H     86.77670080     20.80510720     38.90413462
 H     87.19137561     19.35624172     40.32198561
 H     87.87341799     18.15015738     39.95136993
 H     87.37869927     18.53250949     38.28483853
 H     85.15181226     18.95015807     38.60614913
 H     85.25841309     18.18767449     40.21099233
 H     86.26187957     16.15366855     39.27088747
 H     85.76915298     16.73824459     37.66348023
 H     83.63632939     17.17159202     37.82743274
 H     83.55512706     16.23289134     39.33756978
 H     84.59951602     14.27877364     38.32603939
 H     84.30571947     15.02335757     36.73621392
 H     81.94453190     15.34329948     37.13868262
 H     82.08949454     14.23987644     38.52782267
 H     83.03392635     12.43744081     37.76682579
 H     82.67216165     12.94216970     36.09870057
 H     80.67637179     13.45341147     35.88749276
 H     80.27798223     12.62209176     37.41014176
 H     81.24641376     10.58629393     37.03491279
 H     81.37509489     10.98520287     35.30500543
 H     78.81129019     11.46880097     35.52766315
 H     78.93543220     10.64516727     37.10071209
 H     79.93108822      8.66107959     35.86946361
 H     79.37126233      9.44217410     34.37121363
 H     77.22699982      9.82015206     34.71637026
 H     77.41514323      8.21174172     35.88450077
 H     78.02333869      6.93996253     35.83525260
 H     77.88772696      7.10588059     34.06823610
 H     75.57450366      7.72493918     34.09453251
 H     75.49638009      7.17154071     35.78447734
 H     76.21629550      5.29668325     36.05463847
 H     76.09434173      4.96845414     34.30945665
 H     74.05439566      5.53988130     33.75847720
 H     73.58661838      5.54572982     35.47586384
 H     74.76069893      3.05253507     34.97535102
 H     73.75224532      3.64865042     33.28523541
 H     72.46746641      4.07593471     33.05552500
 H     72.10054417      3.19331294     34.55706206
 H     73.01801395      1.23504932     34.34028920
 H     73.18982937      1.50041120     32.58862451
 H     71.32726160      2.10593142     31.79648578
 H     70.49704365      1.53481640     33.26373915
 H     71.57771729     -0.67970659     33.07245060
 H     72.04581447     -0.22307766     31.41696223
 H     70.33023206      0.41779856     30.36541295
 H     69.27753181     -0.32819724     31.59161811
 H     70.92729950     -2.38939887     30.90756787
 H     71.38966525     -1.31299557     29.56747812
 H     68.92315125     -1.21032828     28.95096292
 H     68.69853878     -2.58613145     30.05775177
 H     70.13095813     -4.09965547     29.40249450
 H     70.33986880     -3.24159625     27.85706337
 H     68.69723147     -2.75350424     26.89114586
 H     67.75210172     -3.92191633     27.84498527
 H     68.84637659     -5.80176861     27.73046193
 H     69.78978265     -5.17729023     26.35631550
 H     68.22534275     -4.44568492     24.95028784
 H     66.99123096     -5.35556337     25.85436526
 H     68.73492552     -7.32844608     25.39746724
 H     69.47867978     -6.18070746     24.25826035
 H     67.55436780     -5.73449849     22.98744517
 H     66.77830479     -7.15509994     23.72763729
 H     68.80379783     -8.50413212     22.98143350
 H     69.22714801     -7.10556759     21.96503862
 H     67.17309687     -6.94206601     20.82863980
 H     66.75671422     -8.56790096     21.42155874
 H     68.44748229     -9.83775833     20.87403976
 H     69.02452369     -8.59164029     19.74157355
 H     67.23412057     -8.13988784     18.50620414
 H     66.45466284     -9.62804499     19.09450730
 H     68.38081682    -11.00327581     18.47171063
 H     68.97194167     -9.62283069     17.51609075
 H     66.97821651     -9.32840677     16.25575073
 H     66.44175065    -10.93208414     16.81134945
 H     68.20649045    -12.22674651     16.26106261
 H     68.82102220    -10.92650009     15.21226490
 H     66.61369170    -10.81892844     14.05494330
 H     66.22307749    -12.36797496     14.83989050
 H     68.04923988    -13.60420752     14.18507920
 H     68.42558103    -12.36362326     12.96541339
 H     66.15190294    -12.47707904     12.03680225
 H     65.92701904    -13.98189700     12.96049960
 H     67.56657909    -15.28143683     12.46786023
 H     67.94723267    -14.28223649     11.04484646
 H     66.22360672    -13.97657218      9.89891831
 H     65.40502825    -15.31843744     10.73413898
 H     66.55537578    -17.02361293     10.75762703
 H     67.58714371    -16.37549334      9.46006677
 H     66.18273681    -15.73827168      7.89362779
 H     65.38659035    -15.71301457      8.25340070
 H     64.24761845    -15.38762878      8.99610955
 H     63.94091436    -17.14096810      8.99681462
 H     64.03955775    -18.30434198      7.74909449
 H     63.88096639    -17.01853188      6.52851764
 H     62.35178780    -15.74074209      6.89477028
 H     61.61734112    -16.90051028      8.02781595
 H     61.66742447    -18.74741539      6.51227359
 H     61.98916447    -17.59559786      5.19391611
 H     60.05720851    -16.22311072      5.74744517
 H     59.45420894    -18.19034359      5.96561582
 H     59.61692927    -19.19936510      5.00733438
 H     59.77609122    -17.85774716      3.84845758
 H     58.11539205    -16.52025089      4.23279554
 H     57.31972095    -18.42935880      4.29640338
 H     57.54833597    -19.38500676      3.28286096
 H     57.97332698    -17.98842134      2.26443154
 H     56.36893465    -16.54693908      2.52109140
 H     55.33523412    -17.81097341      3.22957365
 H     55.50726631    -19.42689846      1.61666135
 H     56.18245130    -18.21574468      0.50064235
 H     53.94048125    -16.94719052      1.21955457
 H     53.47219301    -18.52018379      1.90851391
 H     53.56228412    -20.08198694      0.76062633
 H     53.59164016    -19.05243168     -0.69106952
 H     52.06154766    -17.64495210     -0.62649230
 H     51.23140843    -18.57270266      0.64567688
 H     50.99495194    -20.51363353      0.26763408
 H     51.30396064    -20.24462985     -1.46453719
 H     49.56160941    -18.43758700     -1.45747952
 H     49.05398842    -19.06046876      0.13079184
 H     48.70425416    -20.72476796      0.58608394
 H     48.44895995    -21.15669543     -1.12170123
 H     46.99947035    -19.50332169     -1.75077758
 H     46.70947770    -19.12854782     -0.03505165
 H     46.16029468    -21.56053555      0.33991278
 H     46.07898886    -21.71562183     -1.43141561
 H     44.50016291    -19.94137714     -1.72621921
 H     44.18423345    -19.99705568      0.02459635
 H     43.70732403    -22.33401963      0.09295396
 H     43.57018011    -22.31076813     -1.68156502
 H     42.07289091    -20.62656861     -1.97968486
 H     41.65121131    -20.71417710     -0.25261285
 H     41.22515589    -23.16000037     -0.47834812
 H     41.25243743    -22.91578650     -2.24126672
 H     39.57335024    -21.17182656     -2.18076441
 H     38.95213316    -22.67093390     -0.89782479
 H     38.86407684    -24.01281808     -1.27120464
 H     38.83156186    -23.38113876     -2.93499269
 H     37.05761935    -21.77262123     -2.36468787
 H     36.81432861    -22.68662468     -0.85681720
 H     36.53868147    -24.73426529     -2.43607494
 H     36.42066747    -23.53868716     -3.74944172
 H     34.60644581    -22.33315454     -2.66568597
 H     34.41447953    -23.72724668     -1.57576730
 H     34.29609241    -24.45943195     -4.38183311
 H     34.21219788    -22.68636937     -4.51403549
 H     32.58178895    -22.00298128     -3.33210765
 H     31.91861516    -23.65337500     -3.26378665
 H     31.86176256    -24.28695603     -5.38908782
 H     32.07244110    -22.59446382     -5.89835329
 H     30.65498028    -21.38453937     -4.92401029
 H     30.27069338    -21.90301568     -4.24612189
 H     30.06075430    -22.56371867     -3.08492187
 H     28.98667740    -23.56680169     -4.08913796
 H     27.75312943    -22.03078718     -5.16337653
 H     28.29626449    -20.79373504     -4.00450943
 H     27.80908833    -21.80675070     -2.02830585
 H     26.78725884    -22.97759432     -2.89620928
 H     25.43981354    -21.62584066     -4.09425266
 H     25.93061284    -20.24995955     -3.07723059
 H     25.46568716    -21.24189220     -0.99737470
 H     24.53768963    -22.50198075     -1.84546908
 H     22.76753825    -21.48148540     -1.55870774
 H     23.57153119    -19.78325704     -2.06130110
 H     23.43260724    -20.07833176     -0.10504832
 H     22.39674445    -21.50271660     -0.36269685
 H     20.90207122    -20.15776568     -1.83315841
 H     21.72744493    -18.71063323     -1.20639483
 H     21.43991453    -19.09967390      1.06327302
 H     20.21464144    -20.32953539      0.67031854
 H     19.18786380    -18.30163730     -0.70464835
 H     20.34978297    -17.30543930      0.20408706
 H     20.55815664    -17.31579459      2.00023387
 H     18.94518296    -18.03934577      2.20773387
 H     17.47832481    -17.14208115      1.19452550
 H     18.48139509    -15.68878992      0.97078177
 H     19.22168399    -15.17973281      2.96130531
 H     17.99710948    -16.24269357      3.69533417
 H     16.12081284    -15.91047367      3.01947748
 H     16.60383183    -14.32319655      2.37487632
 H     17.53230675    -13.92544671      4.77775322
 H     16.60349487    -15.37462774      5.23101861
 H     14.55342749    -14.95513367      4.54480528
 H     14.96031684    -13.23060852      4.37533344
 H     15.69187370    -13.87920827      6.96759183
 H     14.77390197    -15.36319830      6.61635376
 H     12.75841985    -14.19739240      6.01255771
 H     13.45066371    -12.72999052      6.74453915
 H     14.11097022    -13.08521722      8.66953523
 H     13.16033052    -14.58821557      8.74401201
 H     11.10586843    -13.70530160      8.07296061
 H     11.74719216    -12.07087237      8.36555521
 H     12.40361481    -12.72457450     10.67338671
 H     11.38962638    -14.17228882     10.46310743
 H      9.49192879    -13.71111306      9.84493525
 H      9.71688214    -12.01466949     10.33456967
 H     10.45673081    -12.15266788     12.41651233
 H      9.93077134    -13.85151899     12.49093138
 H      7.82326307    -13.79704159     11.83285484
 H      7.79102578    -12.03432588     12.07792779
 H      8.46691516    -11.44125568     13.88041018
 H      8.27919761    -13.08970011     14.52512699
 H      6.09066427    -13.48161762     13.88183135
 H      5.89546091    -11.73952502     13.57316378
 H      6.63411429    -10.96335821     15.65059568
 H      6.47250872    -12.61640281     16.29059087
 H      4.20853876    -12.90550476     15.58915179
 H      4.11916063    -11.14938807     15.31286862
 H      4.98190869    -11.38132524     17.92444670
 H      4.52260710    -13.08566095     17.69521209
 H      2.19806996    -12.16207330     17.05663803
 H      2.76598088    -10.61305552     17.72468575
 H      3.33742147    -11.69979877     19.87287382
 H      2.38995069    -13.10371695     19.32553524
 H      0.41559265    -12.13977609     18.79060758
 H      0.90073764    -10.67700249     19.68122221
 H      1.55876139    -11.00724661     21.54248858
 H      0.82289230    -12.62797042     21.54669327
 H     -1.28801808    -11.12775132     20.79862930
 H     -0.26212188     -9.76019824     21.29421202
 H      0.44177116     -9.98056800     23.21216308
 H     -0.78667610    -11.22437278     23.54702674
 H     -2.67123756    -10.61976187     23.01750602
 H     -2.13723601     -8.92294587     22.95486031
 H     -1.12698058     -8.30367414     24.57068941
 H     -1.73292243     -9.68525277     25.51532776
 H     -3.92509469     -9.62935991     25.18797204
 H     -3.78911107     -7.96743702     24.56524623
 H     -2.62408909     -6.97002034     26.24447267
 H     -2.98866523     -8.35512340     27.30127937
 H     -5.27718498     -8.43202725     27.05323887
 H     -5.23305539     -6.80167979     26.34029679
 H     -4.02395166     -5.77337959     28.09015848
 H     -4.36314924     -7.19421995     29.10722500
 H     -6.54871697     -7.44593197     28.99311838
 H     -6.70643533     -5.79929119     28.33587739
 H     -5.49155150     -4.67731893     29.98583739
 H     -5.60325483     -6.12808099     31.01105857
 H     -8.14959411     -5.96334494     30.60822669
 H     -7.81835371     -4.33482189     29.97068519
 H     -6.71424606     -3.24307020     31.40136814
 H     -7.15584046     -4.41663714     32.66469774
 H     -9.57192240     -4.11694212     32.02628295
 H     -8.71788210     -2.25288807     31.81229436
 H     -7.92759496     -1.54704962     32.75352042
 H     -8.68729208     -2.60096392     33.97023387
 H    -10.76537276     -2.63221161     33.68663471
 H    -10.66880738     -1.17485378     32.66926066
 H     -9.59147031      0.32425378     33.58848254
 H     -9.75425948     -0.49046976     35.16264641
 H    -12.19746647     -0.66037893     34.89679136
 H    -12.05909732      0.50567815     33.55909502
 H    -10.95677952      2.20577435     34.40347771
 H    -11.27546911      1.60123340     36.04702078
 H    -13.41914097      1.25854433     36.15382332
 H    -13.65702674      2.23788540     34.68666003
 H    -12.66288522      4.09483649     34.94436369
 H    -12.55654673      3.81356163     36.69874200
 H    -14.53554257      3.30564160     37.37708081
 H    -15.22866777      3.93371101     35.86269217
 H    -14.72076183      5.66512188     35.23644461
 H    -14.12094980      6.10827960     36.85264492
 H    -16.31819352      5.37448007     37.82457604
 H    -16.94435110      5.35887323     36.15845787
 H    -16.54535387      7.22881112     35.25622242
 H    -16.23270555      7.95234712     36.85215894
 H    -18.16107161      7.29372538     37.94012583
 H    -18.88502625      6.89232478     36.36436128
 H    -18.54680405      8.84535282     35.23580937
 H    -18.19458557      9.65822589     36.77965074
 H    -20.42443515      8.74427420     37.61832002
 H    -20.65838514      8.04557753     36.81430782
 H    -20.67622490      6.99454170     36.02065585
 H    -21.16634332      8.21844337     34.82478156
 H    -22.39752141      9.50013027     35.06217402
 H    -23.11453436      8.59220405     36.41488577
 H    -22.98764685      6.74030176     34.38549913
 H    -22.63292494      8.17128842     33.38814452
 H    -24.58284749      9.38459381     34.01027850
 H    -25.25239534      7.87809169     34.68141464
 H    -25.17493869      6.33771346     33.30849113
 H    -24.92272258      7.49911303     31.98342331
 H    -26.48828492      8.99286204     32.19082323
 H    -27.38794398      7.91041166     33.28040178
 H    -27.28785135      6.06179655     31.67123459
 H    -26.77792832      7.24797543     30.44598980
 H    -28.97446262      8.48409219     31.19983736
 H    -29.37382624      6.95941794     32.02696721
 H    -29.26868151      5.35365459     30.71706878
 H    -28.88923911      5.90534456     29.65208956
 H    -28.37411691      6.69241791     28.63233822
 H    -30.02974635      7.33662614     28.52209496
 H    -30.96213631      5.04580777     28.44884715
 H    -29.30782401      4.46598122     28.14010996
 H    -28.58112256      5.61566164     26.44195078
 H    -30.24474968      6.12316869     26.06373379
 H    -31.11781435      3.87725996     26.05269198
 H    -29.21548196      3.59244406     25.38195666
 H    -28.38262654      4.18430916     24.45782175
 H    -29.90070165      4.71539808     23.69515593
 H    -31.19413913      3.03504878     23.53609102
 H    -29.82464812      1.93378998     23.81891620
 H    -28.34514636      2.70354151     22.25701488
 H    -29.66822140      3.59464301     21.46728252
 H    -31.23234641      2.03984435     21.17069098
 H    -29.43400173      1.21033667     20.58309387
 H    -28.49260169      1.67224508     19.79978337
 H    -29.84207330      2.66572458     19.19962379
 H    -31.26122993      0.64867996     18.95236204
 H    -29.78097267     -0.31986923     19.14989072
 H    -28.52728199      0.72348862     17.45199884
 H    -30.03125038      1.45248620     16.83970130
 H    -31.04611278     -0.85175110     16.75384588
 H    -29.39567462     -1.48248607     16.96947048
 H    -28.22669704     -0.50910767     15.37003633
 H    -29.73546933     -0.04868561     14.54548533
 H    -30.37788028     -2.53046871     14.70436132
 H    -28.67671606     -2.82237826     15.13921275
 H    -27.44692715     -1.93817474     13.64134213
 H    -28.84138767     -1.82565832     12.54084834
 H    -29.30889405     -4.25272653     12.89660107
 H    -27.69232773     -4.36740458     13.63269137
 H    -26.70107926     -3.35501635     11.57060818
 H    -28.26421942     -3.66091872     10.77607483
 H    -28.81568439     -5.66349287     11.01740607
 H    -27.14956389     -6.08884208     11.47717471
 H    -25.80610849     -5.32805552     10.05353443
 H    -27.13664131     -5.09149900      8.89509146
 H    -28.31588801     -6.69560728      8.64258100
 H    -27.08073638     -7.75381772      9.36567005
 H    -25.43783322     -6.72159827      7.69459072
 H    -26.86966252     -6.06513678      6.86562159
 H    -27.56303101     -8.63123562      6.87944666
 H    -25.87218694     -8.91999573      7.35476822
 H    -24.67704333     -7.91068724      5.80958904
 H    -26.11051300     -7.81503903      4.75874043
 H    -26.62298249    -10.15537008      4.91290491
 H    -24.99934023    -10.41363209      5.59507295
 H    -23.56238507     -9.53893098      4.32531638
 H    -24.75476085     -9.44873979      3.00684294
 H    -25.59699225    -11.46443378      2.85659955
 H    -24.24796270    -12.10572256      3.82465669
 H    -22.51647695    -11.16430151      2.50983704
 H    -23.71583890    -10.84191391      1.23474339
 H    -24.59129383    -12.99782269      1.05843282
 H    -23.19415439    -13.60780120      1.97723326
 H    -21.50279341    -12.67489253      0.67993622
 H    -22.69853483    -12.35619908     -0.59947912
 H    -23.69378544    -14.28371266     -0.93521359
 H    -22.38519454    -15.11605112     -0.06167526
 H    -20.75570339    -13.92967150     -1.61939095
 H    -22.17368483    -13.51683814     -2.61295218
 H    -23.20932183    -15.36370358     -3.02187984
 H    -21.77311156    -16.29159793     -2.52733076
 H    -20.49964431    -14.62421762     -4.12944172
 H    -21.88743271    -14.37384008     -4.82393131
 H    -19.83569043    -16.52556395     -3.69950291
 H    -19.37064738    -14.80823432     -3.75223410
 H    -19.47557954    -14.33929508     -5.94097659
 H    -19.50537610    -16.08102680     -6.30669433
 H    -17.64352070    -16.73946001     -5.10546153
 H    -17.16437914    -15.07571356     -4.91950150
 H    -17.03456654    -13.72681696     -5.37879544
 H    -16.78879594    -14.43670790     -6.99246156
 H    -15.31618665    -15.99154451     -6.78127289
 H    -14.84110148    -15.34246196     -5.19342762
 H    -14.55315445    -13.08361328     -6.31234425
 H    -14.64645591    -13.95472261     -7.86177319
 H    -12.92262034    -15.50924791     -7.38841908
 H    -12.42802984    -14.48239055     -6.02122822
 H    -12.35339284    -12.47059071     -7.45213804
 H    -12.29713071    -13.49493948     -8.79396973
 H    -11.08455856    -12.83682060     -5.91698694
 H    -12.25398779    -11.67290420     -6.58481967
 H    -10.53166376    -11.36552905     -8.49052238
 H     -9.39626155    -12.24139202     -7.43601180
 H     -9.50778675    -11.03153759     -5.53290146
 H    -10.29860750     -9.71274481     -6.42936942
 H     -8.99915258     -9.33000500     -8.15015901
 H     -7.68629221    -10.24270163     -7.36807899
 H     -7.63777140     -9.19496017     -5.32648863
 H     -8.61712456     -7.87200658     -6.00393074
 H     -7.07008372     -7.53916706     -7.86762290
 H     -5.89510037     -8.54297637     -6.98441983
 H     -6.15092050     -7.04374625     -4.99301761
 H     -6.97445886     -5.89595144     -6.07589264
 H     -5.29708033     -5.76172880     -7.70920331
 H     -4.17002495     -6.53215191     -6.56707327
 H     -4.65333029     -4.88534658     -4.82254743
 H     -5.43504279     -3.88938640     -6.07364917
 H     -3.68808378     -3.81388794     -7.60050053
 H     -2.58962573     -4.40932822     -6.33278311
 H     -3.25836330     -2.64554832     -4.77715661
 H     -4.01923527     -1.81211976     -6.15365120
 H     -1.94752028     -1.88518310     -7.46195266
 H     -1.09633089     -2.32160133     -5.96085892
 H     -1.84974405     -0.54046807     -4.64364703
 H     -2.39558004      0.28209860     -6.12476613
 H      0.21614773     -0.25454924     -6.69032526
 H      0.30878421     -0.63456146     -4.95387029
 H     -0.51224359      1.40110717     -4.14302353
 H     -0.25873567      2.10925578     -5.75625815
 H      1.71700815      1.72778597     -6.38274873
 H      2.18781171      1.32268450     -4.71466496
 H      1.36137318      3.24913643     -3.67694054
 H      1.22214695      4.01362457     -5.27832763
 H      3.52543166      3.55460060     -5.86855238
 H      3.82810707      3.17743927     -4.15554228
 H      2.82643653      5.51342663     -3.68352923
 H      2.99574282      5.80193902     -5.43177482
 H      5.19248782      5.32540598     -5.74622712
 H      5.44996012      5.41249087     -3.98713903
 H      4.41736581      7.63867510     -3.86537871
 H      4.55014454      7.71902233     -5.63856251
 H      6.99515061      7.21901389     -5.46026220
 H      6.84875070      7.56512663     -3.72042321
 H      5.91562995      9.55457117     -3.62408216
 H      6.30058029      9.82168162     -5.34126937
 H      8.43079827      9.38377292     -5.53637335
 H      8.61877537      9.47965657     -3.76896350
 H      7.61612170     11.57488703     -3.46499735
 H      7.74375934     11.85379524     -5.21833288
 H      9.90866091     11.45116584     -5.62487319
 H     10.25000375     11.55646425     -3.88112322
 H      9.27508296     13.59008114     -3.42104512
 H      9.21848065     13.93396944     -5.16655470
 H     11.45777822     13.53157879     -5.66070459
 H     11.82233135     13.58666651     -3.91934506
 H     11.12732511     15.18979488     -2.95767332
 H     10.90721749     16.05513136     -4.49748243
 H     13.22066959     15.57019473     -5.18296994
 H     13.54212921     15.09100362     -3.49913317
 H     12.82579260     16.92216090     -2.37069918
 H     12.82638517     17.84522690     -3.89261096
 H     14.42633233     17.78304267     -4.99316118
 H     15.38906183     17.19598999     -3.61592201
 H     15.43789583     17.77690512     -1.97545172
 H     14.77818174     19.34574336     -2.49678710
 H     16.80743485     19.92779403     -3.32266779
 H     17.35117421     17.93443726     -3.29726107
 H     17.25404285     19.58856465     -1.31543151
 H     16.98571835     20.85009129     -2.54214223
 H     18.91496293     20.33590842     -3.83723650
 H     19.51542191     19.36090827     -2.47448547
 H     19.52915870     20.28630925     -0.70897999
 H     19.39536455     21.87242347     -1.50560255
 H     21.25254858     21.46217535     -2.99751572
 H     21.69792573     20.07811255     -1.97073627
 H     21.83501821     20.70294651      0.03250120
 H     21.90661668     22.40514971     -0.48290601
 H     23.18252045     22.87025285     -1.88213078
 H     24.08358715     21.36023425     -1.60610672
 H     24.56146455     20.87141242      0.18820688
 H     24.30311128     22.54193432      0.74577018
 H     25.38211823     23.83629486     -0.58134547
 H     26.31424236     22.45029102     -1.19649150
 H     26.88326573     21.87941143      1.20452599
 H     26.27296788     23.49713491      1.62734264
 H     27.02477476     25.00929442      0.60730795
 H     28.39612744     24.00776421      0.07383279
 H     29.06793508     23.19744595      2.13897695
 H     28.68312439     25.21500090      2.37844146
 H     29.16267642     26.22393595      1.60304188
 H     30.40406510     25.02775140      1.15991284
 H     31.07241352     24.24889649      3.14893537
 H     30.28656210     25.63145988      3.94844940
 H     31.25721341     27.34117054      2.70811246
 H     32.45934827     26.17882942      2.09811119
 H     33.11668854     25.42580893      4.28645740
 H     32.27331736     26.83755300      4.96761112
 H     33.11239162     28.55612499      3.86199176
 H     34.45618792     27.53623017      3.29428347
 H     35.20439726     26.66677450      5.25466144
 H     34.27747958     27.90130369      6.14067948
 H     34.92096132     29.80911158      5.19563528
 H     36.30759843     28.97285094      4.45660054
 H     37.20145979     27.89935934      6.24686464
 H     36.34611138     28.95573832      7.30058724
 H     38.22780166     28.72996945      4.73305585
 H     37.92596541     27.21909582      5.62435962
 H     38.76780830     27.72964846      7.66585104
 H     39.60148502     29.13379088      6.95758989
 H     40.64004290     27.69682448      5.22998745
 H     40.13621943     26.29515025      6.20453244
 H     41.32548862     27.32554863      8.17805859
 H     42.09057863     28.43365929      7.01401619
 H     42.75703285     26.07205380      5.92148602
 H     42.19923094     25.39644297      7.47089678
 H     43.53031959     26.65064667      8.89903837
 H     44.53196262     27.12499059      7.50620824
 H     44.69848901     24.54844237      7.10534430
 H     44.01806416     24.38887769      8.74236225
 H     45.12317486     25.48042492     10.11712074
 H     46.47894835     25.59675201      8.96968319
 H     46.98672629     23.76161831      8.19227257
 H     46.09459090     22.93597379      9.49253111
 H     47.32830746     24.27912646     11.19303287
 H     48.44733974     24.74425045      9.88931009
 H     48.94278991     22.49671393      9.22832387
 H     48.20587148     21.93903517     10.74957740
 H     49.49027203     23.30463048     12.18814543
 H     50.59894852     23.62272954     10.83244779
 H     51.20113575     21.76760600      9.99934422
 H     50.63118888     20.91099583     11.45180635
 H     51.69993399     22.12671177     13.07667506
 H     52.74959669     22.83794104     11.82742417
 H     53.23933861     20.37781425     11.16824675
 H     52.46548017     19.94515869     12.71169061
 H     53.48728569     21.08470283     14.24569185
 H     55.02563918     20.69165060     12.95465388
 H     55.39568406     19.45069175     12.32857548
 H     54.49753866     18.66035585     13.64651731
 H     55.84737047     20.14224561     15.24302290
 H     56.88945376     20.50171064     13.84548436
 H     57.41975570     18.34826234     13.21009390
 H     56.81972402     17.76149881     14.77978725
 H     57.32607763     18.49729978     16.39549214
 H     58.75991419     19.23545946     15.64216640
 H     59.02342792     16.67563029     14.82791441
 H     57.75522944     16.35291633     16.03447770
 H     58.36311666     17.13133962     17.90119036
 H     60.04326197     17.24931780     17.32546511
 H     60.32602092     15.10289443     16.53690667
 H     58.86016539     14.60948988     17.41786419
 H     59.56830465     15.47230548     19.52838882
 H     61.21469025     15.61142789     18.86632681
 H     61.89125740     13.90995155     18.00680737
 H     61.00484205     13.31896731     19.78059103
 H     61.33097644     13.97983116     21.01079490
 H     62.79295869     14.54914998     20.17011026
 H     63.42527627     12.39519561     19.35033329
 H     62.26532197     11.67311776     20.49111209
 H     63.70677569     11.45244966     21.97384862
 H     64.55710425     13.18923748     21.50715441
 H     65.30970760     11.36160681     20.63500828
 H     64.32244256     10.42812100     21.90024385
 H     63.80607852     10.29434439     23.17728027
 H     65.29215944     11.13507124     23.68027981
 H     66.97278611     10.34937545     22.84020035
 H     66.09488310      8.86194898     22.40994989
 H     65.36955509      8.77090801     24.86747932
 H     66.61287714     10.01039119     25.16090460
 H     68.43952070      9.51878435     24.45498704
 H     67.96335748      7.80800363     24.33347742
 H     67.13653092      7.51615849     26.47876921
 H     67.92554607      9.03668636     26.96221183
 H     70.07604949      7.97910298     25.98897566
 H     69.16641775      6.44920627     25.97307550
 H     68.43115669      6.23732634     28.04738568
 H     69.58581682      7.48094237     28.58445721
 H     71.51192550      6.50429939     27.64167434
 H     70.59442407      4.99478160     27.42301059
 H     69.83006792      4.74813001     29.60886644
 H     71.02052983      5.96369653     30.13180540
 H     72.70462382      4.47729362     28.73433824
 H     71.68101701      3.31127982     28.91051570
 H     73.28926699      5.68573637     30.26973009
 H     73.60312403      5.24348656     28.57439074
 H     74.34651344      2.97300460     29.33613642
 H     74.39469452      3.64191429     30.98492539
 H     75.79871390      5.41326401     29.20442875
 H     76.09444401      4.47468875     28.64258463
 H     75.50956782      6.11724251     31.01789249
 H     75.54174300      6.53016068     29.28678590
 H     78.05364257      6.02473037     29.37739316
 H     77.87789501      6.04934777     31.14848702
 H     76.90298763      8.08641582     31.45082862
 H     77.35670705      8.53346209     29.78873507
 H     79.68341365      7.97314182     30.08708266
 H     79.08336835      8.92024541     31.82638722
 H     78.42197525     10.15193711     31.88250092
 H     79.07891239     10.40103132     30.24706448
 H     81.13575710      9.94252649     30.24410536
 H     80.95964993     10.65906873     32.13212693
 H     80.29816416     11.83613508     32.65367551
 H     80.44374119     12.50385867     31.01013688
 H     82.91738487     11.83762028     31.13425710
 H     82.64801081     11.60459843     32.87821957
 H     81.78176213     14.06442311     32.79752962
 H     82.51243387     14.12492733     31.17557872
 H     84.65771909     13.45764211     31.71158599
 H     84.29618438     13.75533443     33.42883338
 H     83.50596905     15.75877633     33.56107860
 H     84.12594397     16.12260003     31.93272665
 H     86.38874181     15.33563714     32.60449718
 H     85.81666158     15.39039851     34.28913128
 H     85.05416593     17.58757447     34.31791467
 H     85.94438762     17.88686715     32.80589750
 H     87.94946982     17.46911336     33.03598679
 H     87.78041560     17.04317875     34.75594813
 H     87.44615527     18.70524468     34.21366267
1502
Final Conformation Chain 8 (Simulation Frame 9)
 C      0.00000000      0.00000000      0.00000000
 C      1.54000000      0.00000000      0.00000000
 C      2.16637443      1.34029424      0.42762883
 C      3.65654517      1.24351121      0.80395874
 C      4.35964701      2.60746708      0.93385177
 C      4.42155583      3.40792516     -0.38031494
 C      5.78392342      4.07610696     -0.64316023
 C      5.78319202      5.05290009     -1.83373767
 C      7.18693637      5.51942735     -2.26205311
 C      7.96445359      6.26067096     -1.15859269
 C      9.12304928      7.12864106     -1.68383923
 C      9.79055768      8.00176885     -0.60509904
 C     11.12000854      8.63938828     -1.04962335
 C     10.96899888      9.68766116     -2.16762159
 C     12.29959790     10.31781044     -2.61930525
 C     13.41844382      9.29407458     -2.88716471
 C     14.79770760      9.92747480     -3.14800102
 C     15.46714640     10.51080254     -1.88975604
 C     16.56625003     11.54732051     -2.18842258
 C     17.01401022     12.35774078     -0.95784149
 C     18.24006697     13.25463643     -1.21075062
 C     18.76330846     13.96999869      0.04864415
 C     20.20542283     14.49417014     -0.08231552
 C     20.40646230     15.49277298     -1.23729409
 C     21.87110068     15.91887351     -1.44912598
 C     22.04042803     17.14546277     -2.36477167
 C     23.42823971     17.80697690     -2.27545331
 C     23.65316387     18.93200232     -3.30274438
 C     25.12198631     19.37570847     -3.43421860
 C     25.33203347     20.57495026     -4.37724528
 C     26.73133860     20.63041867     -5.01792335
 C     26.96701468     21.86949267     -5.90152531
 C     27.28168410     21.53922824     -7.37241231
 C     27.19339439     22.75065773     -8.31911370
 C     27.73839080     22.48095974     -9.73397832
 C     28.09489864     23.75551864    -10.52138023
 C     28.77099449     23.48493702    -11.87831796
 C     28.01222088     22.48214812    -12.76729323
 C     28.81966661     21.98497138    -13.98073736
 C     28.04878065     21.00874399    -14.88865526
 C     28.89040782     20.42608529    -16.03920842
 C     28.06692500     19.66395587    -17.09402347
 C     28.91600303     18.81268464    -18.05631438
 C     29.56722239     17.58305914    -17.39636401
 C     30.54100783     16.82144226    -18.31466769
 C     31.22000937     15.61332508    -17.64309505
 C     32.19123803     14.84969551    -18.56243436
 C     32.89621555     13.66234460    -17.88066864
 C     33.87320692     12.90341123    -18.79778804
 C     34.90324442     12.04417328    -18.04126117
 C     35.83639348     11.23235681    -18.95875060
 C     36.81635146     10.31605178    -18.20266368
 C     36.40227679      8.83283969    -18.18769490
 C     37.47542582      7.88867186    -17.61454722
 C     37.08427770      6.39964722    -17.65208082
 C     38.23458224      5.44061732    -17.29338721
 C     37.77960674      3.99903437    -16.99938739
 C     38.93856464      3.00779933    -16.78521535
 C     38.48543418      1.59097090    -16.38663036
 C     39.64069768      0.58482799    -16.22965047
 C     39.24133009     -0.72152223    -15.51862682
 C     39.98582235     -1.96756336    -16.03312927
 C     39.47465024     -3.29280882    -15.43812712
 C     39.96200989     -4.54584475    -16.18911416
 C     41.48701530     -4.59788654    -16.39708085
 C     41.92971559     -5.50129656    -17.56304260
 C     43.40781753     -5.33165665    -17.96058125
 C     43.90603785     -6.37363039    -18.97924078
 C     45.42667474     -6.61341101    -18.93718483
 C     46.00019874     -7.22566860    -20.22862235
 C     47.52877706     -7.09226107    -20.35996439
 C     48.07704261     -7.50187819    -21.73953632
 C     49.59634337     -7.75264871    -21.76049678
 C     50.12498584     -8.28401898    -23.10577845
 C     51.53929379     -8.88844533    -23.02830708
 C     52.13787066     -9.25929064    -24.39789807
 C     53.30359799    -10.26267148    -24.32104310
 C     54.19765771    -10.28135260    -25.57480075
 C     55.42010011    -11.21072502    -25.45860476
 C     56.25881515    -11.30648658    -26.74662138
 C     57.57611468    -12.08653721    -26.57975926
 C     58.57911260    -11.87519904    -27.72907704
 C     59.98174315    -12.44611743    -27.44929188
 C     60.99252435    -12.20991393    -28.58688991
 C     62.33394869    -12.94155955    -28.39486020
 C     63.24289722    -12.91971165    -29.63781443
 C     64.67330867    -13.42703543    -29.37676717
 C     65.53396438    -13.55556116    -30.64733904
 C     66.82303967    -14.37478700    -30.45047889
 C     67.78840491    -14.32127087    -31.64914730
 C     69.01957280    -15.23478361    -31.50313329
 C     69.99179185    -15.17106278    -32.69574796
 C     71.03403034    -16.30461849    -32.71550591
 C     72.05172699    -16.19980819    -33.86655254
 C     73.29205808    -17.09525566    -33.68948582
 C     74.26078401    -17.06732953    -34.88631087
 C     75.26648908    -18.23342999    -34.90546881
 C     76.35827663    -18.10132090    -35.98349810
 C     77.45126805    -19.18328254    -35.90394476
 C     78.42936201    -19.17422030    -37.09341947
 C     79.57746665    -20.19291652    -36.96806504
 C     80.49538883    -20.25725473    -38.20292515
 C     81.43016042    -21.48089426    -38.22547205
 C     82.66622907    -21.30832146    -39.12766545
 C     83.88290423    -22.14479402    -38.68992672
 C     84.89778062    -22.41166158    -39.81705033
 C     86.13405636    -23.21366589    -39.36982400
 C     87.10273122    -23.56195016    -40.51523531
 C     88.15998879    -24.61773403    -40.14223819
 C     89.29894874    -24.75385342    -41.16977979
 C     90.51320950    -25.55030769    -40.65710894
 C     91.61742715    -25.75612799    -41.71064650
 C     92.87017330    -26.47267023    -41.17325063
 C     94.15410559    -26.17020806    -41.96800500
 C     95.35424385    -27.05335297    -41.57900213
 C     96.56683632    -26.91120787    -42.51762573
 C     97.62477479    -28.01706964    -42.34605667
 C     98.92869458    -27.76277903    -43.12498509
 C     99.93195223    -28.92959431    -43.06485027
 C    101.32876538    -28.58355192    -43.61327320
 C    102.22283846    -29.81098555    -43.86947630
 C    103.72876052    -29.49140985    -43.91034309
 C    104.56464874    -30.51329031    -44.70321838
 C    105.93028873    -29.97702926    -45.17124776
 C    106.85428898    -31.05379505    -45.76991209
 C    108.15999113    -30.49707726    -46.36724549
 C    108.92605730    -31.50360749    -47.24567563
 C    110.42183920    -31.17760448    -47.41288368
 C    111.11788147    -31.98306495    -48.52569929
 C    112.59033468    -31.59365775    -48.75339115
 C    112.79030619    -30.48917934    -49.80778141
 C    114.26099619    -30.25847233    -50.20204682
 C    114.51365666    -28.92190132    -50.92408604
 C    115.99634221    -28.65133790    -51.24037546
 C    116.31522212    -27.17294674    -51.53067733
 C    116.14496034    -26.24477002    -50.31367326
 C    116.54619681    -24.78209134    -50.58046977
 C    116.30353714    -23.83850151    -49.38784472
 C    117.14107583    -22.54687216    -49.43053612
 C    116.83632279    -21.56455321    -48.28433584
 C    118.01254970    -20.63814718    -47.92397199
 C    117.89529959    -19.98941559    -46.53221061
 C    118.83786222    -18.79044163    -46.31858210
 C    118.70018023    -18.12379935    -44.93719448
 C    120.03512000    -17.64514484    -44.33683986
 C    119.88356740    -16.54366840    -43.27129706
 C    121.18239446    -16.22985279    -42.50568095
 C    121.14127915    -14.90705584    -41.71820539
 C    122.38254295    -14.66189002    -40.84027721
 C    122.44426513    -13.25265610    -40.22233698
 C    123.60611258    -13.05359410    -39.23133506
 C    124.13285589    -11.60795957    -39.16589587
 C    125.65292142    -11.50471792    -38.94152578
 C    126.16467346    -10.06202378    -38.77317056
 C    127.68597527     -9.95819079    -38.55762591
 C    128.22411892     -8.51538845    -38.57559333
 C    129.75808030     -8.42017508    -38.67304540
 C    130.30671681     -6.98775914    -38.53599594
 C    131.70321864     -6.79006316    -39.15429921
 C    132.03213566     -5.32671439    -39.50361847
 C    131.02921008     -4.67341138    -40.47260530
 C    130.85456134     -3.15746135    -40.26525700
 C    129.65240824     -2.55678018    -41.01732751
 C    129.31263200     -1.11284779    -40.60355058
 C    128.14987558     -0.49053920    -41.39874208
 C    126.84697346     -1.30996857    -41.34793261
 C    125.84842805     -0.96900393    -42.46965012
 C    124.37592400     -1.22010236    -42.09510853
 C    123.39997592     -1.10743527    -43.28103916
 C    121.92004141     -1.28356452    -42.89326046
 C    120.93190790     -0.95615049    -44.02815791
 C    119.45514907     -1.19158631    -43.66025395
 C    118.45633848     -0.63980145    -44.69442553
 C    116.97931769     -0.83166343    -44.30301964
 C    115.98159599     -0.41775826    -45.40066891
 C    114.57032717     -0.09558322    -44.87519431
 C    113.59650691      0.40156049    -45.95968601
 C    112.17728228      0.69638124    -45.43960701
 C    111.14940983      0.98023417    -46.55069015
 C    109.74005140      1.31674520    -46.02908767
 C    108.73789546      1.69898153    -47.13415728
 C    107.39664925      2.23893071    -46.60395590
 C    106.42709486      2.70083121    -47.70768242
 C    105.05612271      3.16600632    -47.18266100
 C    103.92857353      3.09790638    -48.22936785
 C    102.58986617      3.68692127    -47.74716035
 C    101.38218304      3.29222554    -48.61739983
 C    100.02233769      3.45792044    -47.91386176
 C     98.80988867      3.16756759    -48.81788755
 C     97.45433804      3.24236813    -48.09091619
 C     96.23566602      3.18858988    -49.03088768
 C     94.89520871      2.96515417    -48.30642191
 C     94.21983269      1.62168135    -48.63890954
 C     92.82405754      1.45001515    -48.01126118
 C     92.00526393      0.29224972    -48.61189104
 C     90.54110089      0.24800692    -48.13663410
 C     89.85509779     -1.11458177    -48.34723280
 C     88.32033814     -1.06808290    -48.22911995
 C     87.64724943     -2.45278136    -48.26320474
 C     86.11069548     -2.40032200    -48.35180470
 C     85.44438635     -3.78068545    -48.50089821
 C     84.00861804     -3.72657615    -49.05519197
 C     83.32229088     -5.10178404    -49.15193016
 C     82.73870156     -5.60573797    -47.81886829
 C     81.98603072     -6.94459336    -47.93090770
 C     81.11997630     -7.28097470    -46.70273942
 C     80.23694578     -8.52985470    -46.88205995
 C     79.31635253     -8.82350244    -45.68294400
 C     78.34992412    -10.00104050    -45.90882061
 C     77.28087749    -10.15344547    -44.81086248
 C     76.26835320    -11.28332290    -45.07500552
 C     75.24523968    -11.48512616    -43.94181790
 C     74.34278910    -12.71945239    -44.12518014
 C     73.14735414    -12.77094683    -43.15570421
 C     72.22632031    -13.98796164    -43.36106146
 C     71.33296337    -14.30909169    -42.14846554
 C     70.13853036    -15.22454521    -42.47538237
 C     69.15877317    -15.41851882    -41.30318355
 C     68.29225300    -16.68673589    -41.41439623
 C     67.38689950    -16.93579235    -40.19377921
 C     66.89801114    -18.39025379    -40.06289719
 C     65.82000103    -18.59386056    -38.98213891
 C     64.82958730    -19.73173189    -39.29186376
 C     63.64038616    -19.80986357    -38.31651967
 C     62.78879388    -21.08401976    -38.46790199
 C     61.45017714    -21.03669282    -37.70799057
 C     60.57526429    -22.28911561    -37.90180661
 C     59.13797438    -22.13755954    -37.36999043
 C     58.09811799    -22.98666715    -38.12452006
 C     56.71525671    -23.03017081    -37.44820495
 C     55.76107929    -24.08378055    -38.04070133
 C     54.27122433    -23.80080965    -37.77263480
 C     53.33499634    -24.96392679    -38.14977624
 C     51.83739800    -24.61492460    -38.06613010
 C     50.92103527    -25.60526404    -38.80849600
 C     49.41763796    -25.34143433    -38.60406894
 C     48.50439057    -26.18512751    -39.51278289
 C     47.00180155    -25.90581948    -39.32353896
 C     46.08266330    -26.89707774    -40.06123262
 C     44.58125547    -26.58795683    -39.91352075
 C     43.67046890    -27.47674032    -40.78077605
 C     42.16930578    -27.16509564    -40.63590759
 C     41.25244696    -28.12116484    -41.42133841
 C     39.74938438    -27.88012274    -41.18831137
 C     38.83215696    -28.81816696    -41.99476465
 C     37.33371657    -28.65080813    -41.68128833
 C     36.43848349    -29.73910520    -42.30238996
 C     34.93118799    -29.43608197    -42.21386198
 C     34.03034322    -30.65765598    -42.47431471
 C     32.52973091    -30.32239294    -42.56011334
 C     31.96556726    -29.64694013    -41.29635590
 C     30.51776827    -30.05217582    -40.96279614
 C     29.79668730    -29.07599948    -40.01478665
 C     28.32157050    -29.43216493    -39.75253373
 C     27.65018733    -28.56424008    -38.67200095
 C     26.15252405    -28.86135706    -38.47118712
 C     25.44481853    -27.88990139    -37.50836482
 C     23.91520556    -28.06120558    -37.45797598
 C     23.18163020    -26.92521349    -36.72109799
 C     21.65935595    -27.13052712    -36.61097339
 C     20.99956144    -26.32733960    -35.47468073
 C     19.63432103    -26.88151156    -35.02678335
 C     18.83292581    -25.92148569    -34.12805313
 C     17.69672243    -26.60135361    -33.34165534
 C     17.09813508    -25.72711402    -32.22406940
 C     16.54502045    -26.52803166    -31.03067293
 C     15.83828709    -25.66378423    -29.96991643
 C     15.04636050    -26.47476066    -28.92743405
 C     14.40472105    -25.61619427    -27.82164809
 C     13.55196421    -26.41843825    -26.82124299
 C     12.85256627    -25.55140491    -25.75790122
 C     11.79246174    -26.30510784    -24.93345579
 C     11.17423060    -25.47113335    -23.79596873
 C      9.94483504    -26.12414252    -23.13735992
 C      9.38337540    -25.33601306    -21.93935532
 C      7.94642065    -25.72900703    -21.54907748
 C      7.44272354    -25.05889816    -20.25724029
 C      5.96784919    -24.61938659    -20.31358943
 C      5.53366050    -23.73035000    -19.13346481
 C      4.02973270    -23.39931273    -19.11878507
 C      3.64404270    -22.28135268    -18.13237310
 C      4.08304378    -22.54804253    -16.68056231
 C      3.63096866    -21.46732941    -15.68091876
 C      4.13913991    -21.69087612    -14.24446867
 C      3.55405044    -20.70831222    -13.21304320
 C      4.06412279    -20.93027700    -11.77702168
 C      3.45207674    -19.97073811    -10.73958024
 C      4.26733225    -19.85218240     -9.43846417
 C      3.76871051    -18.75037060     -8.48505602
 C      4.57624932    -18.64009072     -7.17841169
 C      4.49829545    -17.25545367     -6.50885703
 C      5.75215031    -16.88077256     -5.69703067
 C      5.50700850    -15.79764352     -4.63010191
 C      6.79053481    -15.28745364     -3.94902447
 C      6.54827658    -14.59454339     -2.59522007
 C      7.79847991    -14.51538356     -1.69949391
 C      7.52815101    -13.94221216     -0.29592816
 C      8.49824794    -14.45162600      0.78620376
 C      8.30288722    -13.79122044      2.16362842
 C      9.46241849    -14.03782005      3.14662174
 C      9.28067625    -13.35320648      4.51405511
 C     10.33316099    -13.75895896      5.56250196
 C      9.98696227    -13.32363114      6.99855075
 C     11.09469917    -13.61888899      8.02682200
 C     10.69159735    -13.32453928      9.48369096
 C     11.88315274    -13.21219698     10.45280135
 C     11.47870333    -12.94430154     11.91439388
 C     12.66804865    -12.86996499     12.88985878
 C     12.27856652    -12.46045304     14.32241022
 C     13.21225510    -13.02276188     15.41035986
 C     13.00724252    -12.39069441     16.79962605
 C     13.78900362    -13.08973451     17.92736385
 C     13.50053061    -12.52696878     19.33152838
 C     14.54808276    -12.91804013     20.39044183
 C     14.61626346    -11.95446306     21.58980442
 C     15.83648680    -12.17610683     22.50278253
 C     15.69316469    -11.55065904     23.90273747
 C     17.03217282    -11.33310852     24.63166065
 C     16.88188493    -10.88506525     26.09735870
 C     18.21932473    -10.59889518     26.80514503
 C     18.07100196    -10.18590259     28.28130135
 C     19.40855433     -9.90155181     28.98960799
 C     19.28001621     -9.69118340     30.50974716
 C     20.62229234     -9.44667297     31.22396663
 C     20.47989596     -8.86915448     32.64445798
 C     21.78812972     -8.29827320     33.22257475
 C     21.59823636     -7.48139035     34.51417954
 C     22.89393175     -6.84212622     35.04720378
 C     22.79208230     -6.33670992     36.49833474
 C     23.95633740     -5.42438857     36.92703022
 C     23.76935181     -4.77973111     38.31305084
 C     24.84510092     -3.73684693     38.66907955
 C     24.79615355     -3.26115538     40.13295171
 C     25.63692318     -2.00114079     40.41056597
 C     25.78647866     -1.66484447     41.90593814
 C     26.18948228     -0.20442267     42.18226450
 C     26.09227246      0.20248248     43.66435034
 C     26.18512689      1.72081635     43.90443435
 C     26.10432930      2.12650951     45.38783747
 C     26.16319255      3.64692088     45.62550188
 C     25.74761416      4.07555392     47.04506813
 C     24.26635859      3.80911135     47.37139661
 C     23.65014787      4.82033175     48.35593593
 C     22.13681538      5.03504539     48.16799231
 C     21.51585639      6.02711937     49.16889148
 C     19.97760139      5.97999022     49.22501996
 C     19.34651928      7.10782133     50.06247584
 C     17.80919518      7.15868977     49.98732906
 C     17.15282852      7.96427350     51.12391062
 C     15.64669362      7.69266687     51.29533850
 C     14.75528012      8.45391719     50.29659934
 C     13.27225846      8.04114552     50.33980016
 C     12.42721583      8.61996300     49.18981178
 C     10.97362304      8.11204989     49.16350044
 C     10.24856973      8.35712498     47.82714873
 C      8.73002106      8.10723328     47.88339881
 C      8.02076186      8.25115289     46.52404656
 C      6.48726104      8.13331322     46.60207895
 C      5.76509459      8.47323610     45.28506412
 C      4.27261081      8.09383013     45.27309487
 C      3.54928418      8.43825980     43.95788888
 C      2.14634993      7.81555078     43.83295302
 C      1.51331203      7.97258626     42.43788927
 C      0.31528105      7.03859697     42.18493519
 C     -0.14101351      6.98922364     40.71491562
 C     -1.21276285      5.92141911     40.42725811
 C     -1.87921364      6.05912592     39.04578057
 C     -3.19062180      5.26486590     38.90100613
 C     -3.68662953      5.13401702     37.44895417
 C     -5.15998121      4.70284645     37.32677905
 C     -5.76014208      4.91384595     35.92432187
 C     -7.03405683      4.09061140     35.65781469
 C     -7.53382253      4.16321275     34.20297336
 C     -8.75463306      3.26982956     33.91472322
 C     -9.07071728      3.10542570     32.41650356
 C    -10.41423840      2.40832325     32.13260363
 C    -10.78067789      2.33932183     30.63842797
 C    -12.11241786      1.62071964     30.35263163
 C    -12.46487316      1.52659419     28.85646464
 C    -13.86950386      0.95982255     28.57828751
 C    -14.34690068      1.15331542     27.12699402
 C    -15.83563163      0.82548929     26.90833858
 C    -16.37031800      1.23489847     25.52338565
 C    -15.91872132      0.30885234     24.37879008
 C    -16.32879896      0.79902434     22.97765920
 C    -15.90633645     -0.14386868     21.83569678
 C    -15.05316610      0.53360681     20.74724498
 C    -14.79321483     -0.35131573     19.51398206
 C    -14.22095980      0.41174477     18.30490685
 C    -13.93482822     -0.47803449     17.08096993
 C    -13.46141975      0.29908548     15.83856542
 C    -11.96465733      0.66087753     15.85878364
 C    -11.40702539      1.09656478     14.49100324
 C     -9.88490876      1.33035213     14.48078405
 C     -9.36055853      1.98608248     13.18978655
 C     -7.83661636      2.20732689     13.17393794
 C     -7.29296572      2.72630861     11.82980180
 C     -5.84823530      3.25484154     11.90056169
 C     -5.26238643      3.66126750     10.53557120
 C     -3.90362016      4.38039433     10.62618493
 C     -3.30960740      4.77151373      9.26025138
 C     -2.03981458      5.63775928      9.35429839
 C     -1.33966177      5.87172912      8.00276438
 C     -0.17568855      6.87807718      8.06624603
 C      0.85351962      6.71774774      6.93195108
 C      2.07404055      7.64843688      7.05743574
 C      2.91101163      7.76090740      5.76963538
 C      4.14906149      8.66682395      5.90434897
 C      4.99005144      8.77348606      4.61867440
 C      6.08979326      9.84994245      4.67706578
 C      6.83332508     10.05870321      3.34470720
 C      7.94226397     11.12547857      3.40671419
 C      8.85906258     11.14859036      2.16956176
 C      9.81953123     12.35151682      2.12408756
 C     10.60142276     12.47919028      0.80350242
 C     11.44387850     13.76383950      0.69605610
 C     12.05879346     13.99496898     -0.69680382
 C     13.05009740     15.17198430     -0.75639779
 C     13.65024144     15.41533365     -2.15361224
 C     14.96112036     16.22342796     -2.14019356
 C     15.77478291     16.11885135     -3.44350357
 C     17.14314662     16.82302303     -3.38585819
 C     17.71009922     17.20415229     -4.76604123
 C     19.24838338     17.18923018     -4.83716924
 C     19.80876177     17.14842601     -6.27101410
 C     21.25289692     17.66891163     -6.39417419
 C     21.85520250     17.51760083     -7.80340556
 C     23.29126942     18.05863551     -7.93222039
 C     24.03513826     17.56805174     -9.18824057
 C     25.56075100     17.77031187     -9.13170197
 C     26.24039491     17.79927203    -10.51331171
 C     27.77882968     17.83525497    -10.45395104
 C     28.45689616     17.92826938    -11.83350683
 C     29.99526004     17.88196018    -11.77972942
 C     30.67170948     17.91722273    -13.16275969
 C     32.20735890     17.81338835    -13.11177664
 C     32.89733394     18.06295198    -14.46575317
 C     34.41818225     17.82151122    -14.44767611
 C     35.03123916     17.58367546    -15.84022607
 C     36.51901401     17.18715831    -15.81022355
 C     36.98310491     16.40186960    -17.05100608
 C     38.44582579     15.92544776    -16.97980301
 C     38.72487278     14.63821288    -17.77777491
 C     40.22133571     14.30926333    -17.93266483
 C     40.49886462     12.89550107    -18.47658944
 C     41.98983888     12.60205476    -18.72655947
 C     42.26663443     11.19114304    -19.27820458
 C     43.62876328     11.05013427    -19.98270550
 C     43.98661438      9.60334627    -20.37045164
 C     45.33162566      9.46695398    -21.10797574
 C     45.74871330      8.01080796    -21.38596253
 C     46.98418156      7.87585071    -22.29536052
 C     47.43919576      6.42219681    -22.52219179
 C     48.46005847      6.25620502    -23.66319401
 C     49.10959988      4.86123716    -23.72451799
 C     50.37261080      4.79646862    -24.60327191
 C     51.17385894      3.48993097    -24.45306938
 C     52.43599140      3.42448448    -25.33303438
 C     53.20329845      2.09326052    -25.22967748
 C     54.29533946      1.91493514    -26.30077341
 C     54.84688573      0.48053374    -26.40021858
 C     55.83841274      0.26967557    -27.55953434
 C     56.11234813     -1.20968783    -27.88823376
 C     57.17307115     -1.42177361    -28.98435707
 C     57.00901697     -2.73688652    -29.76868116
 C     58.05828546     -2.93999822    -30.87745583
 C     57.98039150     -4.31351369    -31.56954527
 C     58.67545076     -4.36323583    -32.94286982
 C     58.50244489     -5.70183963    -33.68436076
 C     59.76044511     -6.16527361    -34.44216310
 C     59.62373113     -7.55454420    -35.09242191
 C     60.72597402     -7.87713719    -36.11838213
 C     60.82879210     -9.37092060    -36.47843709
 C     61.39914435    -10.24951682    -35.34955845
 C     61.65394109    -11.71135000    -35.76153221
 C     62.19976124    -12.59624673    -34.62546964
 C     62.53433169    -14.03577356    -35.05839585
 C     63.46366918    -14.78294763    -34.08388944
 C     64.04843633    -16.08897102    -34.65305575
 C     64.88831896    -16.89195105    -33.64240238
 C     65.48738485    -18.18928560    -34.21654794
 C     66.39775514    -18.94776048    -33.23291092
 C     67.37149295    -19.92967906    -33.91060596
 C     68.34452489    -19.26352871    -34.90108694
 C     69.18409825    -20.26081916    -35.72092127
 C     69.59250808    -19.74087241    -37.11176878
 C     70.68778035    -18.65878352    -37.07917573
 C     71.40601738    -18.45376725    -38.42591398
 C     72.39593787    -17.27411433    -38.43465438
 C     73.15533992    -17.10350955    -39.76348941
 C     74.55446763    -16.47871858    -39.60961316
 C     75.22652747    -16.11078974    -40.94548888
 C     76.62936904    -15.49427989    -40.79202504
 C     77.18830115    -14.87878791    -42.08831379
 C     78.52156243    -14.13081583    -41.90243179
 C     79.24089892    -13.79542141    -43.22215358
 C     80.60652314    -13.10886555    -43.03423995
 C     81.33379325    -12.78936277    -44.35355650
 C     82.63494275    -11.98565752    -44.17281400
 C     83.42049133    -11.76353830    -45.47863806
 H     -0.36333333      0.00000000      1.02766186
 H     -0.36333333     -0.88998127     -0.51383093
 H     -0.36333333      0.88998127     -0.51383093
 H      1.88274777      0.85570354     -0.58171765
 H      1.88274777      0.38429066      0.96070008
 H      1.62962592      1.70561553      1.30315232
 H      3.04556643      1.52058477     -0.19093139
 H      4.15968520      0.63013494      0.05648320
 H      3.82824541      1.86117806      1.68549529
 H      3.70201740      3.37271936      0.52152636
 H      3.70683356      3.37121831      0.51121877
 H      3.44577656      3.35083976     -0.86270076
 H      5.31615668      3.10494242     -0.92436530
 H      5.63519757      5.15532863     -0.67867373
 H      5.62957199      5.15277352     -0.71432740
 H      4.88632673      5.66916824     -1.77091866
 H      6.45180729      4.66011150     -2.59974730
 H      7.84586293      4.65133779     -2.28039139
 H      7.88780811      5.27471106     -1.46393486
 H      7.84312952      5.71073352     -0.22534605
 H      7.53877103      7.25826639     -1.05043671
 H      8.77020601      7.68054324     -2.55504851
 H      9.93951570      6.46903644     -1.97778533
 H      9.93795391      7.39217582      0.28640009
 H      9.12147855      8.83015561     -0.37227189
 H     11.20558339      8.53473859     -2.13120802
 H     11.88547172      7.86347371     -1.06070057
 H     10.12126502     10.32826977     -1.92458267
 H     10.77262912      9.16467885     -3.10358549
 H     13.09443716      9.93663614     -1.97818382
 H     12.62701158     11.01615765     -1.84910304
 H     12.99619612      8.46593630     -3.45636929
 H     13.78378949      8.92683709     -1.92812396
 H     14.80448787     10.92600721     -2.71098037
 H     14.79306667     10.35866434     -4.14907746
 H     15.35051541      9.79476920     -1.07624914
 H     14.95981102     11.44025155     -1.63123074
 H     16.20047371     12.22118186     -2.96316032
 H     17.39322514     11.37837709     -1.49873403
 H     17.13770488     11.67020044     -0.12112894
 H     16.23369096     13.08112868     -0.72138471
 H     18.10298693     13.76113040     -2.16614212
 H     19.02953869     12.95874764     -0.51989302
 H     18.78404915     13.25095500      0.86757393
 H     18.07589932     14.77972390      0.29341703
 H     20.53204502     14.34540055     -1.11153151
 H     20.88559456     13.64442931     -0.02394657
 H     19.57713269     16.20002799     -1.22715771
 H     20.39923922     14.93778978     -2.17539935
 H     22.49836321     15.02918421     -1.39349639
 H     22.14644558     16.60805463     -0.65080613
 H     21.30031043     17.89235161     -2.07757313
 H     22.93918537     17.00367411     -2.96496432
 H     24.18371088     17.02131600     -2.28546655
 H     23.48670326     18.35528736     -1.33522054
 H     22.76089970     19.55761138     -3.32678550
 H     23.80441638     18.47706941     -4.28165128
 H     25.74762146     18.48382976     -3.46933333
 H     25.38130151     19.96708299     -2.55607749
 H     24.56396157     21.31809334     -4.16299327
 H     25.22389202     20.22637839     -5.40433003
 H     26.99273551     19.62823781     -5.35763673
 H     27.44335357     20.95393507     -4.25866594
 H     26.58230388     22.74347082     -5.37592110
 H     26.29259990     21.81437715     -6.75605850
 H     26.58943068     20.76607626     -7.70576079
 H     28.30257844     21.16136237     -7.42801936
 H     27.68832231     23.59601301     -7.84107520
 H     26.14096889     22.98705813     -8.47600669
 H     27.36552410     21.51201526    -10.06596781
 H     28.82682020     22.45319911     -9.68249245
 H     28.63651253     24.42868730     -9.85685157
 H     27.16791095     24.23035368    -10.84282309
 H     28.89825877     22.40808192    -11.98916426
 H     29.79852600     23.17202493    -11.69293989
 H     26.95144637     22.73093579    -12.73627478
 H     28.16283834     21.48187112    -12.36126331
 H     29.82993675     21.74866346    -13.64665231
 H     28.85903175     22.78679101    -14.71805389
 H     27.04276386     21.40098009    -15.03758830
 H     27.99168656     20.04411658    -14.38433965
 H     29.86168132     20.13429990    -15.63972240
 H     29.02561928     21.20246577    -16.79223644
 H     27.17712906     20.25026102    -17.32339098
 H     27.77053726     18.70460249    -16.66988269
 H     29.86148832     18.58122238    -17.56582197
 H     29.41281531     19.48205442    -18.75861179
 H     28.82242921     17.09797641    -16.76542989
 H     30.39854714     17.92496566    -16.77984224
 H     31.16809159     17.54991602    -18.82866373
 H     29.95670090     16.26415275    -19.04686562
 H     30.46317072     15.06026679    -17.08683810
 H     31.97789991     15.98555560    -16.95378644
 H     32.79982064     15.57792824    -19.09853537
 H     31.60445191     14.27105359    -19.27584558
 H     32.15496679     13.10847527    -17.30457920
 H     33.97071925     13.77121062    -18.02794390
 H     34.46491745     13.63483158    -19.34824504
 H     33.29089295     12.30544858    -19.49882378
 H     34.38430697     11.50641257    -17.24777687
 H     35.64801856     12.70853131    -17.60303761
 H     36.16991845     11.88099822    -19.76876629
 H     35.26994900     10.39758070    -19.37153323
 H     36.25067596      9.73799341    -17.47193818
 H     37.59709724     10.93720943    -17.76368851
 H     36.07564410      8.55803472    -19.19063723
 H     35.57264003      8.71561839    -17.49051342
 H     37.88275906      8.34137737    -16.71053540
 H     38.26762938      7.78035872    -18.35534529
 H     36.64558761      6.18496714    -18.62653629
 H     36.34371988      6.22005557    -16.87270867
 H     38.75226459      5.83774282    -16.42023412
 H     38.92338305      5.40080479    -18.13722867
 H     37.05428777      3.70693013    -17.75878683
 H     37.30496989      3.98277415    -16.01828828
 H     39.67808373      3.47972635    -16.13830237
 H     39.38848490      2.79196785    -17.75428116
 H     37.64731129      1.30739150    -17.02320929
 H     38.15990146      1.61510598    -15.34665634
 H     40.44302630      1.06840333    -15.67240395
 H     39.99902942      0.31659630    -17.22350666
 H     38.28889519     -1.05753359    -15.92858306
 H     39.12536065     -0.51141017    -14.45537520
 H     41.04091933     -1.71616257    -16.14114774
 H     39.57454127     -2.23499555    -17.00648835
 H     38.38484175     -3.27586486    -15.44954426
 H     39.82614891     -3.36456079    -14.40885537
 H     40.57806490     -4.22420568    -17.02883109
 H     39.41091570     -4.61953689    -17.12664531
 H     41.97027687     -4.30977206    -15.46351334
 H     41.75097198     -3.88475060    -17.17801874
 H     41.27822232     -5.30561312    -18.41472594
 H     41.81957723     -6.54030693    -17.25251566
 H     44.00604193     -5.29874492    -17.05000760
 H     43.51217653     -4.38918867    -18.49813434
 H     43.14999692     -6.48135084    -19.75699293
 H     44.03350340     -7.32470436    -18.46221967
 H     45.73225056     -6.69385627    -17.89399166
 H     45.92147170     -5.75725285    -19.39573600
 H     45.56250322     -6.70336165    -21.07933856
 H     45.71789077     -8.27788537    -20.26386544
 H     47.97867855     -7.34558685    -19.40000882
 H     47.76235724     -6.05707229    -20.60881070
 H     47.43282793     -7.07114111    -22.50605638
 H     48.04909658     -8.58921313    -21.81040062
 H     49.85855612     -8.34228816    -20.88204940
 H     50.10346114     -6.78883824    -21.71576491
 H     49.66533285     -7.70564147    -23.90721378
 H     49.83355471     -9.33015191    -23.19944694
 H     51.59348262     -9.52139644    -22.14256646
 H     52.25615552     -8.07252236    -22.93622581
 H     51.94097180     -8.44126912    -25.09084226
 H     52.14163581    -10.34559452    -24.48750668
 H     53.02944704    -11.05377484    -23.62311995
 H     54.18334661     -9.73808138    -23.94828634
 H     54.39498486     -9.25093518    -25.87043895
 H     53.65819041    -10.79136890    -26.37289748
 H     55.09379737    -12.15277700    -25.01796364
 H     56.15014029    -10.73641516    -24.80273017
 H     56.38503763    -10.30135433    -27.14896084
 H     55.71486286    -11.91975834    -27.46503188
 H     57.36929067    -12.98963844    -26.00553632
 H     58.27847525    -11.45959625    -26.03045546
 H     58.61137180    -10.81143195    -27.96457419
 H     58.22567603    -12.42928271    -28.59865963
 H     59.86713073    -13.43818909    -27.01253357
 H     60.48254397    -11.79096828    -26.73649590
 H     60.89055359    -11.17954598    -28.92754202
 H     60.75227355    -12.88861700    -29.40526738
 H     62.12513844    -13.95927852    -28.06509306
 H     62.90196894    -12.41947009    -27.62487604
 H     63.23607335    -11.91056206    -30.04972527
 H     62.83593069    -13.61470421    -30.37229628
 H     64.61101207    -14.33254452    -28.77321732
 H     65.21402043    -12.65861446    -28.82426377
 H     65.38346370    -12.66324565    -31.25497592
 H     65.19908295    -14.43280574    -31.20086986
 H     66.57717007    -15.26795388    -29.87610874
 H     67.53339761    -13.76672342    -29.89034473
 H     67.85585623    -13.28781636    -31.98903272
 H     67.37849280    -14.94021477    -32.44725789
 H     68.68632881    -16.20128240    -31.12507438
 H     69.70122021    -14.77911479    -30.78492528
 H     70.12898349    -14.12524910    -32.97061555
 H     69.54546874    -15.71072621    -33.53100784
 H     70.52594120    -17.24140805    -32.48665935
 H     71.77930459    -16.09841451    -31.94729617
 H     72.38381828    -15.16403499    -33.93718709
 H     71.55249296    -16.48524370    -34.79250716
 H     72.96032665    -18.07790371    -33.35413961
 H     73.93158367    -16.64836046    -32.92830798
 H     74.38715283    -16.03138706    -35.20088061
 H     73.81774991    -17.64246445    -35.69935491
 H     74.72993889    -19.15268465    -34.67055443
 H     76.02114690    -18.04777739    -34.14118831
 H     76.72617165    -17.07532011    -35.97480105
 H     75.91049113    -18.31853452    -36.95324363
 H     76.96826837    -20.14732841    -35.74448671
 H     78.09747297    -18.95599660    -35.05608846
 H     78.71058857    -18.14119680    -37.29805102
 H     77.91750582    -19.59015291    -37.96123472
 H     79.16008490    -21.13907129    -36.62356015
 H     80.50509895    -19.70174847    -37.26192262
 H     80.71460034    -19.23785644    -38.52053094
 H     79.96363510    -20.77925719    -38.99844473
 H     80.85152022    -22.35954732    -37.94043813
 H     82.22554576    -21.31804069    -37.49818884
 H     83.08377642    -20.31708032    -38.95104379
 H     82.34609165    -21.38788969    -40.16654991
 H     83.53710256    -23.14764958    -38.43932356
 H     84.31874063    -21.67927255    -37.80593781
 H     85.05436442    -21.48217113    -40.36443412
 H     84.47672094    -23.16133085    -40.48697923
 H     85.79831225    -24.03989061    -38.74314339
 H     86.77804589    -22.55449388    -38.78769881
 H     87.23376015    -22.67489973    -41.13497150
 H     86.65697519    -24.35864576    -41.11078353
 H     87.66497246    -25.42013310    -39.59523310
 H     88.90411389    -24.14583266    -39.50060985
 H     89.61893634    -23.75349099    -41.46129813
 H     88.91224644    -25.28032749    -42.04235436
 H     90.14767345    -26.43765624    -40.14029567
 H     91.06373385    -24.92264311    -39.95635213
 H     91.77589888    -24.81110401    -42.23018126
 H     91.27683642    -26.50891908    -42.42156389
 H     92.54727923    -27.31569732    -40.56239489
 H     93.42885237    -25.76939512    -40.55568945
 H     94.19134248    -25.09865525    -42.16418856
 H     94.10763039    -26.71121687    -42.91312378
 H     95.00771127    -28.08301578    -41.49062979
 H     95.73192090    -26.71308209    -40.61480517
 H     96.72299121    -25.85116844    -42.71770583
 H     96.34054324    -27.42755522    -43.45051203
 H     97.11040007    -28.97544239    -42.27506143
 H     98.17092626    -27.82849485    -41.42179582
 H     99.21425102    -26.72030211    -42.98427483
 H     98.73806816    -27.94776982    -44.18212272
 H     99.38571654    -29.85971490    -43.22170133
 H    100.38818267    -28.93866889    -42.07496571
 H    101.61734215    -27.60697373    -43.22453359
 H    101.26853077    -28.53843120    -44.70067189
 H    101.62404169    -30.57307668    -44.36823429
 H    102.56690535    -30.19116350    -42.90761212
 H    103.95986145    -28.82271815    -43.08116050
 H    103.94727994    -28.99003585    -44.85319694
 H    104.03879144    -30.74043656    -45.63056873
 H    104.65480369    -31.42010136    -44.10516670
 H    106.38820977    -29.43611490    -44.34310528
 H    105.76308603    -29.29336254    -46.00355965
 H    106.26386881    -31.67745814    -46.44114109
 H    107.24268283    -31.66404397    -44.95453091
 H    108.56975922    -29.76423248    -45.67217093
 H    107.92352775    -30.00866272    -47.31256888
 H    108.20969407    -32.00582646    -47.89582934
 H    109.40042805    -32.23652694    -46.59306437
 H    110.82353110    -30.90151291    -46.43793903
 H    110.51435243    -30.33348165    -48.09625616
 H    110.46878997    -31.98952740    -49.40133532
 H    111.26065887    -33.00405186    -48.17172139
 H    113.07276822    -31.49386674    -47.78107451
 H    112.68140868    -30.51384505    -48.63587494
 H    112.04984999    -29.70895005    -49.63152344
 H    112.63164461    -30.92445076    -50.79442486
 H    114.73367205    -31.23002333    -50.34615161
 H    114.75579945    -29.73107861    -49.38649450
 H    113.97050067    -28.13865494    -50.39530757
 H    114.13245022    -29.00475812    -51.94188582
 H    116.43479326    -29.56700182    -51.63713768
 H    116.50049682    -28.37922571    -50.31307664
 H    115.47342772    -26.56813689    -51.19350196
 H    115.93853755    -26.92975661    -52.52418994
 H    116.59325209    -26.73037463    -49.44688454
 H    115.07873127    -26.10114441    -50.13866682
 H    116.13421147    -24.48407110    -51.54460255
 H    117.63414715    -24.72640044    -50.61738299
 H    116.65270530    -24.33418569    -48.48204188
 H    115.23231774    -23.65253048    -49.31036066
 H    117.10682646    -22.14953709    -50.44495804
 H    118.17021407    -22.79702990    -49.17286271
 H    116.77073350    -22.13128599    -47.35556677
 H    115.87745567    -21.08767694    -48.48746849
 H    118.45012263    -20.26393539    -48.84949642
 H    118.75539710    -21.22268414    -47.38120660
 H    117.57757900    -20.75402578    -45.82332072
 H    117.14070701    -19.20445105    -46.58241734
 H    118.80037482    -18.16217136    -47.20850971
 H    119.85067475    -19.17032400    -46.18441745
 H    118.64941282    -18.90790790    -44.18174995
 H    117.77507356    -17.54748432    -44.92542003
 H    120.60321795    -17.14389533    -45.12049389
 H    120.58744238    -18.51833457    -43.98959400
 H    119.06462210    -16.81972066    -42.60705032
 H    119.64197115    -15.60868690    -43.77680755
 H    121.99896948    -16.17174583    -43.22535367
 H    121.37248748    -17.04319355    -41.80536569
 H    120.18450353    -14.84653712    -41.19953602
 H    121.22287149    -14.08332274    -42.42736437
 H    123.26918343    -14.91252461    -41.42264391
 H    122.32201965    -15.31634472    -39.97072216
 H    121.45584675    -13.00433920    -39.83572628
 H    122.71566955    -12.54606761    -41.00666622
 H    124.50586588    -13.48889742    -39.66613963
 H    123.36068955    -13.57514740    -38.30621361
 H    123.27779079    -10.93276252    -39.13314476
 H    124.71463734    -11.41403033    -40.06701838
 H    126.14537666    -12.22643820    -39.59322177
 H    125.86336924    -11.75195317    -37.90100358
 H    125.48614645     -9.53362186    -38.10347473
 H    126.15882691     -9.58000250    -39.75078056
 H    128.17880845    -10.62319773    -39.26683761
 H    127.91086572    -10.28031755    -37.54088670
 H    127.55428080     -7.89233095    -37.98295833
 H    128.22903918     -8.16423598    -39.60746916
 H    130.09825657     -9.12936079    -39.42765506
 H    130.18038996     -8.68932979    -37.70489753
 H    129.79015033     -6.50053795    -37.70902884
 H    130.09825584     -6.45088321    -39.46141923
 H    131.71960142     -7.28026660    -40.12771186
 H    132.43759445     -7.25861777    -38.49912843
 H    131.71993965     -4.69696979    -38.67051860
 H    131.12940487     -4.73090875    -39.36873795
 H    130.02128306     -4.93479144    -40.15032657
 H    131.20671731     -5.07355977    -41.47083997
 H    131.84139657     -2.71349957    -40.13428310
 H    130.26304668     -3.00080135    -39.36322149
 H    128.79743811     -3.21911552    -40.88154097
 H    129.90394633     -2.50066801    -42.07642147
 H    130.24211653     -0.54723327    -40.53844499
 H    128.83471244     -1.14037413    -39.62429822
 H    127.69341158     -1.27181529    -42.00648240
 H    128.51102424     -0.24310243    -42.39696384
 H    126.68300977     -1.62959925    -40.31883002
 H    126.96778632     -2.18574222    -41.98552555
 H    126.39894549     -0.89373685    -43.40739497
 H    125.38962206     -0.00742953    -42.23949420
 H    124.20705929     -0.83304520    -41.09023467
 H    124.19837332     -2.29550049    -42.10483595
 H    123.83390766     -1.63093382    -44.13295026
 H    123.27888465     -0.05229505    -43.52622483
 H    121.73229637     -0.70768949    -41.98704870
 H    121.74091235     -2.34045109    -42.69576726
 H    121.30346874     -1.40896687    -44.94739665
 H    120.89259018      0.12667910    -44.14662394
 H    119.28135799     -0.78596466    -42.66357560
 H    119.27092063     -2.26587683    -43.65252337
 H    118.81073882     -0.90738033    -45.68986611
 H    118.42807126      0.44559259    -44.59840081
 H    116.86585925     -0.56546741    -43.25213103
 H    116.72158375     -1.88163019    -44.44173886
 H    116.33931777     -0.80752450    -46.35367332
 H    115.94997958      0.67098912    -45.44225688
 H    114.66974723      0.51925484    -43.98066102
 H    114.07777001     -1.03346316    -44.61854538
 H    113.71006547     -0.23246809    -46.83901087
 H    113.86221326      1.42745856    -46.21470226
 H    112.26304191      1.24622359    -44.50236708
 H    111.67427481     -0.25356867    -45.25883463
 H    111.28875722      0.24438277    -47.34265291
 H    111.33802140      1.97869415    -46.94515605
 H    109.83975409      2.01583978    -45.19877077
 H    109.27667824      0.39585065    -45.67505585
 H    108.85122454      0.99458685    -47.95822321
 H    108.97651414      2.70461954    -47.48035566
 H    107.60513221      2.94552739    -45.80061539
 H    106.82127556      1.40092153    -46.21052774
 H    106.42884351      1.95279903    -48.50049059
 H    106.78605053      3.65079998    -48.10367504
 H    105.21998999      3.80095308    -46.31197729
 H    104.48521679      2.28548881    -46.88794870
 H    104.00704757      2.14697461    -48.75631243
 H    104.06630443      3.91692331    -48.93530089
 H    102.79345489      4.62897475    -47.23805637
 H    102.13933631      2.98478071    -47.04564664
 H    101.45171512      2.22689410    -48.83725025
 H    101.42992821      3.85897866    -49.54724460
 H    100.01951105      4.41639660    -47.39480930
 H     99.91109443      2.65172826    -47.18875548
 H     99.01419181      2.25869708    -49.38385100
 H     98.68714933      4.00410080    -49.50581723
 H     97.45256713      4.13090843    -47.45957397
 H     96.81150108      2.45394769    -48.48239269
 H     96.40639315      2.40485695    -49.76893575
 H     96.14959203      4.15071034    -49.53587826
 H     94.86808271      3.61105668    -47.42882626
 H     94.94850391      2.01681610    -47.77171215
 H     94.97982654      0.84071028    -48.61454706
 H     93.79950382      1.68844284    -49.64238676
 H     92.26958824      2.37822005    -48.14946198
 H     92.94878476      1.25648459    -46.94585560
 H     92.65906064     -0.57414966    -48.71190087
 H     91.65257374      0.59694531    -49.59721852
 H     90.14019008      1.26115041    -48.16681339
 H     90.52481659     -0.11876099    -47.11032219
 H     90.54514656     -1.89785258    -48.03351391
 H     89.63577102     -1.22743670    -49.40895759
 H     87.96080582     -0.19601966    -48.77532707
 H     88.06052679     -0.96919844    -47.17516552
 H     88.21490146     -3.12571993    -47.62053464
 H     87.67344914     -2.82146457    -49.28862478
 H     85.83556890     -1.65135839    -49.09440747
 H     85.72103595     -2.10601335    -47.37730592
 H     85.91846265     -4.46763032    -47.79985726
 H     85.60731034     -4.13165228    -49.51990659
 H     83.99042258     -3.02856702    -49.89218193
 H     83.34988247     -3.36457069    -48.26581279
 H     83.71485207     -5.73735575    -48.35817686
 H     83.75221130     -5.64077640    -49.99617874
 H     82.21693002     -4.77806460    -47.33844009
 H     83.56339654     -5.93211448    -47.18526228
 H     82.57896300     -7.62061215    -48.54696770
 H     81.02696424     -6.75919771    -48.41456041
 H     80.57653251     -6.38256410    -46.41011810
 H     81.30879798     -8.31760670    -46.42374039
 H     80.83911368     -9.31184620    -47.34464305
 H     79.40806002     -8.27178744    -47.54118792
 H     78.86167421     -7.88619192    -45.36229370
 H     79.92532473     -9.22731244    -44.87412366
 H     78.90572399    -10.81675037    -46.37120996
 H     77.55983129     -9.67142614    -46.58351142
 H     76.87965590     -9.16576615    -44.58368241
 H     77.75888617    -10.56473789    -43.92179204
 H     76.81621265    -12.16164183    -45.41633510
 H     75.58459069    -10.95475770    -45.85770198
 H     74.88619980    -10.50568701    -43.62576519
 H     75.74926156    -11.97377847    -43.10798287
 H     74.96623471    -13.55602478    -44.44071494
 H     73.61206081    -12.49729765    -44.90285837
 H     72.69775490    -11.77891225    -43.11295000
 H     73.51857238    -13.04448622    -42.16804373
 H     72.85045154    -14.87208021    -43.49104056
 H     71.63697442    -13.82344455    -44.26311775
 H     70.91301030    -13.37505813    -41.77520862
 H     71.95383120    -14.76268202    -41.37588612
 H     70.49260303    -16.03607335    -43.11111394
 H     69.39492279    -14.63816491    -43.01511002
 H     68.98016137    -14.44742046    -40.84148472
 H     69.29690106    -16.42322351    -40.90369742
 H     68.93275277    -17.51367119    -41.72105247
 H     67.53049798    -16.51575652    -42.17505079
 H     66.92167893    -15.99072243    -39.91357809
 H     68.00893936    -17.29208700    -39.37266987
 H     67.74250456    -19.05377437    -40.24909952
 H     66.12817178    -18.56208755    -40.81517407
 H     65.09089308    -17.78830826    -39.06924281
 H     66.30065783    -18.54479635    -38.00507097
 H     65.39582323    -20.59000542    -39.65358661
 H     63.82164490    -19.31685310    -39.29712731
 H     63.26383974    -18.80003344    -38.15355989
 H     63.99782536    -20.22110314    -37.37247558
 H     63.46136136    -21.93642099    -38.56363667
 H     62.18978757    -20.99030856    -39.37372188
 H     60.99308409    -20.06210281    -37.87928052
 H     61.65519398    -21.15999407    -36.64456925
 H     61.21213000    -23.16922552    -37.81287613
 H     60.14233600    -22.25342417    -38.90150617
 H     58.75833680    -21.16424990    -37.68086604
 H     59.16852223    -22.18485608    -36.28144559
 H     58.51286696    -23.98356075    -38.27380644
 H     57.91310919    -22.52138377    -39.09270554
 H     56.45603321    -22.01952311    -37.13277759
 H     56.78147110    -23.67788249    -36.57402806
 H     56.31846764    -25.00965082    -38.18276632
 H     55.40679648    -23.72125863    -39.00566845
 H     54.08451820    -22.74301710    -37.95787989
 H     54.06158168    -24.02920735    -36.72765420
 H     53.77853778    -25.89182964    -37.78871213
 H     53.25262904    -24.99919761    -39.23608724
 H     51.68763176    -23.63602577    -38.52157183
 H     51.55327470    -24.57373845    -37.01461802
 H     51.25006269    -26.61781678    -38.57487686
 H     51.02157662    -25.42854377    -39.87936545
 H     49.24123046    -24.27025700    -38.70184173
 H     49.14662902    -25.66402541    -37.59878831
 H     48.87419816    -27.21047724    -39.51330760
 H     48.55691762    -25.77942364    -40.52310229
 H     46.85772867    -24.82665812    -39.27106279
 H     46.68409487    -26.36083640    -38.38539075
 H     46.46576616    -27.90472844    -39.90007356
 H     46.11079469    -26.66357918    -41.12555731
 H     44.43661526    -25.51656628    -40.05245059
 H     44.27083959    -26.86901141    -38.90716579
 H     44.01709933    -28.50681760    -40.69778113
 H     43.75531981    -27.14714990    -41.81628099
 H     42.04037019    -26.08294243    -40.65640258
 H     41.82975986    -27.55333324    -39.67565755
 H     41.60648730    -29.14030859    -41.26609193
 H     41.32136768    -27.86985339    -42.47972987
 H     39.56441522    -26.80661830    -41.22671222
 H     39.49093311    -28.25818880    -40.19918600
 H     39.23057841    -29.83034535    -41.92508491
 H     38.84134811    -28.49493995    -43.03569683
 H     37.10903569    -27.58499650    -41.64049523
 H     37.13450461    -29.10159344    -40.70907066
 H     36.91516269    -30.70650205    -42.14421196
 H     36.35548062    -29.54548854    -43.37183987
 H     34.77482104    -28.39236259    -42.48644082
 H     34.60952538    -29.59491028    -41.18458712
 H     34.43981865    -31.50798180    -41.92899290
 H     34.04303673    -30.87122925    -43.54311092
 H     32.41269594    -29.42872672    -43.17310887
 H     32.39627835    -29.27553854    -42.28737487
 H     32.66949265    -28.87940491    -40.97467481
 H     31.87102869    -30.40292188    -40.51683422
 H     30.42864449    -31.13225240    -41.07937892
 H     29.85154155    -29.55447037    -41.66744587
 H     30.00670780    -28.05887205    -40.34560864
 H     30.19191168    -29.21990572    -39.00920788
 H     28.25509412    -30.50480193    -39.57051519
 H     27.74433683    -29.17803278    -40.64153212
 H     27.92875273    -27.52479207    -38.84534791
 H     27.12357711    -29.22305288    -37.98153200
 H     26.01724740    -29.94275288    -38.45160870
 H     25.60378834    -28.44175429    -39.31434940
 H     25.76321228    -26.87569425    -37.74942353
 H     24.80710171    -28.47119124    -36.84239232
 H     23.69116122    -29.12667158    -37.40614620
 H     23.49341256    -27.64532255    -38.37297978
 H     23.60488530    -25.97534972    -37.04776897
 H     23.34730185    -27.04787185    -35.65076728
 H     21.47298562    -28.16519709    -36.32318151
 H     21.21618578    -26.93980221    -37.58838027
 H     21.40501729    -25.31566964    -35.48982787
 H     21.24974086    -26.80488715    -34.52733782
 H     19.71565779    -27.96508835    -34.94107639
 H     18.89624642    -26.63171386    -35.78898213
 H     18.89160962    -24.92114717    -34.55698092
 H     19.28775169    -25.91932770    -33.13748321
 H     18.07820195    -27.53367958    -32.92531214
 H     16.88311319    -26.81853513    -34.03373352
 H     16.95156150    -24.72111209    -32.61723133
 H     17.80776424    -25.69430043    -31.39735922
 H     17.26538727    -27.30550002    -30.77628231
 H     15.60478854    -26.98888934    -31.33345035
 H     15.19301518    -24.95080627    -30.48312846
 H     16.59869500    -25.12447912    -29.40508920
 H     15.66023338    -27.31793747    -28.61071186
 H     14.13664646    -26.84495610    -29.40016620
 H     13.94326029    -24.74572011    -28.28794061
 H     15.19131358    -25.28974530    -27.14135165
 H     14.09996774    -27.32082096    -26.55013860
 H     12.61785011    -26.69390914    -27.31078016
 H     12.42170996    -24.68173279    -26.25401940
 H     13.60090579    -25.22425411    -25.03605614
 H     12.20365671    -27.27404470    -24.65029494
 H     10.91257089    -26.45277452    -25.55962401
 H     10.94647950    -24.47821238    -24.18370239
 H     11.06381781    -26.11259165    -22.92164599
 H     10.16459754    -27.17877633    -22.97137209
 H      9.10056608    -26.03208893    -23.82061394
 H      9.35074099    -24.28029022    -22.20858434
 H     10.05567396    -25.47442848    -21.09262289
 H      7.87428289    -26.81658566    -21.55737661
 H      7.26410506    -25.31394705    -22.29087978
 H      7.72210252    -24.00570391    -20.28603716
 H      7.92906778    -25.54074955    -19.40907255
 H      5.38690347    -25.42539575    -20.76186535
 H      5.89893507    -23.72999820    -20.93995923
 H      6.30986381    -22.98442992    -18.96255064
 H      5.43337265    -24.35956364    -18.24908223
 H      3.47560113    -24.31270986    -19.33498843
 H      3.83339149    -22.66229744    -19.89747537
 H      4.37038371    -21.47426740    -18.22798740
 H      4.52052538    -22.03599520    -17.53264164
 H      5.10706427    -22.92122882    -16.69519199
 H      3.42552596    -23.30762205    -16.25770387
 H      2.59006305    -21.22073847    -15.89022339
 H      4.25068766    -20.58291645    -15.82877704
 H      5.19147899    -21.97077091    -14.29285634
 H      3.56650009    -22.50556042    -13.80121578
 H      2.48330174    -20.61718009    -13.39550462
 H      4.03065051    -19.73835516    -13.35494347
 H      5.14190444    -21.08811849    -11.81668007
 H      3.58098861    -21.82105760    -11.37553534
 H      3.33437787    -20.51120301     -9.80035467
 H      3.90458774    -18.98808247    -10.87270310
 H      5.32083446    -19.75720702     -9.70154738
 H      4.11869130    -20.76192102     -8.85675848
 H      2.68142226    -18.80766616     -8.43385557
 H      4.06274165    -17.78394004     -8.89451624
 H      5.63648008    -18.69722832     -7.42487876
 H      4.30660551    -19.47912157     -6.53699182
 H      3.46026319    -16.92345323     -6.52795507
 H      5.11222748    -16.56185476     -7.08340730
 H      6.63194893    -17.14436320     -6.28403525
 H      5.74646815    -17.45729442     -4.77199540
 H      4.58029933    -16.03480303     -4.10754524
 H      5.40409324    -14.83683039     -5.13442976
 H      7.54435258    -15.12181816     -4.71871509
 H      7.13968405    -16.05431842     -3.25756715
 H      5.84027103    -15.19544006     -2.02447377
 H      6.11922897    -13.61079183     -2.78561707
 H      8.64307249    -14.20809166     -2.31620702
 H      7.98974030    -15.50707187     -1.28952590
 H      6.61815049    -14.40006865      0.09184304
 H      7.38279555    -12.86582882     -0.38741968
 H      9.50957505    -14.42351563      0.38058413
 H      8.23224366    -15.48063571      1.02803168
 H      7.23456252    -13.75142102      2.37622743
 H      8.70219635    -12.77803624      2.11769371
 H     10.40139793    -13.89579235      2.61160235
 H      9.39827314    -15.06654492      3.50117852
 H      8.25418023    -13.51338891      4.84382398
 H      9.45972844    -12.28528788      4.38919443
 H     11.31294978    -13.75236029      5.08493482
 H     10.10334873    -14.76744988      5.90635131
 H      8.93533889    -13.54567167      7.17989648
 H     10.15068706    -12.24906733      7.07983306
 H     12.05130760    -13.32711195      7.59338633
 H     11.09869949    -14.69010988      8.22824151
 H      9.68827932    -13.71762757      9.64780843
 H     10.68624969    -12.24390637      9.62618279
 H     12.65597151    -12.60829668      9.97724318
 H     12.26878074    -14.21446183     10.63949956
 H     10.64342261    -13.59848422     12.16429617
 H     11.16319918    -11.90428509     11.99759794
 H     13.45098519    -12.26664454     12.43038648
 H     13.03898069    -13.88138939     13.05578076
 H     11.38505272    -13.01619883     14.60680382
 H     12.05888266    -11.39282646     14.32594433
 H     14.24228141    -12.89587644     15.07712437
 H     12.99758243    -14.08458761     15.53094908
 H     11.93632796    -12.32627491     16.99221919
 H     13.43501041    -11.38822500     16.78659835
 H     14.80012888    -13.28780860     17.57170621
 H     13.29254083    -14.03307243     18.15482436
 H     12.42392962    -12.38844913     19.43073836
 H     14.00092224    -11.56303153     19.42390374
 H     15.53929411    -12.79198538     19.95488440
 H     14.39663667    -13.96530983     20.65195712
 H     13.59785666    -11.72328138     21.90205851
 H     15.11372766    -11.03994044     21.26688379
 H     16.71561184    -12.31215858     21.87291819
 H     15.66634316    -13.07908510     23.08911127
 H     14.69451835    -11.77478742     24.27766673
 H     15.81255855    -10.47121629     23.80974037
 H     17.74262175    -10.90671831     23.92345607
 H     17.39724784    -12.30136996     24.97413696
 H     16.10925009    -11.49546533     26.56484895
 H     16.57386727     -9.83952936     26.10629295
 H     18.84809802    -10.01997128     26.12869011
 H     18.70194991    -11.55139730     27.02403458
 H     17.34605424    -10.85008104     28.75185185
 H     17.70050543     -9.16135559     28.31500250
 H     20.02803269     -9.30069698     28.32378517
 H     19.90227351    -10.85354753     29.18466056
 H     18.61474951    -10.45789737     30.90682385
 H     18.84508674     -8.70702288     30.68400111
 H     21.20197987     -8.73900360     30.63128928
 H     21.15683986    -10.39476466     31.28296740
 H     19.68982245     -9.41594528     33.15914591
 H     20.20002863     -7.81900454     32.56103506
 H     22.27493864     -7.70522596     32.44835769
 H     22.43264456     -9.13218689     33.50058296
 H     20.91555306     -8.02567597     35.16671051
 H     22.02288975     -6.48972230     34.35808984
 H     23.42922338     -6.40052618     34.20663714
 H     23.50416402     -7.62655070     35.49485856
 H     22.28564048     -7.09799874     37.09167782
 H     22.20112194     -5.42081954     36.50159884
 H     24.14865272     -4.71360622     36.12334915
 H     24.83889340     -6.04498295     37.08213508
 H     23.40498571     -5.54356961     38.99999195
 H     23.02698549     -3.98650884     38.22478599
 H     25.00728756     -3.10091461     37.79880053
 H     25.76770973     -4.26476176     38.91032407
 H     24.66180964     -4.13351827     40.77250991
 H     23.94349349     -2.59186957     40.24752625
 H     25.45821039     -1.28605869     39.60755954
 H     26.68913591     -2.28559789     40.41626865
 H     26.00709970     -2.58666067     42.44415859
 H     24.84135580     -1.25407564     42.26106032
 H     25.58891257      0.44352422     41.54384391
 H     27.24351404     -0.08630525     41.93093738
 H     26.52264831     -0.59650764     44.26808158
 H     25.03913991      0.32282669     43.91837615
 H     25.55840616      2.22328473     43.16765308
 H     27.22244457      2.02657355     43.76810917
 H     26.73936936      1.45237937     45.96261802
 H     25.07048080      2.02023660     45.71641524
 H     25.51087797      4.13276667     44.89987143
 H     27.18986063      3.97858056     45.47040671
 H     26.22153445      3.40193848     47.75903017
 H     25.15136891      3.27554431     47.48390320
 H     24.01126621      2.81079846     47.01586991
 H     23.66131611      4.54768902     46.84553861
 H     23.96275330      5.82154349     48.05936742
 H     24.02981594      4.60188632     49.35405103
 H     21.66638600      4.06088549     48.03454312
 H     21.98473662      5.63768774     47.27256266
 H     22.17488677      6.89169786     49.24815679
 H     21.44353219      5.53525161     50.13890968
 H     19.66709255      4.93529153     49.24201710
 H     19.58701113      6.46057755     48.32803888
 H     19.84599616      8.04306765     49.80961786
 H     19.50789136      6.88324105     51.11681106
 H     17.42759034      6.14205801     50.08186803
 H     17.52675533      7.56390407     49.01566601
 H     17.71457464      8.88877814     51.25744885
 H     17.20466489      7.37240531     52.03775144
 H     15.48362137      6.61653387     51.23664261
 H     15.23270865      7.43044329     50.32170857
 H     15.20548824      8.37611732     49.30697324
 H     14.71931239      9.50076472     50.59812309
 H     12.96721414      7.96762147     51.38365943
 H     13.17388677      7.06592437     49.86297030
 H     12.98860165      8.50845022     48.26217453
 H     12.25867580      9.67855586     49.38748681
 H     10.58362250      8.13626119     50.18105308
 H     10.83630799      7.51242847     48.26366783
 H     10.92545545      8.08940922     47.01582020
 H     10.00228312      9.41681921     47.76013345
 H      8.34170517      8.56007193     48.79567505
 H      8.56060111      7.03084630     47.91146908
 H      8.62070628      7.74322653     45.76894558
 H      7.95476766      9.31200149     46.28249942
 H      6.14124459      8.72031550     47.45284387
 H      6.13754484      7.61418200     45.70972176
 H      6.29954824      7.99079423     44.46670653
 H      5.79146591      9.55437207     45.14886733
 H      3.83288316      8.40247867     46.22150178
 H      4.19494698      7.01132980     45.17179646
 H      4.18661821      8.13602004     43.12689162
 H      3.39497260      9.51674492     43.92386257
 H      1.62675840      7.94813381     44.78192425
 H      2.26082642      6.75132625     43.62698871
 H      2.27150984      7.74196258     41.68952519
 H      1.19146613      9.00752695     42.32207485
 H     -0.32277869      7.05258915     43.06855501
 H      0.69501161      6.02917221     42.02692776
 H      0.74411590      6.90981169     40.08377405
 H     -0.66705713      7.91652242     40.48799037
 H     -1.95969534      5.96323770     41.22000212
 H     -0.73198256      4.94319366     40.43228507
 H     -1.10077962      6.25086559     38.30728455
 H     -2.56503113      6.90568061     39.07893956
 H     -3.78533778      5.41810540     39.80152296
 H     -2.94234409      4.20786455     38.80505651
 H     -2.83465650      4.88321257     36.81702135
 H     -4.09821733      6.09470207     37.13947118
 H     -5.74582879      5.27721922     38.04439911
 H     -5.22786484      3.64214720     37.56845842
 H     -5.03660232      4.56766809     35.18624931
 H     -5.93945397      5.97994215     35.78508780
 H     -7.67851602      4.16309692     36.53389585
 H     -6.74453484      3.05097160     35.50475879
 H     -6.67562843      4.05393578     33.53990367
 H     -7.99200829      5.13974557     34.04629068
 H     -9.46539607      3.38629312     34.73286268
 H     -8.41842026      2.23393424     33.87020556
 H     -8.13555588      2.92365670     31.88684972
 H     -9.51779047      4.03217057     32.05682385
 H    -11.16743554      2.83231863     32.79669849
 H    -10.30022608      1.34518067     32.34433237
 H     -9.89274578      2.04070696     30.08119757
 H    -11.09491491      3.33211796     30.31638615
 H    -12.85275578      1.97244749     31.07116297
 H    -11.95895931      0.54959040     30.48390473
 H    -11.56827579      1.23221027     28.31098205
 H    -12.78927608      2.51068264     28.51818569
 H    -14.57152742      1.43056015     29.26652369
 H    -13.84770637     -0.11469706     28.76003588
 H    -13.52385754      0.89995520     26.45878105
 H    -14.61569474      2.20091273     26.99138566
 H    -16.40727550      1.26680455     27.72477236
 H    -15.95418920     -0.25790207     26.92586736
 H    -15.53083415      1.27197494     24.82912906
 H    -16.48673779      2.31854775     25.50755295
 H    -16.02469456     -0.72377415     24.71128398
 H    -14.87028630      0.51561994     24.16400843
 H    -16.12513704      1.86801183     22.91530882
 H    -17.39753030      0.62488029     22.85281056
 H    -16.13388179     -1.16719410     22.13424027
 H    -14.82341377     -0.08577433     21.72613618
 H    -14.30227203      1.15371814     21.23685713
 H    -15.70594155      1.16298399     20.14237428
 H    -15.72887144     -0.83732307     19.23749776
 H    -14.05672848     -1.10805757     19.78422201
 H    -13.43676818      1.07977507     18.66110766
 H    -15.02371813      0.99900185     17.85902774
 H    -14.78170051     -1.14961720     16.93995931
 H    -13.03755285     -1.06251649     17.28438500
 H    -12.88882579      1.16417590     16.17301230
 H    -14.32034166      0.81454611     15.40885214
 H    -11.40505562     -0.21382409     16.19020936
 H    -11.81855694      1.47576206     16.56780965
 H    -12.11912452      1.78342054     14.03357127
 H    -11.30357949      0.21029475     13.86496460
 H     -9.40857070      0.51029225     15.01809573
 H     -9.67892429      2.26944347     14.99437713
 H    -10.03092766      2.80335862     12.92376976
 H     -9.36814008      1.23743440     12.39759429
 H     -7.35534926      1.30511665     13.55142790
 H     -7.60503520      3.04504507     13.83173610
 H     -7.95388056      3.51721155     11.47516945
 H     -7.29779576      1.90184529     11.11682431
 H     -5.25420966      2.55161576     12.48426284
 H     -5.86151687      4.22273033     12.40167534
 H     -6.01707234      4.23260312      9.99508551
 H     -5.02667793      2.75370068      9.97981589
 H     -3.27878514      3.84381404     11.34016167
 H     -4.07610781      5.39507803     10.98502333
 H     -4.10478396      5.20129227      8.65108422
 H     -2.93133248      3.86912316      8.77993967
 H     -1.39083881      5.21266000     10.11994912
 H     -2.33361155      6.64609590      9.64591562
 H     -2.10011267      6.11285641      7.26001808
 H     -0.83102387      4.95120673      7.71636257
 H      0.42296366      6.65445810      8.94925794
 H     -0.59392078      7.88070799      8.15520258
 H      0.31289505      6.58074860      5.99543823
 H      1.45474346      5.83205529      7.13732580
 H      2.41099102      7.63394253      8.09394637
 H      1.76367068      8.65860944      6.79037407
 H      2.22957193      7.87998182      4.92728081
 H      3.48008805      6.83910118      5.64911430
 H      4.64360275      8.43340778      6.84724124
 H      3.81495184      9.70428510      5.91639476
 H      4.31234848      8.91247148      3.77635513
 H      5.54142739      7.84186783      4.49150513
 H      6.59139562      9.77549358      5.64192455
 H      5.61709497     10.82804870      4.58782179
 H      6.09662263     10.08700840      2.54185707
 H      7.50553819      9.21447219      3.19139860
 H      8.51386178     10.97286814      4.32218456
 H      7.47144930     12.10822929      3.43190486
 H      8.23495035     11.07428169      1.27902139
 H      9.52443081     10.28670133      2.21988482
 H     10.25280762     12.48184733      3.11574554
 H      9.24494333     13.23906589      1.85912455
 H      9.90923442     12.31350395     -0.02204185
 H     11.37563362     11.71207987      0.78803784
 H     11.96189537     13.91422749      1.64323189
 H     10.77033672     14.60113464      0.51335880
 H     11.29514517     13.78957760     -1.44697425
 H     12.88936336     13.30070561     -0.82428716
 H     13.70187418     15.11563781      0.11544629
 H     12.48114676     16.10119106     -0.72525343
 H     12.84671067     15.35264845     -2.88744388
 H     14.38493354     14.63490258     -2.35174065
 H     15.59554773     15.83422654     -1.34387442
 H     14.71888322     17.26615323     -1.93490063
 H     15.08931554     16.22188364     -4.28470440
 H     16.24487076     15.13597220     -3.47615314
 H     17.61670868     16.57460995     -2.43605299
 H     16.97738344     17.89904586     -3.43874907
 H     16.90602469     17.64126361     -5.35806981
 H     18.06728534     16.29643008     -5.25241401
 H     19.60572328     16.28710897     -4.34059546
 H     19.62435008     18.06672972     -4.31110500
 H     20.20202450     18.13565828     -6.51353602
 H     19.66468934     16.14310559     -6.66683474
 H     21.83925653     17.24957744     -5.57659163
 H     21.23419091     18.75533356     -6.30793340
 H     21.10737343     17.83215187     -8.53135427
 H     22.09690393     16.46660660     -7.96180869
 H     23.86226569     17.72492637     -7.06579009
 H     23.24771060     19.14772835     -7.94113186
 H     23.35648163     17.63923798    -10.03821568
 H     24.31707560     16.52640746     -9.03465496
 H     25.91093038     17.46316665     -8.14623954
 H     25.77173250     18.82958862     -9.27839748
 H     25.64066367     18.42177385    -11.17732520
 H     26.27277419     16.78097533    -10.90076933
 H     28.11003428     17.11290722     -9.70788320
 H     28.08687044     18.83635117    -10.15226032
 H     27.92512773     18.67167828    -12.42736333
 H     28.38236456     16.95490129    -12.31837754
 H     30.29044694     17.09237118    -11.08870561
 H     30.35432023     18.84208691    -11.40914550
 H     30.17842356     18.67917265    -13.76625063
 H     30.54275729     16.94204962    -13.63234326
 H     32.47453694     17.02919899    -12.40342437
 H     32.62672994     18.68856727    -13.60805257
 H     32.43331197     18.93217459    -14.93183864
 H     32.74280609     17.18700985    -15.09579010
 H     34.61151571     16.89343216    -13.90972499
 H     34.89073378     18.65131457    -13.92210837
 H     34.61239473     18.31736877    -16.52896656
 H     34.75853347     16.58053019    -16.16799302
 H     36.65931038     16.44161722    -15.02754520
 H     37.10575119     18.07525462    -15.57543763
 H     36.57504461     16.88838164    -17.93694784
 H     36.59129242     15.38715454    -16.98074710
 H     38.62427206     15.51387872    -15.98639079
 H     39.09490124     16.78666431    -17.13825521
 H     38.23462023     14.72308721    -18.74759385
 H     38.30200916     13.79649921    -17.22931849
 H     40.70674277     14.45877414    -16.96823417
 H     40.64889030     14.99439680    -18.66470937
 H     39.81936623     12.70868815    -19.30814393
 H     40.30421709     12.17744814    -17.67996386
 H     42.55938410     12.97023061    -17.87323374
 H     42.29789980     13.13487758    -19.62616956
 H     41.53939194     10.98099644    -20.06246013
 H     42.14217613     10.47503166    -18.46592715
 H     44.38354176     11.54516221    -19.37167622
 H     43.56569316     11.54347535    -20.95262134
 H     43.10430525      9.13806860    -20.80993690
 H     44.26814801      9.06552396    -19.46514176
 H     46.06897881     10.08259450    -20.59280869
 H     45.20221975      9.83141943    -22.12705329
 H     44.87742738      7.46900889    -21.75394978
 H     46.08446726      7.56568915    -20.44935240
 H     47.73350710      8.59497632    -21.96449862
 H     46.68445347      8.10767070    -23.31737939
 H     46.55689140      5.81404097    -22.72165482
 H     47.92561432      6.06943699    -21.61276478
 H     49.20730277      7.04449016    -23.57191161
 H     47.93398619      6.36235083    -24.61192001
 H     48.32828818      4.11315010    -23.59028771
 H     49.83107671      4.78304376    -22.91121793
 H     50.99002792      5.66672536    -24.38067520
 H     50.06487833      4.82706458    -25.64848224
 H     50.47275978      2.65534753    -24.45858676
 H     51.69845879      3.51745056    -23.49801039
 H     52.95241291      4.38185346    -25.26336758
 H     52.12651617      3.25277296    -26.36397581
 H     52.48105598      1.27767693    -25.26558331
 H     53.72713014      2.07288994    -24.27401781
 H     54.85039908      2.84939188    -26.38323199
 H     53.99888502      1.09905980    -26.95998672
 H     54.00631773     -0.21274598    -26.37007436
 H     55.49560301      0.30253324    -25.54255798
 H     56.52906880      1.11274877    -27.57747276
 H     55.27461657      0.24195461    -28.49198564
 H     55.16105522     -1.74178472    -27.89206613
 H     56.75525739     -1.62041230    -27.10972679
 H     58.00991446     -0.75221960    -28.78563443
 H     56.72684278     -1.16999980    -29.94643305
 H     55.95378508     -2.86175390    -30.01156755
 H     57.33491905     -3.55895375    -29.13142666
 H     59.03612108     -2.67214562    -30.47721531
 H     57.81191887     -2.27831094    -31.70786142
 H     56.93303396     -4.53508405    -31.77460318
 H     58.38398454     -5.06347265    -30.88927016
 H     59.63788743     -3.85857969    -32.85838406
 H     58.05022459     -3.83509632    -33.66277322
 H     57.46004036     -6.00875151    -33.59893295
 H     59.30136779     -6.37346828    -33.37013609
 H     60.62449553     -6.01840705    -33.79412986
 H     59.86799477     -5.55074486    -35.33596816
 H     58.65143751     -7.60963606    -35.58202378
 H     59.67790676     -8.30772792    -34.30636893
 H     61.35138568     -8.67156999    -35.71115148
 H     60.52854671     -7.30495539    -37.02487561
 H     59.82108597     -9.75606782    -36.63428953
 H     60.36566917     -9.94890980    -35.67872111
 H     60.92568837     -9.95446035    -34.41313914
 H     62.47262160    -10.07151894    -35.28581407
 H     62.13664624    -11.71287036    -36.73882102
 H     60.69267051    -12.22059487    -35.83029662
 H     61.62808284    -12.38512728    -33.72174824
 H     63.24602054    -12.33780440    -34.46222430
 H     63.06686948    -13.99294127    -36.00848474
 H     61.59923866    -14.58012691    -35.19023083
 H     63.11722779    -14.59487578    -33.06766735
 H     64.47294029    -14.38873128    -34.20248659
 H     64.38146988    -15.89931608    -35.67345746
 H     63.26043390    -16.84201192    -34.66208733
 H     64.35428931    -16.91216463    -32.69240041
 H     65.84405268    -16.38453897    -33.51123062
 H     65.89848162    -17.97019734    -35.20199189
 H     64.68737500    -18.92348102    -34.31163374
 H     65.90879522    -18.96744005    -32.25893407
 H     67.34196544    -18.40883798    -33.15462012
 H     67.34741059    -19.74937221    -34.98531963
 H     66.80555773    -20.80101341    -34.24014165
 H     68.73226025    -18.35433277    -34.44160459
 H     67.79146884    -19.00667165    -35.80455440
 H     68.52677769    -21.05794200    -36.06823217
 H     69.95085776    -20.68010963    -35.06948029
 H     69.64642147    -18.65305573    -37.06877776
 H     68.71579322    -19.76803192    -37.75886491
 H     71.45898575    -18.97278148    -36.37579282
 H     70.23906296    -17.72719579    -36.73436128
 H     70.65476469    -18.43346794    -39.21541214
 H     72.07951817    -19.29555733    -38.58680569
 H     72.97982048    -17.30982566    -37.51492300
 H     71.82386307    -16.34683689    -38.46607061
 H     72.44340868    -17.21285355    -40.58159563
 H     74.14519871    -17.54601605    -39.65183107
 H     75.05157399    -16.95520155    -38.76465798
 H     74.58817477    -15.56373286    -40.20102246
 H     74.48639252    -15.62059180    -41.57794934
 H     76.20068398    -16.59820748    -40.98477033
 H     77.18190600    -16.07855510    -40.05620890
 H     76.51676090    -14.47118024    -40.43329603
 H     76.39603522    -14.29892479    -42.56178339
 H     77.49011854    -15.69017920    -42.75062068
 H     79.17130630    -14.73956204    -41.27365443
 H     78.31653427    -13.18367463    -41.40344582
 H     78.50325788    -13.41067294    -43.92639382
 H     79.67685242    -14.71282947    -43.61763682
 H     81.14765770    -13.63218300    -42.24594290
 H     80.43228872    -12.07632884    -42.73156800
 H     80.61050147    -12.36418646    -45.04938271
 H     81.72726665    -13.72013457    -44.76214253
 H     83.19348400    -12.41965733    -43.34349149
 H     82.37105780    -10.95550765    -43.93353176
 H     82.79181794    -11.23531523    -46.19547148
 H     83.71447704    -12.72736579    -45.89422076
 H     84.31118419    -11.17071963    -45.27047403
1502
Final Conformation Chain 9 (Simulation Frame 10)
 C      0.00000000      0.00000000      0.00000000
 C      1.54000000      0.00000000      0.00000000
 C      2.16637443      1.40616153     -0.04432635
 C      1.77879972      2.22555386     -1.28930910
 C      2.33713075      3.66077172     -1.29332933
 C      1.60364623      4.62089255     -0.33846366
 C      2.26969416      6.00312083     -0.20645944
 C      3.75195715      5.94720592      0.20750912
 C      4.36281843      7.32214452      0.53613098
 C      5.88972030      7.29779068      0.73507217
 C      6.56811098      8.66715172      0.54471351
 C      8.07392037      8.67044954      0.86740100
 C      8.66437031     10.07569832      1.08704783
 C     10.18193695     10.08357597      1.34882913
 C     10.72343254     11.43385871      1.85392225
 C     12.25372323     11.47152784      2.02241986
 C     12.80562014     12.85129750      2.42645636
 C     14.31878674     12.86139322      2.71250694
 C     14.90442769     14.26787208      2.93709964
 C     16.43314750     14.28762762      3.12210095
 C     17.02341637     15.69780602      3.30805674
 C     16.53500922     16.72339832      2.26823999
 C     16.93628738     18.17608740      2.58489482
 C     16.52488948     19.18997146      1.50120165
 C     17.08998599     20.60558558      1.72098014
 C     17.25384699     21.42264718      0.42592805
 C     17.29430323     22.94610667      0.64736533
 C     18.19308535     23.70039073     -0.35005446
 C     18.43604613     25.17597785      0.01765834
 C     19.57118025     25.84205709     -0.78197219
 C     20.19006971     27.06933164     -0.08744141
 C     21.50234032     27.55678043     -0.72926657
 C     22.15084380     28.74871565     -0.00102646
 C     23.52087716     29.16079837     -0.57093560
 C     24.24934715     30.23178323      0.26208475
 C     25.47309301     30.84737597     -0.44154273
 C     26.08510775     32.04858072      0.30286651
 C     26.79067223     31.67587657      1.62001130
 C     27.37704868     32.88063962      2.37916125
 C     27.94611463     32.53010023      3.76656389
 C     28.57647613     33.72532723      4.50526329
 C     29.54024982     33.32432791      5.63749111
 C     29.88313773     34.47288514      6.60436450
 C     28.77141003     34.78751852      7.62253314
 C     29.09374998     35.96841226      8.55697785
 C     27.96000028     36.31773234      9.53890813
 C     28.10502615     37.70297355     10.19592738
 C     26.78313492     38.28358456     10.73173931
 C     26.91350412     39.70236897     11.31625164
 C     25.61969740     40.23663139     11.95830136
 C     25.77456877     41.61629530     12.62474143
 C     24.45695669     42.40391924     12.74781429
 C     23.64515353     42.07274318     14.01387040
 C     22.49126776     43.05381298     14.29252735
 C     21.59755364     42.64877028     15.47946268
 C     20.72851211     43.79521761     16.02903100
 C     19.65772762     43.34108045     17.03837733
 C     18.80130847     44.48998346     17.60244124
 C     17.87003756     44.06968280     18.75469202
 C     17.00286342     45.21532321     19.30887345
 C     15.76494323     44.74114939     20.09265455
 C     15.34850940     45.68456232     21.23640055
 C     14.45249634     45.02251960     22.29963148
 C     14.38992959     45.79104503     23.63269340
 C     14.20325450     47.31113386     23.47119306
 C     15.12445392     48.15455694     24.37209769
 C     15.20567374     49.63894113     23.97009407
 C     15.86334732     50.54026347     25.03154756
 C     15.45588604     52.02220105     24.93440688
 C     16.05167624     52.90960354     26.04307765
 C     15.94365798     54.41993219     25.76229407
 C     16.81492455     55.29244668     26.68490613
 C     16.44615260     56.78750627     26.66480465
 C     17.14656943     57.62012738     27.75464791
 C     16.62493775     59.06436400     27.87161367
 C     17.46775060     59.96175148     28.79679593
 C     16.75066842     61.24918670     29.24390184
 C     17.67832274     62.28555645     29.90495796
 C     16.96992511     63.59114676     30.31141428
 C     17.76303833     64.44758521     31.31594631
 C     17.16842102     65.84853235     31.55127028
 C     18.02945310     66.75078246     32.45469073
 C     17.58994311     68.22667919     32.46733249
 C     18.51243586     69.14794910     33.28700858
 C     17.99554878     70.59230173     33.42218708
 C     18.90073494     71.50468966     34.27058928
 C     18.52921855     72.99746941     34.19858793
 C     19.38106537     73.89965715     35.11073609
 C     18.86768578     75.34779094     35.21537791
 C     19.87188690     76.32357493     35.85649079
 C     19.29889063     77.72843902     36.12036981
 C     20.26638072     78.67065008     36.86050578
 C     19.60954905     79.96537169     37.37418672
 C     20.60805465     80.99312210     37.93838142
 C     20.02292348     82.40761622     38.10698716
 C     21.02061919     83.43472150     38.67378342
 C     20.36037393     84.71598464     39.21603887
 C     21.36283081     85.79264684     39.67153717
 C     20.70716063     87.12105192     40.09229431
 C     21.68823728     88.13694255     40.70634222
 C     21.04024853     89.48018679     41.09027645
 C     22.01618199     90.48718366     41.72675989
 C     21.32675358     91.69364447     42.39064301
 C     22.24681755     92.91367699     42.58196197
 C     21.50197830     94.26122042     42.61264148
 C     22.25772186     95.37784275     43.35668869
 C     21.50728144     96.72198530     43.39816124
 C     22.18770045     97.79256865     44.27136298
 C     21.28184090     98.98993733     44.61389288
 C     22.03728569    100.20273850     45.18836349
 C     21.22414741    101.51050405     45.17589655
 C     21.94590692    102.70312307     45.83036052
 C     21.22321038    104.05046580     45.64603126
 C     22.15767901    105.27373420     45.69055986
 C     21.41990687    106.62545722     45.70227139
 C     22.31588213    107.82497805     46.06279616
 C     21.53609673    109.09375892     46.45488010
 C     22.42253084    110.33713233     46.65452256
 C     21.66942538    111.56091161     47.20841466
 C     22.44765451    112.88403719     47.08472913
 C     21.85322370    114.03991964     47.91067572
 C     22.25101526    115.43950851     47.40618303
 C     22.19379364    116.53469602     48.48733519
 C     23.02912121    117.78550262     48.15671350
 C     22.76297483    118.98115432     49.09008541
 C     23.76688847    120.13769256     48.92829320
 C     23.69736456    121.18919581     50.05128355
 C     24.23014074    122.57578109     49.64492065
 C     24.43505140    123.53957508     50.82843777
 C     25.09546069    124.87575306     50.44102589
 C     26.63287037    124.86344643     50.52945675
 C     27.28076721    126.25101629     50.36673135
 C     28.78833090    126.20578688     50.05559470
 C     29.41745169    127.58846639     49.80260378
 C     30.77547137    127.53568432     49.07831337
 C     30.68705997    127.06354615     47.61514251
 C     32.03465943    127.07762780     46.86990605
 C     31.96286074    126.52257015     45.43520889
 C     33.12194656    126.97729727     44.52892896
 C     33.09799358    126.35370564     43.12103701
 C     33.80654715    127.20153032     42.04830911
 C     33.40365400    126.84900319     40.60435561
 C     34.35923747    127.40717210     39.53341784
 C     33.98026334    127.01887907     38.09216591
 C     34.16925891    128.15299273     37.06763339
 C     34.29669501    127.66717109     35.61183897
 C     34.24970964    128.79816468     34.56769057
 C     34.73075005    128.37748029     33.16653934
 C     34.50958060    129.44718596     32.08099161
 C     35.16733787    129.11312334     30.72919372
 C     34.83017023    130.11031234     29.60512430
 C     35.93540998    130.25328998     28.54229672
 C     36.08420247    131.67974494     27.98132700
 C     37.16050864    131.81377572     26.88807461
 C     37.32795267    133.24550221     26.34611360
 C     38.47851560    133.40174600     25.33448480
 C     38.84400186    134.86487864     25.02261517
 C     39.81433489    135.02929727     23.83812359
 C     40.59535028    136.35652052     23.84778903
 C     41.88870112    136.32831511     23.01229634
 C     42.89082152    135.24226160     23.44570434
 C     43.75014267    134.68754693     22.29441863
 C     44.53248086    133.41115570     22.65548979
 C     45.15443400    132.69365639     21.44306700
 C     46.00788526    131.46595384     21.81180456
 C     45.25968215    130.41133524     22.64820860
 C     46.18499626    129.45211679     23.41976143
 C     45.58282914    128.05426816     23.65431200
 C     46.45470693    127.13560539     24.53037583
 C     45.89767821    125.70872830     24.68956370
 C     46.84239518    124.74693657     25.43392014
 C     46.25847917    123.33858917     25.65117506
 C     47.28166815    122.30869892     26.16499446
 C     46.71139498    120.88769314     26.32970960
 C     47.72678660    119.86409926     26.87085233
 C     47.37105065    118.40012586     26.55173823
 C     48.48125472    117.39390324     26.90749509
 C     48.12996844    115.93116078     26.57797658
 C     48.97514331    114.89624633     27.34363416
 C     48.66277391    113.43460568     26.97264633
 C     49.60907487    112.40763938     27.62184177
 C     49.45890652    110.97904885     27.06670347
 C     50.40805621    109.95289957     27.71302578
 C     50.20755285    108.51100698     27.21068709
 C     50.62057689    107.43042825     28.22723061
 C     50.55722748    105.99417943     27.67516524
 C     50.63396285    104.90264502     28.75880001
 C     50.10419490    103.53005615     28.30388713
 C     50.22116223    102.42781101     29.37298689
 C     49.59385189    101.08389143     28.95830399
 C     49.92097054     99.91934252     29.91141428
 C     49.12985630     98.63054733     29.62030401
 C     48.10130810     98.26785857     30.70756914
 C     47.38600080     96.92489714     30.47010321
 C     46.80343128     96.29112788     31.74703284
 C     46.28988765     94.85216982     31.55397159
 C     45.34229891     94.37049054     32.66826986
 C     45.12611903     92.84590983     32.69107172
 C     44.10483396     92.37374106     33.74256279
 C     44.04123558     90.84434613     33.91140114
 C     42.97728405     90.36901930     34.91821371
 C     43.19883780     88.93471866     35.43328227
 C     42.08881587     88.42813414     36.37286911
 C     40.83075288     87.92415140     35.64151494
 C     39.74594926     87.35972324     36.57758223
 C     38.65587343     86.54687181     35.85466644
 C     37.65443216     85.86053145     36.80211158
 C     36.61130940     84.98484958     36.08330968
 C     35.65780701     84.23823041     37.03462087
 C     34.75324354     83.20791033     36.33333244
 C     33.93587377     82.33117976     37.30020895
 C     32.98342646     81.34516946     36.59861947
 C     31.99002929     80.65056350     37.54850611
 C     31.27330611     79.43731447     36.92726971
 C     30.22803938     78.78623506     37.85199294
 C     29.18797736     77.92420268     37.11255318
 C     28.32066011     77.05465732     38.04166654
 C     27.39458455     76.07439406     37.29798112
 C     26.15867097     75.64267150     38.10898868
 C     25.18473764     74.73729401     37.33223552
 C     23.75639230     74.71482925     37.90749626
 C     22.84317426     73.64813803     37.27519677
 C     21.84209406     73.01681007     38.26052079
 C     21.03402415     71.84692053     37.66892845
 C     19.84275191     71.40515877     38.53916807
 C     19.20721193     70.07255529     38.10115334
 C     18.06974668     69.58918314     39.01991564
 C     17.62857928     68.13687833     38.75956575
 C     17.12452715     67.40077111     40.01482573
 C     16.45072691     66.04788699     39.71936376
 C     15.76809158     65.40775780     40.94241062
 C     15.54214677     63.89012850     40.81069032
 C     14.56771729     63.30920328     41.85213791
 C     14.44702891     61.77453476     41.80939613
 C     13.86086449     61.15635092     43.09230688
 C     13.70189519     59.62568780     43.03400451
 C     13.42291707     58.97242107     44.40039164
 C     13.26933488     57.44117696     44.34291139
 C     12.76985842     56.81199737     45.65678213
 C     12.73347218     55.27251972     45.63991185
 C     12.50757976     54.63610497     47.02394540
 C     12.41692510     53.09897317     46.99929648
 C     12.04466602     52.47163580     48.35556748
 C     11.86549284     50.94276020     48.31044153
 C     11.43507474     50.32265063     49.65275460
 C     11.09445548     48.82310660     49.56941065
 C     10.45265569     48.25451881     50.84862953
 C     10.41080638     46.71587308     50.89780219
 C      9.43997772     46.14898858     51.95029146
 C      9.52889199     44.62165101     52.12617272
 C      9.27850906     43.82640489     50.83137853
 C      8.58229890     42.47085340     51.05357569
 C      8.69653923     41.50487296     49.85966157
 C      7.96523065     40.16532230     50.06555425
 C      7.91831552     39.27755173     48.80807169
 C      7.19584455     37.93363815     49.01671484
 C      7.31660214     36.96591662     47.82485383
 C      6.78916102     35.54809316     48.11326761
 C      7.13831405     34.51639050     47.02456115
 C      6.55696139     33.11365423     47.28138802
 C      6.35511192     32.27595146     46.00502174
 C      5.32991898     31.13712636     46.15882945
 C      5.37653741     30.09511379     45.02585260
 C      4.17035653     29.13787750     45.00520379
 C      4.06193466     28.29448264     43.72125293
 C      2.61730635     27.93094524     43.33075376
 C      2.51308642     27.02351945     42.09086801
 C      1.12001664     26.39964718     41.88656435
 C      0.98383682     25.58273027     40.58821855
 C     -0.40224650     24.94004241     40.39502083
 C     -0.51554582     24.06234974     39.13469593
 C     -1.77453644     23.17617043     39.09964088
 C     -1.94224902     22.37759083     37.79359987
 C     -3.09434942     21.35625918     37.82745771
 C     -3.32643872     20.62925246     36.48984948
 C     -4.17659438     19.35091105     36.61100470
 C     -4.47606390     18.66779486     35.26368503
 C     -4.35696757     17.13282516     35.29951937
 C     -4.37134546     16.47082369     33.90914269
 C     -4.39873918     14.93157123     33.94853104
 C     -4.11962847     14.26512443     32.58855094
 C     -5.05031749     14.73816119     31.45644928
 C     -4.90614102     13.93513062     30.15032713
 C     -5.74777912     14.48229105     28.98248263
 C     -5.72167664     13.59677557     27.72280766
 C     -6.62134884     14.10518056     26.58100457
 C     -6.59031205     13.22315465     25.31899545
 C     -7.13149329     13.91800275     24.05570253
 C     -6.83857084     13.15809151     22.74867103
 C     -7.35207582     13.86854462     21.48250793
 C     -6.58689483     13.49333874     20.19980820
 C     -6.58785744     14.59593551     19.12468987
 C     -6.25013092     14.09117114     17.70950305
 C     -5.96169625     15.21431712     16.69611836
 C     -6.12108682     14.78694768     15.22521727
 C     -6.26428752     15.96426634     14.24286584
 C     -6.50384369     15.53637791     12.78302875
 C     -7.27905006     16.57098140     11.94621891
 C     -7.54355090     16.13084775     10.49435058
 C     -7.91398453     17.28704387      9.54693860
 C     -8.19369441     16.84488159      8.09854125
 C     -8.82832014     17.93967976      7.22089260
 C     -9.43960759     17.41443860      5.90862381
 C     -9.91767987     18.52301409      4.95253423
 C    -10.69657888     18.00293648      3.73006312
 C    -10.76950528     19.00359448      2.56174582
 C    -11.50552480     18.46509609      1.32082086
 C    -11.69273365     19.50703201      0.20237445
 C    -12.28751034     18.93177193     -1.09643906
 C    -13.14713351     19.93379349     -1.88928253
 C    -13.34501028     19.55587467     -3.36901972
 C    -14.43303705     20.37737414     -4.08521549
 C    -14.57359801     20.05778656     -5.58511762
 C    -15.34599342     21.12461608     -6.38316531
 C    -15.09031923     21.07842449     -7.90109056
 C    -15.51526534     22.35692203     -8.64705628
 C    -15.64469558     22.17906313    -10.17126559
 C    -15.48015621     23.48510571    -10.97050246
 C    -15.82920022     23.35332610    -12.46462509
 C    -15.66790030     24.66019106    -13.26317772
 C    -16.03604356     24.53331398    -14.75313501
 C    -15.91369236     25.84972494    -15.54287696
 C    -16.48776362     25.77958986    -16.97015524
 C    -16.28904332     27.06845641    -17.78926039
 C    -16.56697297     26.90286449    -19.29489462
 C    -16.12330067     28.10460318    -20.14963377
 C    -16.13732298     27.83419929    -21.66564337
 C    -15.62784441     29.01218166    -22.51675389
 C    -15.93030302     28.87535267    -24.02054796
 C    -15.07497932     29.78967528    -24.91722824
 C    -15.24291182     29.52338801    -26.42470619
 C    -14.24229046     30.28799102    -27.31112547
 C    -14.51752552     30.15949828    -28.82087223
 C    -13.44492743     30.81424469    -29.71106349
 C    -13.82220466     30.87740531    -31.20279826
 C    -12.61728514     31.04504073    -32.14707964
 C    -12.95814741     30.85660259    -33.63701386
 C    -11.72566385     30.69205356    -34.54558850
 C    -12.06726500     30.47808888    -36.03190199
 C    -10.85431497     30.11079585    -36.90680087
 C    -11.22767434     29.55451023    -38.29343316
 C    -11.95934623     28.20016193    -38.24874618
 C    -11.70913325     27.31206738    -39.48174316
 C    -11.84087185     25.80307378    -39.20392442
 C    -11.66666797     24.91872872    -40.45259845
 C    -12.17439917     23.47583924    -40.27405160
 C    -11.82121516     22.53830270    -41.44361832
 C    -12.19110822     21.06369693    -41.19802322
 C    -12.23564386     20.20763800    -42.47739012
 C    -12.94181581     18.85078317    -42.29887925
 C    -12.03654409     17.74394788    -41.72704120
 C    -12.78719904     16.45316114    -41.35022993
 C    -11.92884520     15.43085535    -40.58229794
 C    -12.71070690     14.19678265    -40.09510512
 C    -11.97838067     13.37692505    -39.01661923
 C    -12.62815589     12.01307665    -38.71777194
 C    -11.94073911     11.22619062    -37.58645919
 C    -12.51755407      9.81566637    -37.36441000
 C    -11.72566872      8.96733124    -36.35206367
 C    -12.40932809      7.63924959    -35.97735183
 C    -11.60004244      6.77389728    -34.99357232
 C    -12.40467878      5.62083864    -34.36538754
 C    -11.65136175      4.86258791    -33.25670847
 C    -12.55681846      3.98832996    -32.36934090
 C    -11.87472760      3.48253498    -31.08461388
 C    -12.83008983      2.77678752    -30.10440802
 C    -12.11703190      2.04542132    -28.95190992
 C    -13.01690131      1.05964698    -28.18374068
 C    -12.42025284      0.57684533    -26.84863275
 C    -13.05178377     -0.72177537    -26.31351318
 C    -12.24171126     -1.39577353    -25.19052209
 C    -13.05363180     -2.39501682    -24.34559731
 C    -12.29236221     -2.94811215    -23.12651808
 C    -13.12997866     -3.88636057    -22.23787384
 C    -12.47862518     -4.21038698    -20.88054354
 C    -13.22887855     -5.27990549    -20.06516019
 C    -12.51587451     -5.68922068    -18.76297499
 C    -13.27870182     -6.73981713    -17.93475908
 C    -12.58900250     -7.11418398    -16.60970651
 C    -13.26458018     -8.27642534    -15.85844768
 C    -12.40614514     -8.87514719    -14.72874797
 C    -12.92369838    -10.22447531    -14.19672142
 C    -11.92422979    -10.96462446    -13.28851342
 C    -11.80061789    -10.36635041    -11.87486981
 C    -10.69821746    -11.01259497    -11.01540413
 C    -10.59512961    -10.43549008     -9.59135257
 C     -9.21347847     -9.84535394     -9.25315223
 C     -9.05809154     -9.41774903     -7.78189123
 C     -7.60172335     -9.15308003     -7.35698887
 C     -7.44877649     -8.70037441     -5.89299950
 C     -5.98750217     -8.51096432     -5.44533758
 C     -5.38311469     -7.15035197     -5.83910125
 C     -4.07897919     -6.80567328     -5.09611591
 C     -3.57816356     -5.37041261     -5.34271378
 C     -2.14450973     -5.11270617     -4.84288971
 C     -1.61545936     -3.70122572     -5.15821280
 C     -0.31929307     -3.33667120     -4.41078190
 C      0.38064653     -2.07507353     -4.94935026
 C      1.61627988     -1.64846059     -4.13521782
 C      2.48563772     -0.58283554     -4.82822589
 C      3.67037588     -0.09027505     -3.97653366
 C      4.46791821      1.06004777     -4.61862684
 C      5.55003039      1.66011307     -3.70180905
 C      6.30918074      2.84741044     -4.32278869
 C      6.88072035      3.83522393     -3.28878338
 C      7.73498754      4.95997760     -3.90258852
 C      8.56372933      5.75013437     -2.87281216
 C      9.55473638      6.74843339     -3.49963279
 C     10.31625522      7.60471939     -2.47081631
 C     11.48357328      8.41171527     -3.06891846
 C     12.28018740      9.22397154     -2.03101398
 C     13.56509602      9.86398027     -2.58868653
 C     14.17854641     10.93850844     -1.67180712
 C     15.44917380     11.59656536     -2.24107604
 C     16.16355963     12.53756313     -1.25326225
 C     17.42205410     13.21242400     -1.82976419
 C     18.21660770     14.03862393     -0.80132933
 C     19.30402292     14.93442697     -1.42315331
 C     20.10932251     15.74849532     -0.39340321
 C     20.76445104     17.01663944     -0.97151833
 C     21.30294625     17.98618598      0.09693963
 C     21.73951015     19.35354183     -0.46104777
 C     22.61133578     20.17545051      0.50641603
 C     22.42218943     21.69855112      0.37997165
 C     23.17928371     22.51426228      1.44440745
 C     22.94030341     24.03307585      1.35669344
 C     23.76400536     24.85600369      2.36461450
 C     23.23992792     26.28784265      2.58090138
 C     23.85511603     27.00281440      3.79825876
 C     23.17369392     28.33810645      4.15076273
 C     24.08043309     29.32191578      4.91335259
 C     23.45536314     30.71308077      5.12677127
 C     24.37910109     31.71052983      5.85023763
 C     23.86967118     33.16369620      5.83052273
 C     24.92596304     34.20346977      6.24851607
 C     24.42638148     35.65928491      6.19732495
 C     25.52505152     36.70786786      6.45227185
 C     24.99121631     38.07069545      6.93114650
 C     26.06015495     39.17792436      6.98604940
 C     25.53533184     40.53014297      7.50341342
 C     26.60087888     41.64122149      7.54481421
 C     26.30389361     42.75621363      8.56471238
 C     27.40125227     43.83308365      8.65277448
 C     26.97020652     45.10669148      9.40358914
 C     27.09578962     45.00378543     10.93500653
 C     26.88040822     46.33858375     11.67224754
 C     27.15502928     46.26948983     13.18598771
 C     26.61400076     47.47535126     13.97642200
 C     26.49500161     47.22854618     15.49185147
 C     25.04594768     47.07146886     15.98901282
 C     24.92478522     46.86171101     17.50984197
 C     23.47314670     46.77170784     18.01604851
 C     23.34655149     46.28780687     19.47255580
 C     21.89296848     46.13146625     19.95655378
 C     21.72427610     45.13976280     21.12260144
 C     20.35721973     45.22699175     21.82626897
 C     20.10952464     44.10775364     22.85464303
 C     18.64999666     44.01159139     23.33644267
 C     18.42334503     42.96483938     24.44303170
 C     16.93996321     42.65856974     24.72119943
 C     16.71458460     41.53240728     25.74714416
 C     15.23596721     41.14770683     25.94026634
 C     15.01814674     39.95264247     26.88682612
 C     13.64792984     39.95197834     27.58975230
 C     13.29390238     38.61683249     28.27067089
 C     11.94398129     38.63022236     29.01170650
 C     11.64054400     37.33294250     29.78409939
 C     10.45437484     37.44758615     30.75952726
 C     10.03630033     36.10965205     31.39729372
 C      8.82832246     36.21849798     32.34626264
 C      8.29622030     34.86072435     32.84115463
 C      7.90943969     33.88964907     31.71021982
 C      7.16363436     32.63159249     32.19257659
 C      7.82722472     31.93178967     33.39321136
 C      6.85437883     31.09991946     34.24946064
 C      7.52572817     30.36423018     35.42404624
 C      6.65588349     29.25804844     36.04961174
 C      7.45552726     28.04227708     36.55366515
 C      6.58052867     26.90590802     37.11459547
 C      7.37447702     25.80427052     37.84098436
 C      6.49296507     24.78336749     38.58414899
 C      7.20857674     23.45997661     38.91299014
 C      6.29479949     22.39430417     39.54619894
 C      5.05578986     22.04846082     38.69953046
 C      3.72818026     22.11116245     39.47742586
 C      2.49637349     21.70324896     38.64805340
 C      2.65484164     20.36109232     37.90974222
 C      1.39608120     19.91592071     37.14231509
 C      1.63918420     18.75506662     36.16001233
 C      0.46328680     18.48853663     35.20197942
 C      0.67088896     17.27399643     34.27818645
 C     -0.50801058     17.00323495     33.32504213
 C     -0.10525586     16.90898120     31.84163226
 C     -1.28545042     16.64727835     30.88756076
 C     -0.88634289     16.57809376     29.40178599
 C     -2.06931292     16.33561464     28.44607381
 C     -1.69302124     16.40171116     26.95421731
 C     -2.90415527     16.43448320     26.00359627
 C     -2.55040557     16.16643538     24.52893986
 C     -3.75343434     15.75160455     23.66162380
 H     -0.36333333      0.00000000      1.02766186
 H     -0.36333333     -0.88998127     -0.51383093
 H     -0.36333333      0.88998127     -0.51383093
 H      1.88274777      0.61242394     -0.83400293
 H      1.88274777      0.63396386      0.81774922
 H      1.62962592      2.04279810      0.65901916
 H      1.39222483      2.11729035     -0.33257659
 H      0.70794328      2.10946601     -1.45631236
 H      2.69170084      2.60859178     -1.74537214
 H      3.37999309      3.62372866     -0.97842308
 H      2.53063194      3.95615514     -0.26211358
 H      1.44835941      4.10802593      0.61072222
 H      0.63828412      4.87085696     -0.77857023
 H      2.54816135      6.34597374     -1.20295726
 H      3.16113584      6.01532685     -0.83358203
 H      4.24205313      5.16889160     -0.37741202
 H      3.86019332      6.45846481      1.16406506
 H      3.65358585      7.87361674      1.15335665
 H      4.52386979      7.85805406     -0.39926382
 H      6.32886923      6.69070876     -0.05657153
 H      6.10211716      6.84243594      1.70235684
 H      5.97159163      9.41979739      1.06026093
 H      7.45324675      8.52782760     -0.07595023
 H      8.52205492      7.78275214      0.42100572
 H      8.19248622      8.63191067      1.95024767
 H      9.21847965     10.07177599      2.02568911
 H      8.75255589     10.56581129      0.11745380
 H     10.65598364      9.40737523      0.63739938
 H     10.35665345      9.72462880      2.36309294
 H     10.04479281     11.81067267      2.61914074
 H     11.50683604     11.76550954      1.17246301
 H     12.70646806     11.00509741      1.14745428
 H     12.51451399     10.90126900      2.91398760
 H     12.16895710     13.25850346      3.21191385
 H     13.63786279     13.09439650      1.76586945
 H     14.81936082     12.29125659      1.92990244
 H     14.48857572     12.38184377      3.67651110
 H     14.23050181     14.81904431      3.59294496
 H     14.96547123     14.77177209      1.97249689
 H     16.87775754     13.63473251      2.37100183
 H     16.66295623     13.90618066      4.11698092
 H     16.39100061     16.24459330      4.00746646
 H     16.19965984     16.40924170      3.36623277
 H     15.45824742     16.60375153      2.14837057
 H     17.03155869     16.51393360      1.32078912
 H     17.98091119     18.18305419      2.89604200
 H     16.05426516     18.80701834      2.47506338
 H     15.50165182     18.96997531      1.19675725
 H     17.19190944     19.06891880      0.64766159
 H     18.13945576     20.51596482      2.00148203
 H     16.53524226     21.07364644      2.53417042
 H     16.35632318     21.29083634     -0.17837065
 H     18.09520654     22.10360327      0.55443062
 H     17.94458163     23.15171892      1.49763681
 H     16.28359929     23.28673580      0.87219716
 H     18.00130182     23.30807034     -1.34875551
 H     19.23323421     23.51651700     -0.08101767
 H     18.65300923     25.23214173      1.08436947
 H     17.52690550     25.73718241     -0.19824152
 H     19.46337791     25.56066784     -1.82949248
 H     20.52246248     25.46973647     -0.40178871
 H     20.34495660     26.82640195      0.96379368
 H     19.48834398     27.89941354     -0.16895856
 H     21.37374616     27.56064246     -1.81164756
 H     22.29537509     26.85911574     -0.46008289
 H     22.11734290     28.55476513      1.07105604
 H     21.57189431     29.64430375     -0.22650247
 H     23.45092934     29.16993173     -1.65865058
 H     24.25802397     28.42031218     -0.26046052
 H     24.16484782     29.96309048      1.31506342
 H     23.75967822     31.19051448      0.09132546
 H     25.20143697     31.06394032     -1.47469464
 H     26.28194335     30.11692837     -0.42400867
 H     25.70803723     32.04633120      1.32556528
 H     25.42831280     32.90760460      0.16575939
 H     27.39731697     30.78748287      1.44440157
 H     26.02803346     31.45336718      2.36631666
 H     26.63782360     33.68165277      2.37424089
 H     28.27456586     33.21129829      1.85644933
 H     28.53269032     31.61592001      3.67544048
 H     27.11129461     32.35989025      4.44641982
 H     27.91243892     34.58309800      4.39856802
 H     29.53625506     33.94868449      4.03939213
 H     30.17983941     32.51987510      5.27433709
 H     28.94891530     32.96607874      6.48015416
 H     29.02364404     35.14078075      6.66168868
 H     30.57197570     35.15093656      6.10053069
 H     28.39444755     33.84537524      8.02048456
 H     27.96819475     35.30962615      7.10258234
 H     29.51619963     36.77462808      7.95726762
 H     29.83005164     35.63553496      9.28851909
 H     27.57352846     35.38976379      9.96035078
 H     27.16893718     36.82183230      8.98374833
 H     28.38744708     38.42004141      9.42511476
 H     28.89416052     37.64579822     10.94565928
 H     26.25016642     37.49249293     11.25920365
 H     26.62918713     39.26205257     10.27676631
 H     27.52541587     40.29745197     10.63835768
 H     27.40914187     39.63001967     12.28434709
 H     25.18609213     39.44312367     12.56693258
 H     24.92603788     40.50311389     11.16085321
 H     26.34604754     42.25845349     11.95455871
 H     26.32215105     41.48648936     13.55823169
 H     23.64712800     41.69342010     12.91355050
 H     24.18977479     42.78134348     11.76076578
 H     24.33034962     42.03718319     14.86083073
 H     23.18334013     41.09468876     13.87882250
 H     21.96930524     43.24427606     13.35477528
 H     22.91607246     43.98495332     14.66751885
 H     22.24075139     42.32977628     16.29960870
 H     20.96828585     41.81575439     15.16608340
 H     20.29089638     44.32845802     15.18508365
 H     21.37048783     44.47192354     16.59297804
 H     20.11695764     42.63603238     17.73128065
 H     18.85865731     42.84283425     16.48943528
 H     18.51827768     45.14353854     16.77729924
 H     19.40523958     45.04847630     18.31760065
 H     18.43497919     43.43578939     19.43815387
 H     17.03989508     43.50174572     18.33467901
 H     16.59595678     45.77533814     18.46690536
 H     17.63890094     45.86849892     19.90629941
 H     16.06811914     43.92931009     20.75379092
 H     15.02793376     44.37265987     19.37911932
 H     15.39021595     46.70946139     20.86769678
 H     16.05747706     45.56396766     22.05549870
 H     14.86789215     44.04293167     22.53617707
 H     13.45397281     44.90192919     21.87950208
 H     15.12077726     46.59894413     23.59718666
 H     15.33049346     45.63703695     24.16158009
 H     13.43698800     47.48398258     22.71550862
 H     15.14791854     47.73868016     23.13516624
 H     16.12730154     47.72951074     24.33047586
 H     14.74863222     48.09954459     25.39377851
 H     14.19703596     49.99123098     23.75412718
 H     15.81816540     49.71776884     23.07190692
 H     16.75447822     50.03579552     25.40504160
 H     15.15559628     50.68004596     25.84864567
 H     14.37782439     52.07193353     24.78140437
 H     15.96522087     52.46222064     24.07705001
 H     17.10321726     52.64879833     26.16283630
 H     15.51821631     52.70332095     26.97096126
 H     14.94108113     54.62826365     25.38874664
 H     16.67708812     54.67997208     24.99903823
 H     17.79890178     54.83037566     26.76477583
 H     16.34728045     55.32378583     27.66899294
 H     15.36060341     56.87343943     26.71274688
 H     16.80355491     57.21612503     25.72850899
 H     18.19570853     57.32648810     27.78904473
 H     16.67536009     57.39739765     28.71196355
 H     15.53594171     59.03973329     27.83185245
 H     17.00655712     59.63617759     27.02574379
 H     18.52100562     59.78765442     28.57669575
 H     16.88604495     60.17063671     29.69461857
 H     15.73061584     60.99192988     29.52922914
 H     16.72893558     61.93982794     28.40090578
 H     18.58993067     62.35728309     29.31172421
 H     17.92389692     61.93551669     30.90758725
 H     16.02518664     63.33374750     30.79028258
 H     16.77392672     64.17005911     29.40889274
 H     18.80347507     64.47966443     30.99258535
 H     17.70134663     63.97259596     32.29506803
 H     16.08918693     65.74791039     31.66628765
 H     17.38494201     66.46388375     30.67802271
 H     19.06968961     66.65452156     32.14365722
 H     17.92441538     66.40601466     33.48338030
 H     16.50391100     68.26015974     32.55401190
 H     17.89345523     68.68276851     31.52501465
 H     19.54622170     68.89778218     33.04867404
 H     18.32865429     68.96323242     34.34540551
 H     16.93103667     70.55513805     33.65355869
 H     18.14263492     71.09961992     32.46872291
 H     19.93561708     71.33030692     33.97612433
 H     18.77124217     71.23664895     35.31915297
 H     17.44622820     73.08569208     34.28489352
 H     18.84928650     73.38404677     33.23100617
 H     20.42449255     73.60078213     35.01056904
 H     19.05728215     73.74919431     36.14060276
 H     17.78609109     75.31930142     35.34744328
 H     19.10672567     75.86420163     34.28571133
 H     20.85612232     76.13260285     35.42881064
 H     19.89853189     76.13226367     36.92923962
 H     18.30579014     77.61733620     36.55569450
 H     19.22135305     78.25155779     35.16725141
 H     21.25422395     78.56961064     36.41099851
 H     20.30989388     78.36500764     37.90587141
 H     18.65553613     79.70678112     37.83363234
 H     19.43619976     80.62304828     36.52241708
 H     21.45710052     81.05548484     37.25769648
 H     20.94829685     80.64145599     38.91237639
 H     19.03367000     82.31805191     38.55582544
 H     19.93436497     82.86178001     37.12007651
 H     21.97376547     83.30576148     38.16096621
 H     21.15047771     83.23547231     39.73752047
 H     19.49077258     84.42951517     39.80750208
 H     20.03973445     85.32149464     38.36830780
 H     22.14773235     85.87037135     38.91921511
 H     21.79818171     85.47650164     40.61949382
 H     19.84278815     86.89409592     40.71635455
 H     20.37905933     87.64145131     39.19249767
 H     22.59104513     88.15368448     40.09580337
 H     21.93756062     87.80629617     41.71461343
 H     20.09612825     89.27361973     41.59432699
 H     21.66931964     90.28519511     40.71036706
 H     22.93942581     90.48279837     41.14736227
 H     22.22560000     90.16389550     42.74643085
 H     20.47918866     91.32786900     42.97024804
 H     20.96944283     92.35931136     41.60494802
 H     22.81789648     93.05943111     41.66505162
 H     22.92918051     92.70260768     43.40532734
 H     20.61922951     94.15065190     43.24242651
 H     21.19460346     94.50616815     41.59596980
 H     23.30267751     95.34905271     43.04791885
 H     22.18964439     95.18340476     44.42704346
 H     20.46377068     96.52450945     43.64349483
 H     21.56809629     97.17910178     42.41051451
 H     23.25642767     97.78088649     44.05738719
 H     22.02388481     97.53604105     45.31800429
 H     20.30187343     98.60764961     44.89958476
 H     21.18403565     99.61140517     43.72377387
 H     22.93456282    100.36227921     44.59041658
 H     22.32112113     99.97452689     46.21571781
 H     20.21596612    101.29060121     45.52705639
 H     21.17982751    101.87678264     44.15023787
 H     22.97937825    102.71034454     45.48397223
 H     21.92597803    102.56456811     46.91133479
 H     20.16035572    103.89776133     45.83343807
 H     21.36716707    104.37860560     44.61661359
 H     23.04110101    105.05216844     45.09174922
 H     22.45343988    105.44159508     46.72615062
 H     20.59090698    106.55737268     46.40670285
 H     21.03156612    106.81266218     44.70114914
 H     23.25310702    107.72975679     45.51448746
 H     22.51660291    107.79322268     47.13368493
 H     20.72861416    108.80551314     47.12792265
 H     21.11564212    109.53119278     45.54935840
 H     23.14158204    110.38036665     45.83647845
 H     22.95402761    110.23088551     47.60020898
 H     21.02261223    111.22697582     48.01972202
 H     21.06054622    111.98008073     46.40737570
 H     22.88849671    112.93058674     46.08894236
 H     23.23993102    112.88694611     47.83332078
 H     21.59672934    113.65844431     48.89900118
 H     20.95005244    114.38950171     47.41050169
 H     22.15699590    115.45195509     46.32031682
 H     23.28946929    115.62129782     47.68306908
 H     22.64892398    116.14258059     49.39684158
 H     21.14755006    116.77340337     48.67836705
 H     22.85173049    118.05044888     47.11439108
 H     24.08222952    117.54081412     48.29524298
 H     22.72887646    118.61422987     50.11590398
 H     21.79769343    119.41346074     48.82656506
 H     23.92034405    120.31189186     47.86330213
 H     24.70963346    119.83995982     49.38729984
 H     23.62908084    120.66728190     51.00576939
 H     22.80140663    121.79167936     49.90170761
 H     23.83703347    122.81814191     48.65758691
 H     25.31807043    122.52541441     49.60051150
 H     24.92259139    122.99261215     51.63542990
 H     23.45668194    123.88475566     51.16271846
 H     24.62358342    125.23934877     49.52821155
 H     25.84495031    124.67814641     49.67465985
 H     26.99442427    123.93684865     50.08359204
 H     26.91593053    124.89503168     51.58158759
 H     26.71449490    126.96584262     50.96377321
 H     27.22742426    126.53300571     49.31519130
 H     28.95905887    125.44144945     49.29747845
 H     29.31886871    125.93655117     50.96890832
 H     29.04635843    128.27782561     50.56100582
 H     29.10575635    127.93152529     48.81606610
 H     30.88558415    126.54922370     48.62790176
 H     31.52911345    127.19347136     49.78754811
 H     29.84566226    127.56970845     47.14190936
 H     30.51221820    125.98766452     47.61212935
 H     32.79376429    126.65213196     47.52626960
 H     32.28975697    128.11266500     46.64247861
 H     31.07775759    126.93594966     44.95167007
 H     31.87289352    125.43774907     45.49150384
 H     34.05132142    126.89112762     45.09190069
 H     32.95651987    128.02009192     44.25816462
 H     32.07547747    126.39410154     42.74563193
 H     33.41474910    125.31384014     43.20132202
 H     34.75007390    127.55821860     42.46138386
 H     33.16977071    128.05312285     41.80871376
 H     32.32023458    126.73475688     40.56899825
 H     33.87751582    125.90445012     40.33719558
 H     35.38333035    127.23181391     39.86293761
 H     34.18493707    128.47941313     39.44387152
 H     32.90483857    127.15079798     37.97317450
 H     34.23661608    125.97028871     37.94103182
 H     35.12940893    128.63188134     37.25966892
 H     33.36732485    128.87795817     37.20701369
 H     33.53577815    126.90668287     35.43644456
 H     35.28588905    127.22803344     35.48240451
 H     34.88093762    129.61472067     34.91824375
 H     33.21977175    129.14512359     34.48433916
 H     34.29000569    127.40922134     32.92922306
 H     35.81668830    128.28643915     33.18998306
 H     34.81256889    130.41317767     32.48491996
 H     33.44773483    129.47263393     31.83617337
 H     34.96722368    128.06644686     30.50001550
 H     36.24249002    129.26510957     30.82431495
 H     34.91212849    131.12024199     30.00690153
 H     33.80470686    129.92960712     29.28283482
 H     36.29521424    129.25687483     28.28578599
 H     36.75111324    130.83464448     28.97212824
 H     36.04689115    132.38137875     28.81464438
 H     35.24953646    131.87168880     27.30709395
 H     37.05673051    130.97461970     26.20021759
 H     38.13998187    131.77392081     27.36467063
 H     37.33293801    133.93358359     27.19146510
 H     36.47860606    133.46915174     25.70059736
 H     38.43758652    132.56515456     24.63696091
 H     39.42135886    133.37358859     25.88070247
 H     38.87595792    135.41776348     25.96144272
 H     38.06811484    135.28271158     24.38112084
 H     39.48437913    134.37480805     23.03135655
 H     40.80943488    134.72862433     24.16595250
 H     40.95099775    136.53754626     24.86210878
 H     39.91590447    137.15618990     23.55286144
 H     41.67243768    135.83969721     22.06225283
 H     42.07189804    135.30056382     22.69882198
 H     42.34095910    134.31649050     23.61511271
 H     43.36078056    135.56116190     24.37604895
 H     44.09558508    135.52608999     21.68975750
 H     43.12625661    134.03322320     21.68554538
 H     43.86465897    132.74164395     23.19758567
 H     45.36693438    133.69098493     23.29851617
 H     45.61728026    133.44344143     20.80143181
 H     44.35697435    132.19011212     20.89662278
 H     45.87381158    131.26187516     22.87410213
 H     46.94935734    131.81731040     22.23403542
 H     44.27114347    130.26653341     22.21240624
 H     45.15654354    130.79038445     23.66496036
 H     46.97876231    130.03915096     23.88174230
 H     46.61956135    128.74928688     22.70892861
 H     45.11800079    127.72119954     22.72635731
 H     44.82387354    128.13419759     24.43257782
 H     46.81533982    127.71427593     25.38077828
 H     47.30284289    126.79797560     23.93474884
 H     45.56418994    125.35995698     23.71219778
 H     45.04794948    125.74657323     25.37120059
 H     47.24449603    125.26631065     26.30378534
 H     47.65761715    124.47879111     24.76189994
 H     45.78668136    123.01622473     24.72295741
 H     45.50772201    123.39664657     26.43926961
 H     47.86870541    122.77434759     26.95661215
 H     47.93791300    122.03584719     25.33855958
 H     46.11120521    120.65514517     25.45005417
 H     46.07741622    120.87343381     27.21625774
 H     48.26970960    120.32364733     27.69677617
 H     48.42415914    119.61704076     26.07039394
 H     47.05496193    118.34343665     25.51011726
 H     46.54695009    118.09886658     27.19842295
 H     48.87208602    117.64883303     27.89256448
 H     49.27584771    117.48417652     26.16683814
 H     47.67686410    115.90235985     25.58703412
 H     47.41111916    115.57654694     27.31662720
 H     49.04133337    115.21082068     28.38515317
 H     49.97312006    114.87724013     26.90570589
 H     48.58338609    113.36582093     25.88771950
 H     47.70897521    113.16257771     27.42471803
 H     49.74268986    112.67880111     28.66908499
 H     50.56971410    112.45462335     27.10894336
 H     49.39528459    111.03847117     25.98018552
 H     48.53676066    110.55293671     27.46189387
 H     50.40314856    110.11305944     28.79118381
 H     51.41233989    110.12304362     27.32499834
 H     50.10372491    108.53728208     26.12596160
 H     49.29262807    108.11777564     27.65383690
 H     50.23604076    107.71606069     29.20633534
 H     51.70930116    107.39072487     28.26191643
 H     50.99862431    105.99028472     26.67854411
 H     49.51029431    105.69789078     27.61001942
 H     49.98026970    105.19051836     29.58215547
 H     51.66258823    104.84472867     29.11471506
 H     50.49466271    103.32517257     27.30706337
 H     49.01596405    103.57841925     28.26496893
 H     49.89385909    102.84000547     30.32748591
 H     51.26722355    102.13011680     29.44533240
 H     49.89051201    100.86946304     27.93160381
 H     49.11891292    100.64247211     29.83447860
 H     49.80515305    100.27226213     30.93617477
 H     50.95587546     99.62046758     29.74484422
 H     49.13548758     98.46073364     28.54362783
 H     48.06605458     98.86348513     29.66684309
 H     47.56561767     99.17454788     30.98872794
 H     48.63933282     97.88063049     31.57283431
 H     48.13089826     96.18837467     30.16883522
 H     46.66228651     97.05948100     29.66622212
 H     46.30289893     97.07198669     32.31959453
 H     47.62654843     95.88201084     32.33286678
 H     47.02624259     94.30103770     30.96904870
 H     45.34863968     94.89480021     31.00594339
 H     44.63265347     95.16927730     32.88377640
 H     45.93692084     94.16294498     33.55790439
 H     46.09356400     92.36058778     32.56218134
 H     44.47263704     92.57993054     31.86021896
 H     43.24131778     93.03778512     33.70402346
 H     44.57016048     92.43952962     34.72604797
 H     45.06085396     90.46032931     33.94317275
 H     43.52199015     90.42564478     33.04932610
 H     42.05917435     90.92754686     34.73594590
 H     43.33831320     90.58178156     35.92443941
 H     44.25552709     88.81598005     35.67288379
 H     42.92593775     88.23946805     34.63939806
 H     41.15185357     88.90473562     36.08468051
 H     42.20778457     88.91799247     37.33929823
 H     41.14720996     87.30522831     34.80193818
 H     40.28149239     88.78874227     35.26882801
 H     39.63903890     88.03625915     37.42550282
 H     40.07351546     86.38227727     36.93170051
 H     39.14082391     85.88671113     35.13556220
 H     37.68291352     86.88640180     36.20986837
 H     37.36813639     86.57483548     37.57406008
 H     38.14945450     85.00598078     37.26340978
 H     37.12432389     84.39359230     35.32480394
 H     35.88543593     85.64099721     35.60302018
 H     35.33322258     84.93289955     37.80933355
 H     36.20560058     83.41421534     37.49180943
 H     35.36184645     82.64057636     35.62917716
 H     33.97676709     83.74683958     35.79043319
 H     33.51728666     82.97367849     38.07485739
 H     34.60840585     81.60412741     37.75539626
 H     33.52110094     80.87725886     35.77395844
 H     32.13562951     81.90736293     36.20711105
 H     31.58223346     81.40060536     38.22617843
 H     32.53263587     79.89920810     38.12221610
 H     32.01166842     78.83993909     36.39242043
 H     30.52485243     79.80407758     36.22484397
 H     29.63938933     79.57819695     38.31501292
 H     30.75520484     78.22636474     38.62448359
 H     29.71055740     77.31149543     36.37797851
 H     28.49216724     78.58969157     36.60160033
 H     28.00733125     77.66510470     38.88858981
 H     28.92810325     76.22285133     38.39833394
 H     27.96637397     75.60151328     36.49951971
 H     26.37950992     76.47020193     37.33053295
 H     25.73387433     76.52731519     38.58338656
 H     26.48090614     74.93841841     38.87599070
 H     25.76674597     73.98519352     36.79959009
 H     24.64294719     75.35304392     36.61431132
 H     23.46559559     75.73858639     38.14299277
 H     23.76407214     74.12005818     38.82089014
 H     23.40548882     72.71756451     37.19815614
 H     22.56117142     73.98587368     36.27794603
 H     21.40152907     73.81393559     38.85934747
 H     21.98141443     71.93585957     38.24516356
 H     21.71727677     71.20497971     37.11289083
 H     20.28594333     72.25588325     36.98979327
 H     19.32084198     72.29766913     38.88432784
 H     20.23020725     70.85610616     39.39737527
 H     20.00809672     69.36450248     37.88821020
 H     18.62881212     70.25031022     37.19453498
 H     17.42828149     70.44039324     39.24809049
 H     18.51128307     69.20965411     39.94138367
 H     18.52171394     67.52307748     38.64269405
 H     17.04925985     68.11488500     37.83652442
 H     16.46422069     68.07209058     40.56384808
 H     17.98566109     67.15096234     40.63461919
 H     17.06109976     65.51258192     38.99204439
 H     15.46554200     66.24110526     39.29489066
 H     15.20924483     66.18239831     41.46750337
 H     16.54267972     65.01061762     41.59845398
 H     16.45023707     63.44215037     40.40722085
 H     14.71692089     63.72531662     40.11791382
 H     13.70818904     63.97538944     41.92634831
 H     15.07896445     63.26721230     42.81388794
 H     15.44867269     61.35435694     41.71850977
 H     13.85761975     61.50132449     40.93415160
 H     13.00258357     61.75390415     43.39952668
 H     14.62450843     61.19094795     43.86932102
 H     14.60825937     59.20323895     42.60025233
 H     12.85055769     59.39363997     42.39409961
 H     12.67405627     59.57043739     44.91970270
 H     14.34910798     58.97093623     44.97508130
 H     14.05985169     57.04101298     43.70804766
 H     12.29879904     57.21029808     43.90375866
 H     11.94911935     57.41983947     46.03759095
 H     13.59059326     56.81930594     46.37402749
 H     13.65893778     54.91270889     45.19030136
 H     11.88667723     54.95634544     45.03075493
 H     11.71344467     55.18627417     47.52868624
 H     13.43097834     54.72393488     47.59641458
 H     13.21142537     52.71902823     46.35702616
 H     11.44881503     52.81934501     46.58375951
 H     11.22893361     53.05055055     48.78862446
 H     12.91550034     52.52590607     49.00886857
 H     12.68458724     50.51866942     47.72963918
 H     10.91857230     50.72304559     47.81732189
 H     10.64720315     50.94302871     50.07994239
 H     12.29664454     50.31870623     50.32042361
 H     11.86120722     48.33016305     48.97174985
 H     10.12728138     48.71812601     49.07782815
 H      9.69568148     48.95847810     51.19436264
 H     11.22948351     48.15494382     51.60673464
 H     11.37773139     46.33598117     50.56789591
 H      9.63338191     46.37216247     50.21547220
 H      8.50703480     46.70976250     51.89328174
 H      9.88562129     46.28435299     52.93577524
 H     10.58166172     44.34134988     52.16091697
 H     10.20457085     44.22795691     51.36685524
 H      9.82909378     44.30649581     50.02238585
 H      8.21121627     43.85586149     50.61201941
 H      7.76536970     42.61687967     51.76026021
 H      9.30916712     41.77750594     51.47669729
 H      9.72443504     41.52739687     49.49769076
 H      8.02659330     41.85164865     49.07288392
 H      6.98576041     40.37228529     50.49672053
 H      8.54755965     39.56016834     50.76037914
 H      8.90573730     39.28460518     48.34649994
 H      6.88526677     38.97157662     48.64287636
 H      6.27932555     38.12047290     49.57634480
 H      7.84826343     37.28004163     49.59573228
 H      8.35135253     36.97152628     47.48227514
 H      6.34092800     36.51178613     47.65186406
 H      5.83827273     35.63643672     48.63872635
 H      7.51055925     35.03716101     48.75094538
 H      8.18267471     34.65388543     46.74437198
 H      6.50238153     34.70279468     46.15914604
 H      5.52138924     33.22537153     47.60265048
 H      7.13533129     32.64325617     48.07656970
 H      7.24216248     32.38329380     45.38074701
 H      5.48714171     32.66550876     45.47306984
 H      4.46046612     31.52774800     46.68756990
 H      5.78665484     30.34207917     46.74822941
 H      6.42033103     29.85411470     44.82457095
 H      4.92732099     30.53603432     44.13596851
 H      3.26451444     29.72459249     45.15789833
 H      4.28399923     28.42563902     45.82245632
 H      5.05353342     27.91380293     43.47647779
 H      3.71149218     28.93987975     42.91580111
 H      1.99783785     28.82084173     43.44230204
 H      2.26379447     27.15475140     44.00946759
 H      3.25977542     26.23444943     42.17988513
 H      2.72410421     27.62538388     41.20693889
 H      0.37042463     27.17402649     42.04950145
 H      0.98856682     25.60618767     42.62225650
 H      1.87190343     24.95999162     40.48035623
 H      0.92352413     26.27773728     39.75070579
 H     -1.16149820     25.68106862     40.64505486
 H     -0.48454952     24.09192629     41.07474523
 H      0.37794072     23.44161353     39.06785019
 H     -0.56907502     24.71698132     38.26481541
 H     -2.62700804     23.77928555     39.41212177
 H     -1.63452772     22.35387847     39.80130569
 H     -0.97619559     21.94839671     37.52783087
 H     -2.98630248     22.43829363     37.48640686
 H     -3.96325271     21.83459161     38.27945900
 H     -2.78472907     20.51054323     38.44146077
 H     -2.35749741     20.33227475     36.08853042
 H     -3.80750764     21.32382845     35.80120089
 H     -5.02567832     19.56422946     37.26035185
 H     -3.56161411     18.57168872     37.06123999
 H     -3.55711008     18.64773762     34.67783387
 H     -5.22807863     19.25788553     34.73988465
 H     -4.84578821     16.77215530     36.20454514
 H     -3.29911898     16.87172501     35.32923558
 H     -3.72011212     17.04446347     33.24964853
 H     -5.39164077     16.49899947     33.52664614
 H     -5.12607235     14.62079320     34.69853336
 H     -3.40809674     14.57835283     34.23482515
 H     -3.27598946     14.77522196     32.12360609
 H     -4.07652410     15.04423728     31.82748250
 H     -5.13695142     15.82314606     31.51477922
 H     -6.03084776     14.28672547     31.60766494
 H     -4.86316441     12.87554988     30.40240185
 H     -3.97538882     14.23158632     29.66668019
 H     -5.63955869     15.56668428     28.96058164
 H     -6.79159614     14.22487905     29.16216318
 H     -5.84265044     12.55835264     28.03126049
 H     -4.75410592     13.72098801     27.23651745
 H     -6.47666623     15.18115536     26.48381834
 H     -7.65887361     13.90047637     26.84508512
 H     -7.59373199     13.19744526     24.89403961
 H     -5.64405556     13.39298342     24.80532548
 H     -6.71955523     14.92638499     24.01605043
 H     -8.21743058     13.97191097     24.13273562
 H     -7.04945621     12.10123664     22.91202690
 H     -5.78316157     13.28496089     22.50759959
 H     -7.09934188     14.92624647     21.55661834
 H     -8.43546831     13.75584309     21.44177599
 H     -6.44538196     12.41261952     20.18884976
 H     -5.61527152     13.98677867     20.22358193
 H     -6.38421309     15.54962655     19.61162145
 H     -7.57597786     14.62609314     18.66555094
 H     -6.80405321     13.16911264     17.53321288
 H     -5.18043168     13.88661818     17.66476357
 H     -5.31229021     15.94817090     17.17343421
 H     -6.90738296     15.68561983     16.42844246
 H     -7.03828939     14.20499204     15.13484541
 H     -5.26792462     14.16483941     14.95467051
 H     -5.52490336     16.72109928     14.50481043
 H     -7.26541826     16.38144983     14.35147153
 H     -7.24694954     14.73897031     12.77712775
 H     -5.56447385     15.16062961     12.37744579
 H     -6.86788169     17.55852171     12.15551468
 H     -8.32578677     16.54162965     12.24884200
 H     -7.87540417     15.09265791     10.50598124
 H     -6.60972469     16.20757984      9.93741181
 H     -7.23716019     18.11918872      9.74070077
 H     -8.93745802     17.59313459      9.76352689
 H     -8.81960135     15.95296507      8.12727138
 H     -7.24228550     16.60594319      7.62332601
 H     -8.29949749     18.87506797      7.40391033
 H     -9.87287892     18.04983477      7.51220487
 H    -10.00589621     16.51028923      6.13207652
 H     -8.62638498     17.17388340      5.22385948
 H     -9.15169204     19.29760879      4.91557910
 H    -10.84113952     18.94390877      5.35024008
 H    -11.40331393     17.24616624      4.07053981
 H     -9.98608651     17.55126449      3.03775320
 H     -9.78053461     19.44009453      2.42208652
 H    -11.47881159     19.78791295      2.82599780
 H    -12.41283995     17.96034999      1.65265000
 H    -10.85402486     17.74917006      0.81972432
 H    -10.75473407     20.04798977      0.07738852
 H    -12.47481831     20.20178636      0.50857698
 H    -13.11502622     18.27334522     -0.83225780
 H    -11.51261568     18.35620896     -1.60276459
 H    -12.62294190     20.88909869     -1.91602477
 H    -14.09793019     20.05547547     -1.37036137
 H    -13.57397995     18.49157790     -3.42329017
 H    -12.41469625     19.75496318     -3.90097796
 H    -14.30789191     21.42483164     -3.81085901
 H    -15.40722580     20.02649073     -3.74472011
 H    -14.55015454     18.97504869     -5.70852382
 H    -13.72827250     20.50178070     -6.11084948
 H    -14.99009364     22.10767083     -6.07488186
 H    -16.40545914     21.03058651     -6.14485703
 H    -15.12508975     20.03762639     -8.22300719
 H    -14.09774205     21.48544762     -8.09402248
 H    -15.17611973     23.21826835     -8.07158885
 H    -16.60318758     22.36962908     -8.71311467
 H    -16.17225911     21.24486578    -10.36375463
 H    -14.64246461     22.12458841    -10.59631335
 H    -14.62843624     24.03060428    -10.56417204
 H    -16.38527837     24.07952303    -10.84591546
 H    -16.75453117     22.78383934    -12.55150122
 H    -15.02202663     22.81259365    -12.95877004
 H    -14.72708098     25.12657556    -12.97086878
 H    -16.49590114     25.32180423    -13.00865342
 H    -16.96526471     23.96870552    -14.82972055
 H    -15.23780016     23.98953656    -15.25832170
 H    -14.97857747     26.33328140    -15.26032911
 H    -16.75143763     26.49178796    -15.27077783
 H    -17.44827287     25.26599583    -16.92840433
 H    -15.79677421     25.20804964    -17.58981274
 H    -15.26717643     27.41641838    -17.63822891
 H    -16.98703825     27.82002154    -17.42040685
 H    -17.48574545     26.32833512    -19.41267890
 H    -15.73605483     26.35434730    -19.73852052
 H    -15.13231274     28.41411812    -19.81760451
 H    -16.83059677     28.91846085    -19.99004707
 H    -17.06200476     27.31239654    -21.91219055
 H    -15.14597360     28.05359583    -22.06211728
 H    -14.72525747     29.40693457    -22.05027028
 H    -16.39751643     29.78389471    -22.52955904
 H    -16.96043093     28.53748858    -24.13361591
 H    -15.25514078     28.12917751    -24.43944960
 H    -14.04265377     29.74103551    -24.57076305
 H    -15.44409636     30.81038255    -24.81718184
 H    -16.30588479     29.40668230    -26.63581814
 H    -14.72016284     28.59884567    -26.66976732
 H    -13.25367998     30.20878142    -26.85893617
 H    -14.54393978     31.33490208    -27.34406357
 H    -15.58736209     30.28673772    -28.98628035
 H    -14.21659749     29.16179001    -29.14043525
 H    -12.46381848     30.54547132    -29.31954580
 H    -13.57201669     31.89568533    -29.66172339
 H    -14.85839088     31.20658558    -31.28063440
 H    -13.72644631     29.87632641    -31.62324014
 H    -11.82924540     30.36623896    -31.82100979
 H    -12.26438621     32.07367835    -32.07314051
 H    -13.88359409     31.39270199    -33.84736091
 H    -13.10422214     29.79261861    -33.82329392
 H    -11.03298249     30.00315899    -34.06214583
 H    -11.25006456     31.66637657    -34.65783813
 H    -12.84805342     31.18618499    -36.30951563
 H    -12.43878069     29.46080132    -36.15519884
 H    -10.26480547     29.36161719    -36.37830311
 H    -10.25355356     31.00830219    -37.05400168
 H    -12.02124847     30.17522369    -38.70943184
 H    -12.25636577     29.19633078    -38.25341527
 H    -12.71737365     28.24574691    -37.46681495
 H    -11.23215192     27.42561097    -38.00510866
 H    -10.64442429     27.33954616    -39.71356149
 H    -12.27401747     27.72137995    -40.31928064
 H    -12.73329944     25.64256238    -38.59902023
 H    -10.96152634     25.47899248    -38.64730716
 H    -10.81048404     25.28780170    -41.01725251
 H    -12.56706404     25.00358851    -41.06102737
 H    -13.14167834     23.51240607    -39.77291903
 H    -11.46194100     22.93656655    -39.64980140
 H    -10.78085900     22.71099061    -41.71918672
 H    -12.46618519     22.78457166    -42.28710232
 H    -13.19080993     21.02862824    -40.76504900
 H    -11.47454557     20.64355165    -40.49224995
 H    -11.36071174     20.44813217    -43.08134072
 H    -13.13985833     20.46349617    -43.02968787
 H    -13.85699541     19.01298895    -41.72946236
 H    -12.75332212     18.49702510    -41.28525932
 H    -11.46283990     18.16329913    -40.90053770
 H    -11.35572009     17.41770866    -42.51326423
 H    -13.48401001     16.21487771    -42.15383150
 H    -13.34236858     16.63569333    -40.43013821
 H    -11.36146520     15.96397407    -39.81943205
 H    -11.24068019     14.96333371    -41.28653685
 H    -13.35354927     13.85594387    -40.90669776
 H    -12.72524305     14.20852896    -39.00526535
 H    -11.55822377     14.06874533    -38.28658302
 H    -11.17258135     12.82154628    -39.49655868
 H    -12.88797123     11.54210795    -39.66581438
 H    -13.53443755     12.18507352    -38.13710799
 H    -11.73525455     11.91408229    -36.76628777
 H    -11.00177558     10.82590953    -37.96884975
 H    -12.65676816      9.34516390    -38.33772745
 H    -12.52390230      9.61263828    -36.29350417
 H    -11.49019787      9.59262870    -35.49086882
 H    -10.80087338      8.64079901    -36.82770039
 H    -12.78177631      7.17578175    -36.89090527
 H    -13.24608335      7.85957453    -35.31448113
 H    -11.21490031      7.42049454    -34.20510703
 H    -10.76705321      6.32648193    -35.53583467
 H    -12.98454875      5.13889245    -35.15252075
 H    -13.08117483      6.04070918    -33.62096708
 H    -11.16685763      5.59384559    -32.60970155
 H    -10.89419650      4.23379751    -33.72513500
 H    -13.24948399      3.44747697    -33.01416063
 H    -13.11743907      4.64272739    -31.70183170
 H    -11.32566003      4.31189444    -30.63875773
 H    -11.17786016      2.68953256    -31.35594934
 H    -13.46886199      2.10204501    -30.67431387
 H    -13.44434539      3.53499280    -29.61869735
 H    -11.33533485      2.69815697    -28.56334088
 H    -11.66658226      1.13604804    -29.34969800
 H    -13.59321446      0.48516401    -28.90895270
 H    -13.69560161      1.63464723    -27.55378781
 H    -12.00182772      1.43860735    -26.32864559
 H    -11.62585309     -0.13700971    -27.06644002
 H    -13.14896732     -1.42262829    -27.14264558
 H    -14.04033726     -0.48529032    -25.91989303
 H    -11.92215915     -0.62545041    -24.48867542
 H    -11.36577886     -1.86772468    -25.63561146
 H    -13.64980778     -3.00935965    -25.02032472
 H    -13.71497851     -1.83026376    -23.68850179
 H    -11.78346119     -2.11887425    -22.63510761
 H    -11.55488909     -3.66832048    -23.48082496
 H    -13.67844693     -4.57151980    -22.88427881
 H    -13.83523964     -3.28049845    -21.66898190
 H    -12.08252838     -3.28562839    -20.46098558
 H    -11.66145244     -4.91126472    -21.05112814
 H    -13.50277139     -6.09343213    -20.73691693
 H    -14.13190143     -4.82750246    -19.65530511
 H    -12.16331974     -4.78516448    -18.26649989
 H    -11.66360459     -6.31751692    -19.02177960
 H    -13.64338615     -7.51170006    -18.61247737
 H    -14.12494124     -6.24890515    -17.45415083
 H    -12.24770764     -6.19692800    -16.12985312
 H    -11.73069322     -7.74651934    -16.83676857
 H    -13.50225193     -9.05851611    -16.57952060
 H    -14.18535284     -7.90474595    -15.40885659
 H    -11.96405342     -8.05513256    -14.16285846
 H    -11.61461431     -9.47340060    -15.18004809
 H    -13.19883934    -10.84608055    -15.04878033
 H    -13.80568654    -10.03600929    -13.58461241
 H    -11.24763249    -10.22946154    -12.85279382
 H    -11.13578860    -11.38178037    -13.91496488
 H    -12.80299765    -10.14984804    -11.50546279
 H    -11.23067342     -9.43976648    -11.94346664
 H     -9.80551042    -11.12482659    -11.63069122
 H    -11.04487885    -11.99522947    -10.69547392
 H    -11.60275957    -10.33792011     -9.18729567
 H    -10.23215421     -9.41016668     -9.66249181
 H     -8.87988483     -9.24634612    -10.10050393
 H     -8.51813458    -10.66967568     -9.09475227
 H     -9.47564219    -10.20241353     -7.15097675
 H     -9.61815141     -8.49468763     -7.63225635
 H     -7.11701814     -8.56944616     -8.13963333
 H     -7.09527903    -10.11265179     -7.25289186
 H     -8.08308268     -9.33185612     -5.27091710
 H     -7.78139164     -7.66508744     -5.81784610
 H     -5.41236585     -8.14807351     -6.29717587
 H     -5.54027547     -9.49566151     -5.30947107
 H     -6.11621008     -6.37370496     -5.62117795
 H     -5.17565851     -7.16422357     -6.90908700
 H     -3.44495889     -7.69226226     -5.08727117
 H     -4.33067614     -6.52876122     -4.07236381
 H     -4.42988885     -4.69367956     -5.27418348
 H     -3.15585021     -5.32246636     -6.34643316
 H     -1.52150917     -5.95681919     -5.13859818
 H     -2.16817793     -5.04195537     -3.75544585
 H     -2.40131160     -2.98150865     -4.92898890
 H     -1.37797323     -3.65370173     -6.22096480
 H      0.35865882     -4.18847083     -4.46480619
 H     -0.56915654     -3.13668645     -3.36882493
 H     -0.37592777     -1.30855305     -5.11710505
 H      0.85939377     -2.32633504     -5.89580086
 H      2.20691380     -2.53821400     -3.91706546
 H      1.27413419     -1.20160828     -3.20175151
 H      1.82688854      0.17990405     -5.24340997
 H      3.03879873     -1.06352559     -5.63510258
 H      4.14701304     -0.95698302     -3.51856606
 H      3.28278639      0.56548138     -3.19688124
 H      3.76027936      1.78364958     -5.02328433
 H      5.07046190      0.64901844     -5.42862436
 H      6.08339201      0.84097773     -3.21947859
 H      5.05774533      2.26937760     -2.94381686
 H      5.58364955      3.50656631     -4.79946261
 H      6.99641536      2.45935123     -5.07459892
 H      7.34526820      3.26140032     -2.48689700
 H      6.05671392      4.42319459     -2.88455090
 H      7.21674607      5.34316952     -4.78161624
 H      8.69419938      4.53746801     -4.20175119
 H      9.02449241      5.03999232     -2.18615676
 H      7.88982492      6.40484110     -2.32026176
 H      9.04297825      7.28248348     -4.30025387
 H     10.39121316      6.18618206     -3.91469909
 H     10.64922112      6.95375989     -1.66243185
 H      9.63132676      8.35450215     -2.07483801
 H     11.14452604      8.86632013     -3.99976827
 H     12.30369820      7.72475474     -3.27767754
 H     12.45548528      8.59065159     -1.16137239
 H     11.68143022     10.08628156     -1.73773722
 H     13.33406116     10.30938002     -3.55633417
 H     14.31038744      9.07926688     -2.71855416
 H     14.16618200     10.56353792     -0.64840875
 H     13.56402563     11.83638595     -1.73723025
 H     15.27562291     11.82388061     -3.29288774
 H     16.27149415     10.88645611     -2.15370276
 H     16.20266237     12.04754520     -0.28040388
 H     15.58264563     13.45646515     -1.17415468
 H     17.19208391     13.56430551     -2.83544461
 H     18.21791712     12.46920484     -1.87800667
 H     18.29196363     13.45944120      0.11897978
 H     17.66948728     14.96098747     -0.60638128
 H     18.88180151     15.42893958     -2.29795978
 H     20.13594048     14.30062203     -1.73024364
 H     20.36557869     15.09177245      0.43794982
 H     19.48066831     16.56267545     -0.03284169
 H     20.03390267     17.52247853     -1.60280741
 H     21.62011608     16.71534508     -1.57580223
 H     21.83261885     17.40476965      0.85159319
 H     20.45537401     18.49342584      0.55783986
 H     20.97866964     19.69632849     -1.16227457
 H     22.68554374     19.22309290     -0.98650331
 H     23.35679326     19.51158334      0.94422137
 H     21.96990843     20.57108065      1.29391063
 H     21.35449829     21.90677073      0.31083240
 H     22.91700411     22.03078663     -0.53264985
 H     23.73496560     23.30444739      0.93950633
 H     22.65359735     22.41060686      2.39362260
 H     21.87425352     24.20423283      1.20721791
 H     23.49372103     24.41822227      0.50025245
 H     24.78430017     24.47248118      2.36761481
 H     23.32422844     24.72641077      3.35350374
 H     22.15555920     26.24422265      2.68259589
 H     23.49910235     26.88355442      1.70565507
 H     24.92949928     26.81897005      3.79688469
 H     23.41543255     26.58073481      4.70193307
 H     22.09419050     28.19566332      4.10093987
 H     23.47635790     29.08232006      3.41412129
 H     25.05885797     29.32899466      4.43300413
 H     24.18208610     28.96919453      5.93968313
 H     22.42147562     30.57914567      5.44495043
 H     23.47691283     31.24785164      4.17721572
 H     25.37604997     31.63078757      5.41683931
 H     24.41856997     31.43817671      6.90492526
 H     22.80388267     33.15639409      6.05886790
 H     24.02411367     33.56749201      4.82992467
 H     25.86464902     33.95698694      5.75231566
 H     25.05885474     34.14189696      7.32863115
 H     23.43173081     35.69614889      6.64163464
 H     25.10184631     36.23127838      5.56118760
 H     26.40928204     36.42345916      5.88187893
 H     25.76222512     36.70407598      7.51614886
 H     24.23179039     37.89296976      7.69258320
 H     24.53990274     38.58034211      6.07986726
 H     26.65566344     39.12491665      6.07464399
 H     26.69987381     38.99423966      7.84925258
 H     24.91025552     40.34375803      8.37670619
 H     24.93451765     40.98796053      6.71758559
 H     27.16899065     41.60609076      6.61523643
 H     27.26695439     41.44618604      8.38529299
 H     25.97644079     42.29163600      9.49478886
 H     25.50229209     43.37912761      8.16783308
 H     27.70277379     44.09883372      7.63958068
 H     28.25301960     43.41161111      9.18658465
 H     26.23437831     44.82751681     10.15772331
 H     26.30125233     45.67545790      8.75775244
 H     28.05409208     44.54058896     11.16996485
 H     26.28711154     44.37268196     11.30358240
 H     26.01280036     46.83444709     11.23695897
 H     27.76496991     46.95818989     11.52480656
 H     28.07954686     45.71346897     13.34157710
 H     26.32858837     45.74036818     13.66046185
 H     25.60592857     47.69235274     13.62315043
 H     27.25979905     48.33129071     13.78043163
 H     27.40265630     46.72863718     15.83001410
 H     25.91339743     46.31974055     15.64647649
 H     24.51446527     46.41962677     15.29566706
 H     24.57696851     48.05540311     15.99466333
 H     25.58931386     47.56814630     18.00728630
 H     25.23776382     45.84361808     17.74142606
 H     22.91342725     46.12645791     17.33894685
 H     23.04273298     47.77303739     18.00251500
 H     24.09299025     46.80814524     20.07270342
 H     23.54414182     45.21612368     19.49607578
 H     21.32284528     45.63167863     19.17343701
 H     21.48014726     47.12552242     20.12839957
 H     22.51470679     45.32750070     21.84928831
 H     21.82495659     44.12812976     20.72945766
 H     19.58235041     45.29443047     21.06263977
 H     20.34367785     46.12885801     22.43827703
 H     21.01337531     43.98427264     23.45122196
 H     19.90253550     43.18459067     22.31332462
 H     17.99619431     44.09735388     22.46852143
 H     18.45893098     44.84004948     24.01853585
 H     19.22505182     43.06104225     25.17522788
 H     18.46153468     41.97394073     23.99052601
 H     16.42757186     42.54878185     23.76542659
 H     16.77322942     42.71947517     25.79664835
 H     17.39628153     41.68888797     26.58314840
 H     16.94131045     40.58063884     25.26669414
 H     14.76818863     41.08049748     24.95804126
 H     14.75070710     41.93224711     26.52088598
 H     15.65645200     40.08638555     27.76019843
 H     15.30709846     39.04228936     26.36159845
 H     12.88422077     40.19865760     26.85219024
 H     13.66152182     40.71515677     28.36787436
 H     14.17328149     38.26265255     28.80858254
 H     13.02733515     37.89734335     27.49647628
 H     11.20769524     39.11927528     28.37388984
 H     12.06394307     39.20153249     29.93220305
 H     12.54254931     37.03250608     30.31722637
 H     11.36983437     36.56068711     29.06407307
 H      9.64433493     37.97314517     30.25383657
 H     10.77740786     38.02524612     31.62558651
 H     10.93777475     35.58163968     31.70817442
 H      8.97557813     35.95310654     31.20117659
 H      8.07403724     36.84519256     31.87043944
 H      9.16067029     36.68910785     33.27155787
 H      9.14743479     34.24172318     33.12465319
 H      8.85243411     34.07031281     32.33719453
 H      8.27368885     32.89620831     31.97194108
 H      6.97072072     34.22950658     31.27272289
 H      6.41038828     32.93702571     32.91882096
 H      7.02247582     32.70905013     33.27061860
 H      8.11783925     32.69381560     34.11637087
 H      8.71601875     31.41045966     33.03773956
 H      6.21392177     30.52549536     33.58016869
 H      6.24371027     31.78494940     34.83760848
 H      8.21475322     31.05391062     35.91157610
 H      7.50663343     29.29473782     35.21447169
 H      6.20299070     28.68105599     35.24334391
 H      5.87281580     29.73154816     36.64181357
 H      8.32997002     28.40676380     37.09273776
 H      7.77755794     27.46156034     35.68927848
 H      5.74142594     26.75255814     36.43600102
 H      6.20645200     27.21174450     38.09164751
 H      8.11215605     26.28194081     38.48577948
 H      7.88455299     25.19875715     37.09180076
 H      5.66471043     24.50665390     37.93182711
 H      6.10330763     25.25825453     39.48456522
 H      8.20092249     23.69357634     39.29871167
 H      7.30289404     22.88346563     37.99275140
 H      5.26981188     22.76442094     39.52352782
 H      6.09963951     22.68044040     40.57970687
 H      5.36984306     21.93810215     37.66160390
 H      4.32180390     22.84445258     38.82507623
 H      3.72838943     23.01727237     40.08328456
 H      3.67085330     21.23881316     40.12844072
 H      2.83895612     21.35827855     37.67248559
 H      2.26441242     22.51398341     37.95739885
 H      3.10108573     19.64240223     38.59709276
 H      3.32097414     20.51360006     37.06056092
 H      0.99726192     20.77843154     36.60835044
 H      0.66025374     19.56420935     37.86547280
 H      2.25616669     18.00758475     36.65871410
 H      1.44418735     19.11451411     35.14962937
 H      0.10583821     19.44612430     34.82335513
 H      0.17553316     17.44137678     35.29554270
 H      1.07400297     16.45510774     34.87402235
 H      0.46651542     17.58395828     33.25336690
 H     -0.82900955     17.95349441     32.89834947
 H     -0.27233307     16.12058127     32.73050147
 H      0.79484383     16.29853713     31.76897835
 H      0.10771651     17.91484559     31.47972121
 H     -2.11209723     17.29513011     31.17918236
 H     -1.58631140     15.60488315     30.99241740
 H      0.01652088     15.97329190     29.31721809
 H     -1.48665742     17.30262604     28.85153564
 H     -2.89387126     16.98003457     28.75091230
 H     -2.37219463     15.29219072     28.53341907
 H     -0.76458702     15.84913364     26.81010630
 H     -1.53927533     17.44681816     26.68549151
 H     -3.63549061     17.13639891     26.40429935
 H     -2.91563219     15.50706823     25.43099716
 H     -1.85997050     15.32390007     24.48977779
 H     -2.06312116     17.05450858     24.12647260
 H     -4.51073354     16.53496938     23.69224183
 H     -4.17546672     14.82303696     24.04600759
 H     -3.42559715     15.60319328     22.63274243
1502
Final Conformation Chain 10 (Simulation Frame 11)
 C      0.00000000      0.00000000      0.00000000
 C      1.54000000      0.00000000      0.00000000
 C      2.16637443      1.28922539     -0.56316336
 C      3.68776676      1.20133408     -0.78506537
 C      4.35676792      2.55627532     -1.08200251
 C      3.99241866      3.14680434     -2.45682071
 C      4.55903804      4.55751344     -2.70267090
 C      4.40270113      5.05134334     -4.15294356
 C      5.34425767      6.21200000     -4.52435627
 C      5.21456632      6.68072013     -5.98554812
 C      6.23003913      7.76644737     -6.38755723
 C      6.64582280      7.71728621     -7.86955154
 C      7.67899321      8.78822244     -8.26610482
 C      8.98511340      8.73022728     -7.45229488
 C      9.85996352      9.99102661     -7.58122244
 C     11.03075507     10.04586305     -6.58230297
 C     12.08993536     11.11261821     -6.91662398
 C     13.20864297     11.23554754     -5.86544290
 C     12.72105623     11.71220811     -4.48462652
 C     13.65553911     11.32650128     -3.32291571
 C     13.16658491     11.80082057     -1.94177669
 C     12.90828120     13.31654076     -1.85533889
 C     12.21562094     13.76067219     -0.55358276
 C     12.18855714     15.28659211     -0.34758287
 C     11.40675019     15.73636842      0.90064754
 C     11.45508228     17.25414564      1.15680437
 C     10.96450747     17.66910953      2.55635477
 C     10.97685112     19.18981912      2.79902738
 C     10.44213003     19.60788605      4.18137805
 C     10.74643383     21.07068422      4.55450099
 C      9.80283533     21.65394376      5.62269113
 C     10.20034924     23.05998290      6.10914423
 C      9.62711005     23.43049123      7.48962255
 C     10.25731713     24.69031479      8.11194373
 C      9.55021922     25.17838272      9.38998999
 C     10.03873821     26.55015928      9.89116686
 C      9.10520704     27.20844765     10.92401534
 C      9.36468607     26.76429203     12.37556501
 C      8.16022267     26.95944235     13.31513102
 C      8.13321357     25.98718424     14.50910952
 C      7.30268905     26.48744896     15.70558946
 C      7.05853344     25.42014948     16.78857601
 C      5.98490839     25.81005267     17.82148683
 C      4.59143182     26.05646779     17.21394865
 C      3.47793167     26.25227685     18.25959496
 C      2.07464300     26.43782932     17.65300517
 C      1.01168326     26.90491167     18.66471198
 C     -0.36784951     27.18418210     18.03981408
 C     -1.38410149     27.80419727     19.01675477
 C     -2.15153954     29.00894197     18.44122976
 C     -3.37156245     29.43306810     19.27983640
 C     -4.21764264     30.54705540     18.63580177
 C     -5.46024929     30.03464986     17.88415738
 C     -6.49321843     31.13032766     17.56156643
 C     -7.82272180     30.59220189     17.00081566
 C     -8.94186047     31.64712353     16.92163875
 C    -10.35252499     31.05243141     16.75440570
 C    -11.48076026     32.10037448     16.77677784
 C    -12.86421179     31.53948507     16.39853860
 C    -13.94007478     32.61975267     16.18141946
 C    -15.11218946     32.16646175     15.29132142
 C    -16.46690400     32.79128877     15.67334198
 C    -17.68647114     32.01832582     15.13781955
 C    -19.00056962     32.33148860     15.87719378
 C    -19.26143694     33.83546254     16.08118063
 C    -20.10627386     34.16135241     17.32683161
 C    -19.86003608     35.56940822     17.89984627
 C    -20.92176166     36.02595462     18.91764005
 C    -21.09801161     37.55381782     18.99618945
 C    -22.26393092     38.00442391     19.89573729
 C    -22.10204264     39.42580081     20.46589508
 C    -23.18792650     39.81956301     21.48442714
 C    -23.21029724     41.32074423     21.82728937
 C    -24.34582326     41.72773825     22.78464852
 C    -24.37778119     43.23154373     23.11502371
 C    -25.17213208     43.57634131     24.38849193
 C    -25.49706364     45.07425732     24.53771366
 C    -25.95379986     45.47827859     25.95184195
 C    -26.19494813     46.98946846     26.12433169
 C    -26.97322201     47.35785694     27.40111659
 C    -27.09391970     48.87350557     27.64574141
 C    -27.74966242     49.24078078     28.98988069
 C    -27.57588846     50.71807201     29.38864530
 C    -28.16014188     51.06684714     30.77016760
 C    -28.05771728     52.55952909     31.13487268
 C    -28.81832208     52.94459956     32.41737066
 C    -28.62943618     54.41320963     32.84058051
 C    -29.46441249     54.82380325     34.06770212
 C    -29.43425347     56.33372308     34.36908647
 C    -29.93760492     56.70155550     35.77725430
 C    -29.89658122     58.21038084     36.08280813
 C    -30.42880526     58.58132292     37.47949691
 C    -30.77179254     60.07370294     37.64308669
 C    -31.09749642     60.48654565     39.09052507
 C    -31.07181236     62.00777677     39.32884461
 C    -31.52286841     62.42842891     40.73994355
 C    -31.88543501     63.92007493     40.86297863
 C    -32.21267088     64.36873725     42.29936952
 C    -32.44073992     65.88473465     42.44543933
 C    -33.00715428     66.30387494     43.81478085
 C    -33.10582661     67.82801910     44.01188067
 C    -33.70958627     68.24680308     45.36528167
 C    -34.12415506     69.72832978     45.43464549
 C    -34.28307711     70.26783464     46.86826967
 C    -34.10703634     71.79315489     46.98662405
 C    -34.74751797     72.40159959     48.24804322
 C    -34.61518066     73.93306981     48.34124087
 C    -35.31829279     74.54921813     49.56500334
 C    -35.47010352     76.08012787     49.49522607
 C    -35.85423253     76.73323790     50.83593193
 C    -35.73941126     78.26894548     50.84021085
 C    -36.19551353     78.92750773     52.15545474
 C    -35.95050720     80.44680002     52.21309881
 C    -35.78753064     81.00127038     53.64054452
 C    -35.73740182     82.53872993     53.71338165
 C    -35.80226237     83.10039156     55.14583735
 C    -36.13673355     84.60202499     55.21530739
 C    -35.98320161     85.21360154     56.62029922
 C    -36.50252936     86.65888967     56.73449611
 C    -36.04787024     87.38873591     58.01207568
 C    -36.78911652     88.71286037     58.27446539
 C    -36.03081700     89.68246389     59.19991169
 C    -36.93740815     90.69463203     59.92462415
 C    -36.27063791     91.38089483     61.13129760
 C    -37.06330271     92.57824854     61.68773863
 C    -36.56906840     93.07351657     63.05961399
 C    -37.52731917     94.06070123     63.75158357
 C    -36.86185049     94.91786371     64.84429759
 C    -37.85863048     95.69099136     65.72764536
 C    -37.20759036     96.41441415     66.92113026
 C    -37.12974062     95.56376782     68.20251242
 C    -36.70486723     96.35405264     69.45412438
 C    -36.23368978     95.46951164     70.62338869
 C    -35.72309145     96.26128174     71.84157974
 C    -34.87062032     95.42878277     72.81720182
 C    -33.51829788     94.97480405     72.23691972
 C    -32.64255587     94.18884058     73.23036694
 C    -31.32645313     93.66464973     72.62646501
 C    -30.24565779     93.33323502     73.67224019
 C    -28.95942024     92.73278477     73.07503632
 C    -27.70093986     92.97197527     73.92979655
 C    -26.37836792     92.78622341     73.16305037
 C    -25.14207787     92.64832170     74.07088848
 C    -23.82652080     92.41196042     73.30600749
 C    -22.61355851     93.14924939     73.90327417
 C    -21.25359882     92.56850322     73.47333985
 C    -20.04690516     93.43857447     73.87141826
 C    -18.69480412     92.70491678     73.79952118
 C    -17.47604654     93.61130828     74.05385248
 C    -16.14988587     92.84603400     74.21893778
 C    -14.91297502     93.75531522     74.34083611
 C    -13.78134948     93.16159436     75.20020750
 C    -13.01750847     94.20439563     76.03729318
 C    -11.86294436     93.61585504     76.86927978
 C    -11.12637737     94.65144887     77.73911568
 C    -10.04739777     94.04554120     78.65578296
 C     -9.53441248     95.00967216     79.74155347
 C     -8.32479463     94.47670849     80.53172711
 C     -8.16062806     95.10780459     81.92684971
 C     -7.37440461     94.23342250     82.92128857
 C     -7.98960463     92.84082073     83.15321360
 C     -6.95548283     91.74342377     83.46612258
 C     -7.52180146     90.31272920     83.40290672
 C     -6.44614622     89.21119491     83.43737443
 C     -7.01542235     87.78079818     83.47597369
 C     -7.98150584     87.45973331     82.32046513
 C     -8.90828143     86.26055732     82.59371215
 C     -9.34943293     85.50792630     81.32464481
 C    -10.33761922     84.35711029     81.59055904
 C    -10.74639984     83.57788890     80.32671078
 C    -11.51427660     82.27457414     80.61539042
 C    -11.97745947     81.52728980     79.35102190
 C    -12.61630543     80.15478161     79.63332864
 C    -13.04616545     79.39152870     78.36673267
 C    -13.72282662     78.03760582     78.65067368
 C    -13.64796947     77.04186333     77.47828582
 C    -14.21864684     75.64869285     77.80232802
 C    -14.14534003     74.65346168     76.62940815
 C    -15.04310707     73.41423117     76.80238822
 C    -14.92146863     72.38829597     75.66034573
 C    -15.66817949     71.06727594     75.92288902
 C    -15.34899482     69.95475121     74.90701015
 C    -16.13625177     68.65140224     75.13746183
 C    -15.86051602     67.55909429     74.08749367
 C    -16.96973444     66.49587427     73.98358184
 C    -16.64033937     65.33894604     73.02201231
 C    -17.84711516     64.44512980     72.68086029
 C    -17.65198940     63.58407020     71.41907493
 C    -18.80312840     62.59708799     71.15010446
 C    -18.63796989     61.77999540     69.85523676
 C    -19.78077849     60.78110401     69.59484380
 C    -19.75228696     60.14879531     68.19093000
 C    -20.97402526     60.49905625     67.32129054
 C    -20.98527328     59.80309485     65.94756887
 C    -22.38177355     59.70676912     65.30561221
 C    -22.43124867     58.82697609     64.04263302
 C    -23.67668989     59.05793589     63.16677132
 C    -23.91417355     57.95978582     62.11355343
 C    -25.09973029     58.24102226     61.17176721
 C    -25.43508429     57.07621033     60.22184570
 C    -26.58228333     57.37900215     59.24008632
 C    -27.24301735     56.12297148     58.64224228
 C    -28.36909985     56.42610172     57.63643401
 C    -27.86832996     56.78812390     56.22584213
 C    -28.99321263     56.97732627     55.19122074
 C    -28.50678722     56.97753835     53.73006014
 C    -29.64280163     56.92392180     52.69169771
 C    -29.15501124     56.85357459     51.23268715
 C    -30.27705781     56.60090789     50.20859192
 C    -29.77141457     56.33145855     48.77914379
 C    -30.89078324     56.03164250     47.76488342
 C    -30.38511801     55.76189364     46.33549956
 C    -31.50419821     55.67533577     45.28109582
 C    -31.07381551     55.00181778     43.96475839
 C    -32.21698724     54.82650920     42.94788805
 C    -31.73965755     54.61625466     41.49890586
 C    -32.83307435     54.09331009     40.54886972
 C    -32.31747520     53.71649666     39.14752424
 C    -33.41503595     53.66814827     38.06834732
 C    -32.88656969     53.38581026     36.64968293
 C    -33.85640904     53.79753668     35.52652087
 C    -33.42664069     53.32766712     34.12433623
 C    -34.60225934     53.04975178     33.16920071
 C    -34.17783566     52.48173431     31.80215255
 C    -35.31472840     52.43110373     30.76460186
 C    -34.97219660     51.62333645     29.49898580
 C    -36.15670639     51.44261119     28.53157951
 C    -35.91618455     50.38600450     27.43735305
 C    -37.20680479     49.76264742     26.87403665
 C    -36.98885176     48.89953313     25.61740217
 C    -38.29289405     48.43202863     24.94471111
 C    -38.12966284     47.17804492     24.06580246
 C    -39.37421482     46.83542589     23.22597951
 C    -39.29883266     45.46678037     22.52403438
 C    -40.65769401     44.94506723     22.02113158
 C    -40.56372782     43.65094898     21.19165686
 C    -41.92253565     42.97584378     20.92807721
 C    -41.83674743     41.72159950     20.03863263
 C    -43.20443631     41.10320661     19.69422390
 C    -43.11572603     39.81156976     18.86031460
 C    -44.47941735     39.15564940     18.57445718
 C    -44.39810296     37.90747961     17.67609192
 C    -45.76950113     37.31929829     17.29542173
 C    -45.69231364     36.13255204     16.31701720
 C    -47.06381912     35.54557422     15.93487878
 C    -46.99730401     34.45016037     14.85448800
 C    -48.36814765     34.06451522     14.26825808
 C    -48.37898842     32.70700652     13.54117307
 C    -49.64140464     32.46000169     12.69447721
 C    -49.69637305     31.06517039     12.04407418
 C    -48.48886434     30.74613492     11.14310853
 C    -48.78871464     29.72118452     10.03352912
 C    -47.53114878     29.09334072      9.40429127
 C    -47.83169189     28.02848090      8.33314823
 C    -46.57967520     27.49196900      7.61467123
 C    -46.86660053     26.34336741      6.62979141
 C    -45.60163064     25.70318568      6.02844415
 C    -45.86951819     24.40783241      5.23984023
 C    -44.59544968     23.62939906      4.86249298
 C    -44.86177697     22.34690524      4.05262917
 C    -43.64574535     21.84961073      3.24915841
 C    -44.00572551     20.89972185      2.09169333
 C    -42.79912712     20.14709893      1.50069497
 C    -43.06970080     19.51297970      0.12363916
 C    -41.80671247     18.98516309     -0.58195995
 C    -41.80867328     19.19281976     -2.10789404
 C    -40.61440661     18.54192248     -2.83015428
 C    -40.73942114     18.53374414     -4.36504987
 C    -39.51404944     17.94702231     -5.09018550
 C    -39.64132387     17.93385169     -6.62486063
 C    -38.46487275     17.24914700     -7.34509826
 C    -38.70762550     17.00157121     -8.84555730
 C    -37.49599976     16.40566509     -9.58613745
 C    -37.79416826     15.98357949    -11.03684048
 C    -36.54676779     15.56196070    -11.83548287
 C    -36.86380220     14.81040031    -13.14171645
 C    -35.62049496     14.45891160    -13.97971573
 C    -35.65622713     13.04595866    -14.59117889
 C    -34.32060718     12.59904383    -15.21406450
 C    -34.38311442     11.22834068    -15.91325384
 C    -33.00333853     10.63703804    -16.25702654
 C    -32.12742102     11.55625008    -17.12847232
 C    -30.78471295     10.92910547    -17.54730962
 C    -29.88682083     11.86666632    -18.37578375
 C    -28.60933762     11.19617192    -18.91436885
 C    -27.71949061     12.12930408    -19.75641200
 C    -26.43195834     11.46459358    -20.27796796
 C    -25.32243507     12.46202545    -20.65965862
 C    -23.98511682     11.79751651    -21.03596673
 C    -22.87197083     12.79543640    -21.40564481
 C    -21.45022606     12.21126027    -21.31088157
 C    -20.36507755     13.25400571    -20.98417890
 C    -18.95144625     12.85213609    -21.44433906
 C    -17.84026874     13.79884618    -20.95380410
 C    -16.55066595     13.73916834    -21.79342496
 C    -15.64101407     14.97136341    -21.63271166
 C    -14.45960197     15.01078776    -22.61978368
 C    -13.94772410     16.43021710    -22.92768202
 C    -12.69403224     16.46382641    -23.82139737
 C    -11.96587547     17.82078651    -23.82825181
 C    -10.74713359     17.87291662    -24.76822558
 C    -10.17782268     19.28839110    -24.97778966
 C     -9.23791639     19.41215729    -26.19140331
 C     -8.59863672     20.80429040    -26.34915913
 C     -7.78645639     20.97726747    -27.64609477
 C     -6.78260061     22.14441340    -27.60554937
 C     -5.97688863     22.32306714    -28.90574591
 C     -5.02088576     23.53029107    -28.88934731
 C     -4.12745940     23.63879696    -30.13899359
 C     -3.72632805     25.08143084    -30.49885623
 C     -2.60364447     25.17602371    -31.54872945
 C     -2.34561892     26.60453940    -32.06289456
 C     -1.30453380     26.68431859    -33.19487382
 C     -0.65707972     28.07254451    -33.35371972
 C      0.72521821     28.04509657    -34.03202573
 C      1.49752546     29.37383219    -33.93403008
 C      2.67012796     29.49135448    -34.92538870
 C      3.74473197     30.51177455    -34.50637905
 C      4.84672660     30.72918591    -35.55991602
 C      5.96055667     31.69348251    -35.11145793
 C      7.02436258     31.96702917    -36.19085091
 C      8.14903025     32.91549236    -35.73572433
 C      9.09960845     33.34837427    -36.86736665
 C     10.19474968     34.33537998    -36.42229876
 C     11.36255097     34.46580641    -37.41770273
 C     12.56396345     35.26058057    -36.87314595
 C     13.83023571     35.15638799    -37.74337493
 C     15.06964342     35.83356298    -37.12945104
 C     16.21290773     36.07499008    -38.13257599
 C     17.54927694     36.46879117    -37.47634583
 C     18.74824419     36.46005343    -38.44278320
 C     20.11522984     36.59325071    -37.74621395
 C     21.29244861     36.81486159    -38.71401795
 C     22.67697178     36.73899741    -38.04398795
 C     23.83475605     37.21048389    -38.94334110
 C     25.20667596     36.62873752    -38.55474500
 C     26.31139033     36.87886246    -39.59812589
 C     27.61718686     36.10970271    -39.32446789
 C     28.72110382     36.35802030    -40.36912368
 C     30.03663548     35.61151928    -40.07979225
 C     31.01946051     35.59187515    -41.26523271
 C     30.54756910     34.73692376    -42.45602094
 C     31.69480288     34.13247664    -43.28674252
 C     31.31449385     32.83999277    -44.03269862
 C     32.44872181     32.25890072    -44.89725571
 C     31.97064673     31.26538850    -45.97241974
 C     33.11248667     30.52396414    -46.69220544
 C     32.63456314     29.41725639    -47.65053057
 C     33.68165238     29.00321519    -48.70113707
 C     33.08806866     28.28794417    -49.92899933
 C     32.82347379     26.78644207    -49.71201772
 C     32.05088335     26.11396853    -50.86201048
 C     31.65765640     24.65167322    -50.58153769
 C     30.79929561     24.01064469    -51.68783746
 C     30.05740692     22.73571075    -51.24540714
 C     29.43847312     21.93617581    -52.40698574
 C     28.59027490     20.73223600    -51.95677611
 C     28.10985357     19.83677946    -53.11390746
 C     27.40102895     18.54847084    -52.65627382
 C     26.72067751     17.76888723    -53.79687512
 C     25.99030075     16.49399998    -53.33555927
 C     25.07214392     15.87591954    -54.40633683
 C     24.20688001     14.71024835    -53.89240198
 C     23.03144583     14.34686967    -54.81863651
 C     22.01354626     13.37827426    -54.18831642
 C     20.73059860     13.18999864    -55.01909772
 C     19.83471689     12.03476802    -54.53490955
 C     18.73946018     11.62854965    -55.53840313
 C     17.62907286     10.75036400    -54.93224312
 C     16.79774554      9.98227405    -55.97652886
 C     15.95102607      8.83962502    -55.38575029
 C     14.78946865      8.38833998    -56.29058518
 C     13.81615797      7.40376536    -55.61613792
 C     12.60279779      7.02727311    -56.48654625
 C     11.47890875      6.30855364    -55.71718563
 C     10.36549770      5.74291817    -56.61828072
 C      9.31615253      4.90395124    -55.86554624
 C      8.19318937      4.35283178    -56.76377845
 C      7.13947708      3.52057240    -56.00969972
 C      6.09822061      2.85034185    -56.92521922
 C      5.21000218      1.81494063    -56.21064778
 C      4.37336753      0.94248972    -57.16483428
 C      3.69549654     -0.25992838    -56.48198611
 C      2.47839210      0.11556218    -55.61638597
 C      1.88023345     -1.06603441    -54.83048794
 C      0.64347038     -0.69740853    -53.99017129
 C      0.79396090     -1.00048837    -52.48780808
 C     -0.50325816     -0.81608487    -51.67859979
 C     -0.44501342     -1.40831268    -50.25822175
 C     -1.72801956     -1.18920410    -49.43512597
 C     -1.70694558     -1.86361388    -48.05081121
 C     -0.97574007     -1.04846849    -46.96800167
 C     -1.27541695     -1.50782742    -45.52898007
 C     -0.63033775     -0.62676932    -44.44306597
 C     -0.68314639     -1.23552678    -43.02947989
 C     -0.08354926     -0.33231833    -41.93572590
 C     -0.27857162     -0.86749631    -40.50493912
 C      0.56362839     -0.13683888    -39.44265909
 C      0.35810192     -0.66276003    -38.00991145
 C      1.36157659     -0.10010371    -36.98616516
 C      1.12452121     -0.58636849    -35.54430826
 C      2.21494951     -0.14920764    -34.54858917
 C      1.89371398     -0.48534905    -33.08045543
 C      3.03321505     -0.15528756    -32.09852023
 C      2.56554654      0.06711640    -30.64820211
 C      3.69039996      0.49026873    -29.68526552
 C      3.31640602      0.37468191    -28.19584677
 C      4.46001049      0.74299001    -27.23245798
 C      4.02541146      0.85892660    -25.75960958
 C      5.19813774      0.91417515    -24.76298494
 C      4.76359226      0.95850575    -23.28623005
 C      5.93447749      0.91077227    -22.28705574
 C      5.52555050      1.19111071    -20.82904714
 C      6.71403480      1.30967292    -19.85691132
 C      6.30373489      1.42415911    -18.37699683
 C      7.49282194      1.48919774    -17.40055331
 C      7.08439553      1.49549103    -15.91571383
 C      8.24926962      1.77102338    -14.94682258
 C      7.84080525      1.77751686    -13.46199441
 C      8.88637920      2.41398806    -12.52750015
 C      8.34492483      2.76660291    -11.12961248
 C      9.37737119      3.44631503    -10.21111047
 C      8.97635905      3.46552752     -8.72436229
 C      9.47331418      4.70512603     -7.95753041
 C      8.97314698      4.78411918     -6.50316015
 C      9.94222102      5.50220464     -5.54563794
 C      9.38425016      5.70345590     -4.12445306
 C     10.16283156      6.73418126     -3.28599243
 C      9.29005555      7.51712533     -2.28756334
 C     10.01922027      8.68740841     -1.60173807
 C      9.36797239      9.14478966     -0.28330013
 C      9.80832542     10.54595146      0.17977094
 C      9.07710130     11.04816160      1.43861814
 C      9.61953593     12.38046987      1.98845388
 C      9.23769076     12.65474484      3.45493522
 C      9.24241311     14.14714785      3.83481802
 C      8.76553890     14.42926019      5.27169088
 C      9.04674804     15.86429375      5.75459884
 C      8.35828654     16.22390909      7.08437235
 C      8.62618425     17.66425830      7.55895107
 C      7.79981217     18.08225259      8.78939406
 C      7.85498888     19.58995884      9.09822634
 C      7.07801516     19.99903928     10.36336074
 C      6.89464517     21.51988973     10.52144101
 C      5.85779979     21.91826286     11.58814177
 C      5.58368453     23.43193269     11.66069829
 C      4.43214693     23.81522712     12.60866798
 C      4.13698035     25.32590712     12.65686148
 C      2.90051168     25.69604893     13.49694497
 C      2.49692812     27.17891596     13.39782043
 C      1.10407034     27.48904885     13.97692731
 C      0.60775634     28.91716598     13.68408971
 C     -0.68308714     29.29753925     14.43284820
 C     -1.18678060     30.72091305     14.12969821
 C     -2.08656123     31.31445184     15.22956481
 C     -2.47828128     32.78483501     14.99264977
 C     -3.58152786     33.29896791     15.93610848
 C     -4.13406991     34.68549138     15.55683291
 C     -5.22792774     35.20547110     16.50798807
 C     -5.92574873     36.48805043     16.01846165
 C     -6.98075813     37.03910274     16.99564972
 C     -7.79136217     38.22439151     16.43922217
 C     -8.78271367     38.83377216     17.44792303
 C     -9.26709355     40.24707554     17.07435953
 C    -10.21540940     40.87846576     18.11052720
 C    -10.83947607     42.21162710     17.65795496
 C    -11.35183191     43.08837222     18.81571550
 C    -12.32940237     44.19498497     18.37826352
 C    -13.61946722     44.25855324     19.21688844
 C    -14.56478782     45.40960643     18.82567811
 C    -15.74323820     45.60981797     19.79664157
 C    -16.84188079     46.54794327     19.26325110
 C    -18.10651154     46.59414258     20.14084706
 C    -18.98311451     45.33174632     20.04326159
 C    -20.21513830     45.35173554     20.96701362
 C    -21.05858519     46.63564861     20.85854899
 C    -22.07302345     46.81721380     22.00290431
 C    -22.60900591     48.25414609     22.14271983
 C    -23.84112138     48.37676786     23.05839191
 C    -24.56099915     49.73469168     22.96134087
 C    -26.04092357     49.69077863     23.38500977
 C    -26.86898952     50.89273423     22.89387890
 C    -28.37377360     50.78491887     23.20307258
 C    -28.72427671     50.99005982     24.68855727
 C    -30.20384846     50.72703239     25.02513416
 C    -30.58110021     51.04775553     26.48335835
 C    -30.64641058     52.55413662     26.79664824
 C    -31.01852324     52.87480560     28.25620419
 C    -31.19714162     54.37758996     28.54139651
 C    -31.76455289     54.68675100     29.93927486
 C    -31.91888343     56.19035811     30.23414386
 C    -32.25054306     56.50965650     31.70371878
 C    -32.17435806     58.00787113     32.05178310
 C    -32.78417599     58.36483772     33.42010212
 C    -32.80412120     59.87477103     33.72226698
 C    -33.68529736     60.26136415     34.92462896
 C    -33.55199545     61.73523478     35.35069934
 C    -34.44603258     62.12615450     36.54211841
 C    -34.64463360     63.64463813     36.70449179
 C    -35.40410361     64.04380818     37.98334619
 H     -0.36333333      0.00000000      1.02766186
 H     -0.36333333     -0.88998127     -0.51383093
 H     -0.36333333      0.88998127     -0.51383093
 H      1.88274777      0.25905754     -1.00175504
 H      1.88274777      0.30808857     -0.98777801
 H      1.62962592      2.14146991     -0.14641365
 H      2.73690066      1.03165902     -1.45549703
 H      3.91039751      0.24515374     -1.25862076
 H      4.17917984      1.24864828      0.18672399
 H      3.95746895      3.29523282     -0.38730679
 H      3.58422891      3.25872376     -1.39481183
 H      2.91824557      3.03482582     -2.60417398
 H      4.52494433      2.58411938     -3.22356841
 H      5.59689060      4.57280570     -2.36991242
 H      3.97822867      5.26755874     -2.11394672
 H      3.39408415      4.81182611     -4.48972732
 H      5.38384393      5.03698530     -4.62755144
 H      6.33809088      5.98378205     -4.13924314
 H      4.74626655      7.01249680     -4.95991509
 H      4.15470607      6.74994408     -6.23050582
 H      5.68799131      5.93757320     -6.62718776
 H      7.20813869      7.48123166     -6.00016435
 H      5.92099411      8.70897860     -5.93564346
 H      5.74950739      7.57108731     -8.47233224
 H      7.73457537      7.72782891     -7.92060728
 H      7.97467671      9.32877839     -7.36695493
 H      7.17104762      9.75112048     -8.32012916
 H      9.29493368      7.68803230     -7.37521695
 H      8.78592000      9.12470200     -6.45589552
 H      9.21479764     10.86573985     -7.49913867
 H     10.33428258      9.98020275     -8.56255025
 H     11.50427942      9.06447090     -6.55502419
 H     10.62976272     10.28331445     -5.59694924
 H     11.57462090     12.03318922     -7.19066783
 H     12.67710927     10.75882645     -7.76406613
 H     13.52772757     10.23160031     -5.58548757
 H     12.91377687     10.66757457     -4.98308204
 H     11.80908213     11.16903946     -4.23689470
 H     12.50327308     12.77838845     -4.54731606
 H     14.68254795     11.52702328     -3.62811035
 H     13.53634424     10.26100122     -3.12644127
 H     12.09982535     11.59050071     -1.86503296
 H     12.23960641     12.35758363     -2.07898368
 H     12.36779556     13.62372952     -2.75066584
 H     13.87081830     13.82673953     -1.81901341
 H     12.69481226     13.24937571      0.28131340
 H     11.16716481     13.46723461     -0.60587172
 H     11.90876299     15.75493301     -1.29123113
 H     13.18926608     15.61185672     -0.06318077
 H     11.68443350     15.08745974      1.73125545
 H     10.34172172     15.62822708      0.69541645
 H     11.29366877     17.76706915      0.20867191
 H     12.00269060     17.42814879      2.08305922
 H     11.39836533     16.98724870      3.28774602
 H      9.87818680     17.58239100      2.57842976
 H     10.56364882     19.68086437      1.91798344
 H     12.01040369     19.50602289      2.94003895
 H     10.86990608     18.94134969      4.93026852
 H      9.35747940     19.50015249      4.17623163
 H     10.53780883     21.69629174      3.68663530
 H     11.80306100     21.14621534      4.81127727
 H      9.67966161     20.91300750      6.41259092
 H      8.83770372     21.85167852      5.15629864
 H     10.46375708     23.66183232      5.23937783
 H     11.06853628     22.96433201      6.76121951
 H      9.75536174     22.57631946      8.15448501
 H      8.56459193     23.64415688      7.37342343
 H     10.33054668     25.45476253      7.33840828
 H     11.25605866     24.43480544      8.46596395
 H      9.34596962     24.31300016     10.02046214
 H      8.60981721     25.64890180      9.10301290
 H     10.12053649     27.21886765      9.03428989
 H     11.02108795     26.41929599     10.34499920
 H      8.63495506     26.42045326     11.51225673
 H      8.22517418     27.58281090     10.40104850
 H     10.44108296     26.76574607     12.54722635
 H      8.97850301     25.75245233     12.49862224
 H      7.26409870     26.61346127     12.80000102
 H      8.06544855     28.02291824     13.53453225
 H      9.13771541     25.93155426     14.92861085
 H      7.83707289     25.00386058     14.14376683
 H      6.36676714     26.89718570     15.32576582
 H      7.86568622     27.27345944     16.20890021
 H      7.99587352     24.89371835     16.96847550
 H      6.31310637     24.71773902     16.41567114
 H      5.42714030     26.66140970     17.43137662
 H      6.40881507     26.55903153     18.49039175
 H      4.38394720     25.26087375     16.49835082
 H      4.60793886     27.01555772     16.69628657
 H      3.85063370     26.92016444     19.03620257
 H      3.24375795     25.28164097     18.69677759
 H      1.94346055     25.70069911     16.86083712
 H      2.01396450     27.44054329     17.22994156
 H      1.44312428     27.70018799     19.27257234
 H      0.75136955     26.06042355     19.30281589
 H     -0.60256210     26.37290026     17.35073370
 H     -0.62903543     28.22399888     18.23644311
 H     -0.88161764     28.58965779     19.58125610
 H     -1.72197659     27.02506474     19.70005040
 H     -2.46379421     28.76327346     17.42622040
 H     -1.47718975     29.86495244     18.41676658
 H     -3.08177614     29.43352166     20.33060930
 H     -4.16603699     28.70360901     19.12235743
 H     -4.36720111     30.29968408     17.58483094
 H     -3.67678466     31.48831523     18.73379449
 H     -5.94716115     29.27973754     18.50150997
 H     -5.13236254     29.58236213     16.94819472
 H     -5.96041055     32.00355824     17.18515693
 H     -7.01445574     31.39179310     18.48246136
 H     -8.12265037     29.73067390     17.59739958
 H     -7.65850181     30.28045009     15.96933972
 H     -8.51932944     32.56505890     16.51302870
 H     -9.30887324     31.83386765     17.93086036
 H    -10.45416040     30.21264377     17.44181167
 H    -10.45538144     30.69717983     15.72906826
 H    -11.17709361     32.94421724     16.15724902
 H    -11.61727369     32.43513219     17.80507807
 H    -13.00268633     30.59056279     16.91668078
 H    -12.88328512     31.37163519     15.32170870
 H    -13.50490338     33.42198493     15.58547545
 H    -14.23552386     33.00987458     17.15538801
 H    -15.41160817     31.16559337     15.60230520
 H    -14.76664546     32.13769367     14.25794262
 H    -16.31383659     33.85439197     15.85903514
 H    -16.82115041     32.31049650     16.58517983
 H    -17.51927990     30.95456826     15.30683708
 H    -17.76925535     32.20756201     14.06756891
 H    -18.77297470     32.98656189     16.71813347
 H    -18.97127545     31.84179327     16.85055925
 H    -19.03376595     34.35235328     15.14893073
 H    -18.59758270     34.19492729     16.86742655
 H    -19.73480347     33.56331399     18.15897331
 H    -21.14163693     33.89128864     17.11901229
 H    -19.83110443     36.27656689     17.07087729
 H    -18.89686798     35.56816824     18.41014585
 H    -21.12382983     35.19780553     19.59693199
 H    -21.83145129     36.27975422     18.37344289
 H    -21.12338567     37.94857894     17.98050258
 H    -20.24200601     37.97075677     19.52677057
 H    -22.23331824     37.41967725     20.81510349
 H    -23.19832259     37.80683349     19.37040861
 H    -21.75895240     40.07968767     19.66413385
 H    -21.35153389     39.39483683     21.25575446
 H    -23.33890790     38.98202419     22.16548026
 H    -24.11196696     40.01718761     20.94110978
 H    -23.11400510     41.88557010     20.90003559
 H    -22.36038039     41.53719976     22.47450521
 H    -24.39670267     40.99285784     23.58805505
 H    -25.28254058     41.72218761     22.22730675
 H    -24.22993090     43.78889572     22.19003774
 H    -23.56173290     43.44845182     23.80431035
 H    -24.90099097     42.86171237     25.16559422
 H    -26.05917116     44.13892095     24.09734622
 H    -25.84044710     45.44823366     23.57317776
 H    -24.58435106     45.59593889     24.82564436
 H    -25.29543186     44.99720608     26.67518199
 H    -26.97412541     45.12334594     26.09695769
 H    -26.74986892     47.34910301     25.25782958
 H    -25.22675246     47.48822741     26.16833894
 H    -26.56338703     46.78159535     28.23060913
 H    -28.01942683     47.08957893     27.25420713
 H    -27.35291360     49.35345648     26.70198864
 H    -26.12752909     49.24342947     27.98829869
 H    -27.32251400     48.60434315     29.76485900
 H    -28.82008850     49.05029085     28.91241080
 H    -27.76885560     51.33497515     28.51098124
 H    -26.54717953     50.86561759     29.71741306
 H    -27.87191295     50.28403118     31.47175384
 H    -29.24642171     51.09672767     30.68529548
 H    -28.35139524     53.14600052     30.26429555
 H    -27.02082683     52.78001629     31.38853303
 H    -28.61222892     52.19098905     33.17743435
 H    -29.88511074     52.95286776     32.19377823
 H    -28.72102277     55.04001458     31.95354756
 H    -27.62989764     54.52282266     33.26130333
 H    -29.38484079     54.03512823     34.81587326
 H    -30.50401813     54.92571033     33.75635815
 H    -29.55887014     56.87319589     33.43018297
 H    -28.46414517     56.57747417     34.80218609
 H    -29.50061430     56.00296502     36.49077412
 H    -31.02301981     56.60249734     35.78998233
 H    -30.28542791     58.74614545     35.21686671
 H    -28.85883627     58.49774168     36.25195054
 H    -30.01725828     57.87607238     38.20154314
 H    -31.51532191     58.49526584     37.46623947
 H    -31.31689981     60.39922783     36.75708917
 H    -29.83955294     60.63298886     37.72200817
 H    -30.36086890     60.02953436     39.75129779
 H    -32.09041192     60.11155505     39.33872028
 H    -31.59125632     62.49298139     38.50249453
 H    -30.03206576     62.33445888     39.34633225
 H    -31.05034961     61.76377704     41.46317509
 H    -32.60578336     62.31995641     40.80018412
 H    -32.49160264     64.19772086     40.00067152
 H    -30.96174037     64.49875820     40.85925443
 H    -31.46814882     63.94021558     42.97030625
 H    -33.19976813     63.98758165     42.56101703
 H    -33.07299939     66.21712044     41.62211215
 H    -31.47374494     66.38416138     42.38549226
 H    -32.46206307     65.76590141     44.59038388
 H    -34.06009880     66.02432491     43.85027188
 H    -33.51986832     68.26503571     43.10320804
 H    -32.69718204     68.07404400     44.99197320
 H    -33.26037326     67.63262662     46.14572702
 H    -34.78371788     68.06440267     45.33254975
 H    -34.64697162     69.98149006     44.51232628
 H    -33.22133464     70.33331929     45.51832929
 H    -33.43800540     69.91859702     47.46155450
 H    -35.20839225     69.86898229     47.28397232
 H    -34.65505500     72.26569978     46.17146953
 H    -33.04589421     72.02400527     46.89289312
 H    -34.50163959     71.76533937     49.09822953
 H    -35.82841694     72.42015557     48.10871233
 H    -34.84624383     74.35715880     47.36407234
 H    -33.58556923     74.17258237     48.60701150
 H    -35.08855203     73.93657597     50.43677669
 H    -36.39326687     74.53652312     49.38508792
 H    -35.80605827     76.34591278     48.49293231
 H    -34.49523885     76.53013711     49.68292412
 H    -35.24185873     76.28981425     51.62109038
 H    -36.90536701     76.52134868     51.03168500
 H    -36.17339898     78.64767786     49.91483718
 H    -34.68279746     78.53353724     50.88093535
 H    -35.78188622     78.35601786     52.98636495
 H    -37.28417120     78.89257628     52.19673747
 H    -36.25780649     80.87989165     51.26120660
 H    -34.88418360     80.61660462     52.36216380
 H    -35.13217760     80.33044429     54.19606657
 H    -36.76930334     81.02418098     54.11351120
 H    -36.52020644     82.93811624     53.06855028
 H    -34.76397234     82.86754469     53.34949171
 H    -35.13560722     82.51118828     55.77552807
 H    -36.82579295     83.00056791     55.50711339
 H    -36.95346945     84.80367621     54.52221342
 H    -35.25414553     85.16422925     54.91024223
 H    -35.05028733     84.85096830     57.05188708
 H    -36.82079769     84.87985142     57.23278895
 H    -37.46439007     86.71871608     56.22523706
 H    -35.78893920     87.31942489     56.24196966
 H    -34.98775972     87.18573932     58.16392450
 H    -36.61752927     86.99408377     58.85340693
 H    -37.85255708     88.55107250     58.09834368
 H    -36.41446497     89.45988613     57.57468776
 H    -34.98576355     89.70446108     58.89091427
 H    -36.10003463     89.30664688     60.22073024
 H    -37.81021841     90.16297886     60.30363227
 H    -37.25544542     91.44758017     59.20349906
 H    -35.26097884     91.67433784     60.84393064
 H    -36.22120874     90.66278462     61.94981729
 H    -38.11486602     92.29687498     61.74380567
 H    -36.94743089     93.41558627     60.99959676
 H    -35.48006860     93.11449436     63.03724718
 H    -36.89029070     92.35941992     63.81788980
 H    -38.54325513     93.67823267     63.65313596
 H    -37.45102656     95.02354790     63.24640466
 H    -35.90515470     95.27582895     64.46391088
 H    -36.69291526     94.28856329     65.71810642
 H    -38.67311952     95.01786366     65.99523965
 H    -38.25290163     96.52641490     65.14909737
 H    -36.30430326     96.91243307     66.56878160
 H    -36.40247148     95.78743136     67.30424404
 H    -36.79008417     94.56442726     67.93038753
 H    -38.12853977     95.50290051     68.63471078
 H    -37.25362325     97.29574641     69.46752877
 H    -35.63621614     96.55722346     69.38479565
 H    -35.57365968     94.69861925     70.22566368
 H    -37.10914177     95.00146051     71.07351307
 H    -36.41665447     97.07997042     72.03346300
 H    -34.74059639     96.66658067     71.59963711
 H    -34.57095639     94.51025894     72.31260743
 H    -35.53498372     94.77050421     73.37701485
 H    -33.06739320     95.81999908     71.71689057
 H    -33.70319813     94.16830340     71.52736450
 H    -33.27443154     93.46661429     73.74730246
 H    -32.22841029     94.89203431     73.95293321
 H    -30.88044008     94.46215778     72.03219802
 H    -31.55887802     92.81734640     71.98136368
 H    -30.71598061     92.78717337     74.48998900
 H    -29.83511462     94.26984221     74.04949510
 H    -28.69090484     93.30933665     72.18983159
 H    -29.16367531     91.70113669     72.78853657
 H    -27.95185424     92.77454981     74.97198903
 H    -27.40434780     94.01495557     73.81877746
 H    -26.47130521     93.27860726     72.19505202
 H    -26.21581603     91.71882081     73.01362285
 H    -25.38974728     91.96878444     74.88635705
 H    -24.90359130     93.63138281     74.47686262
 H    -23.79581446     93.09549288     72.45751441
 H    -23.82018471     91.38364286     72.94458965
 H    -22.63506353     93.02360380     74.98579471
 H    -22.70132089     94.20778965     73.65854925
 H    -21.28807932     92.37221245     72.40171443
 H    -21.09572411     91.63257239     74.00925875
 H    -20.18791102     93.77011617     74.90015411
 H    -20.01669288     94.30537623     73.21123502
 H    -18.66279645     92.13548209     72.87064033
 H    -18.62986144     92.02213095     74.64668466
 H    -17.69586268     94.24895767     74.91011420
 H    -17.31907237     94.23042262     73.17058777
 H    -16.09724745     92.08052199     73.44477981
 H    -16.14798254     92.37126134     75.20010407
 H    -15.15192451     94.56906444     75.02553702
 H    -14.68925565     94.16360481     73.35526558
 H    -13.65314167     92.11532599     74.92274536
 H    -14.07635903     93.22622153     76.24753396
 H    -13.74434198     94.87491755     76.49578353
 H    -12.36996163     94.77241282     75.36935638
 H    -11.30681537     92.92076812     76.24025297
 H    -12.28991735     93.07798811     77.71573901
 H    -11.87063905     95.28251781     78.22483839
 H    -10.50068037     95.26252039     77.08858138
 H     -9.47117647     93.32409908     78.07648142
 H    -10.54525939     93.53492921     79.48010644
 H    -10.39262381     95.51528371     80.18419359
 H     -8.88421491     95.74497996     79.26756450
 H     -7.61924827     94.03985474     79.82500005
 H     -8.67615594     93.70597894     81.21774547
 H     -9.13991072     95.14379329     82.40414447
 H     -7.77988875     96.12146741     81.80184868
 H     -6.50099095     93.83127760     82.40793873
 H     -7.21982816     93.25396915     82.46865489
 H     -8.27730327     92.42786971     82.18636255
 H     -8.87595721     92.95721519     83.77685729
 H     -6.24087237     92.14128959     84.18663259
 H     -6.43622995     91.48834137     82.54232097
 H     -8.14051794     90.22817961     82.50951919
 H     -8.13677174     90.14812807     84.28767677
 H     -5.71833041     89.46682970     84.20746208
 H     -5.95264961     89.18352040     82.46588319
 H     -8.09266023     87.83628113     83.31919304
 H     -7.40490306     87.59379935     84.47669154
 H     -7.54800911     87.84012570     81.39554232
 H     -8.92722005     87.96609521     82.51365480
 H     -9.29632698     86.35146549     83.60823488
 H     -8.32001185     85.34673493     82.51024037
 H     -8.47792084     85.37750445     80.68311787
 H    -10.09352137     86.11407085     80.80790389
 H    -11.09111711     84.70835928     82.29551655
 H     -9.78616570     83.52689711     82.03185835
 H     -9.85041682     83.39008129     79.73506670
 H    -11.43820066     84.19438038     79.75273353
 H    -12.25922702     82.47882723     81.38443498
 H    -10.80514812     81.53346652     80.98416716
 H    -11.15373804     81.51809714     78.63723026
 H    -12.82238106     82.06741158     78.92384984
 H    -13.30106406     80.26196986     80.47458740
 H    -11.82311676     79.45530998     79.89731948
 H    -12.24564741     79.46986334     77.63111419
 H    -13.94812663     79.86050384     77.97350456
 H    -14.43670937     78.17486298     79.46285094
 H    -12.95450086     77.32826814     78.95827013
 H    -12.63520122     77.06181041     77.07579037
 H    -14.35076174     77.36375526     76.70980119
 H    -15.15993849     75.77955740     78.33612996
 H    -13.50720368     75.12735855     78.44276472
 H    -13.16013198     74.73648063     76.17052586
 H    -14.90943954     74.92515899     75.90110017
 H    -16.01613230     73.74403023     77.16646853
 H    -14.58247538     72.75761664     77.54047752
 H    -13.86451077     72.25723266     75.42847836
 H    -15.43862171     72.78501610     74.78669487
 H    -16.65152982     71.30427289     76.32903503
 H    -15.10127341     70.49287670     76.65554378
 H    -14.27146522     69.93887499     74.74337062
 H    -15.85524606     70.18994517     73.97079784
 H    -17.17529002     68.91008372     75.34138190
 H    -15.71174229     68.14308186     76.00319972
 H    -14.78525595     67.51328396     73.91481707
 H    -16.36550986     67.83750639     73.16252452
 H    -17.93370629     67.00463252     73.98841107
 H    -16.89985576     65.84159734     74.85256899
 H    -15.61191124     65.02587032     73.20206559
 H    -16.73491486     65.70537270     71.99981518
 H    -18.70233497     65.08836119     72.47361055
 H    -18.06491003     63.81853302     73.54575443
 H    -16.65357510     63.14802295     71.45271572
 H    -17.73660803     64.23120157     70.54605679
 H    -19.74663507     63.12148552     71.30143981
 H    -18.72493451     61.77668410     71.86349297
 H    -17.60708985     61.43026593     69.79977813
 H    -19.58168779     61.80658764     69.31045297
 H    -20.72721194     61.28311837     69.79570521
 H    -19.66333886     59.94016023     70.27830666
 H    -18.72555555     59.86035785     67.96570470
 H    -19.86794159     60.94399299     67.45446231
 H    -21.17473796     61.56531124     67.42576405
 H    -21.82927724     59.93080645     67.68699017
 H    -20.70999696     58.75815402     66.09047307
 H    -20.24644006     60.28964643     65.31078552
 H    -22.88055021     60.66868734     65.42408236
 H    -22.94777315     58.93696950     65.83016249
 H    -21.86603939     57.91555918     64.23746037
 H    -21.96509150     59.37564382     63.22424361
 H    -23.83983780     60.13210722     63.07937164
 H    -24.53314419     58.59938547     63.66105622
 H    -23.76479774     56.99053707     62.58930940
 H    -23.18468836     58.08830189     61.31390664
 H    -25.04833392     59.28360278     60.85794520
 H    -26.02397709     58.07314877     61.72465631
 H    -25.41302811     56.14931558     60.79497713
 H    -24.67403504     57.03961880     59.44238107
 H    -26.42902315     58.37779787     58.83140744
 H    -27.52178941     57.35252517     59.79210742
 H    -27.39986655     55.40295455     59.44540723
 H    -26.56530873     55.69888852     57.90132078
 H    -28.14372990     57.37230882     57.14449856
 H    -29.24370895     56.76357767     58.19255353
 H    -27.07847281     56.08847652     55.95249393
 H    -27.46354910     57.79975788     56.25498199
 H    -29.78366275     57.57192435     55.64919642
 H    -29.38441691     55.99492845     54.92673302
 H    -27.79483096     56.16159957     53.60571311
 H    -29.01045052     57.78673487     53.20126503
 H    -30.42085103     57.62293214     52.99849353
 H    -30.04791729     55.91208403     52.67882832
 H    -28.34268452     56.12888637     51.17743971
 H    -28.78376215     57.83794388     50.94757101
 H    -31.12249447     57.24067869     50.46163379
 H    -30.57794616     55.55574521     50.28071117
 H    -28.93192700     55.63866500     48.83743371
 H    -29.43433428     57.27555101     48.35116445
 H    -31.69727954     56.74767198     47.92288821
 H    -31.25938969     55.02261880     47.94954651
 H    -29.52376028     55.09672820     46.39647318
 H    -30.08062458     56.71119120     45.89479796
 H    -32.20512722     56.49124028     45.45744312
 H    -32.01801917     54.72194323     45.40410271
 H    -30.49616682     54.11026791     44.20880928
 H    -30.44680117     55.70073904     43.41116820
 H    -32.79090483     55.75257323     42.91436149
 H    -32.85808445     54.01391650     43.28962987
 H    -30.91643920     53.90190189     41.50947253
 H    -31.38627085     55.57217308     41.11233397
 H    -33.74774296     54.65572413     40.73641110
 H    -33.00300557     53.03937901     40.76898938
 H    -31.39205176     53.15227995     39.26307062
 H    -32.66649485     54.46877806     38.44016438
 H    -34.05232703     54.54428209     38.18813718
 H    -34.00624231     52.76521920     38.22097150
 H    -32.15724087     52.57801501     36.71006748
 H    -32.39966957     54.28800289     36.27944417
 H    -34.25704900     54.78307638     35.76379524
 H    -34.66999791     53.07291236     35.49346416
 H    -33.09759091     52.29100389     34.19613855
 H    -32.59547864     53.95062818     33.79389839
 H    -35.32184794     53.86275693     33.26571436
 H    -34.49132901     52.04006146     32.77382760
 H    -33.42833330     51.70833705     31.97008968
 H    -33.74078652     53.29004423     31.21587349
 H    -35.86073772     53.37348115     30.80817500
 H    -35.98309402     51.61141688     31.02823204
 H    -34.48286564     50.69853915     29.80460839
 H    -34.28653595     52.21341245     28.89089059
 H    -36.66954732     52.39958029     28.43512060
 H    -36.83823042     50.70651663     28.95794763
 H    -35.46315231     49.50961240     27.90081683
 H    -35.22883843     50.80436821     26.70207956
 H    -37.92575670     50.56292731     26.69865064
 H    -37.60614602     49.07173855     27.61651325
 H    -36.11555228     48.26845393     25.78228718
 H    -36.80299455     49.56375463     24.77338387
 H    -38.97912759     49.27784425     24.90252740
 H    -38.72861830     47.64070796     25.55467502
 H    -37.51674116     46.45742693     24.60722347
 H    -37.62216527     47.46802575     23.14577130
 H    -39.75242993     47.75637787     22.78224447
 H    -40.12997384     46.41455710     23.88915201
 H    -38.91450621     44.73687398     23.23651585
 H    -38.61079727     45.55047326     21.68278364
 H    -41.18306928     45.76833828     21.53708032
 H    -41.23299194     44.60262653     22.88128660
 H    -39.88059016     42.96854245     21.69736851
 H    -40.16502489     43.90202734     20.20875523
 H    -42.63820140     43.74637692     20.64136965
 H    -42.25275734     42.49844345     21.85065109
 H    -40.99436502     41.11834317     20.37711997
 H    -41.66490814     42.04136173     19.01085670
 H    -43.88602764     41.90894585     19.42161149
 H    -43.58209070     40.59178955     20.57962198
 H    -42.33382295     39.18221608     19.28533404
 H    -42.84970983     40.08108048     17.83820924
 H    -45.18072494     39.93681945     18.28112971
 H    -44.82898721     38.67866085     19.49008966
 H    -43.56759200     37.29106148     18.02015621
 H    -44.20944482     38.23315570     16.65313386
 H    -46.42873452     38.14068422     17.01464335
 H    -46.17718597     36.80804959     18.16749847
 H    -44.89583893     35.46631902     16.64847097
 H    -45.45337567     36.51988605     15.32657235
 H    -47.74346848     36.37135181     15.72447891
 H    -47.43965975     34.97263765     16.78257419
 H    -46.17477997     33.77777239     15.09830886
 H    -46.80381575     34.92750565     13.89386124
 H    -48.92631570     34.97974582     14.07102374
 H    -48.90091554     33.46615511     15.00732746
 H    -47.83453486     31.98675982     14.15184075
 H    -47.87296919     32.82720247     12.58325999
 H    -49.86314901     33.36961979     12.13633354
 H    -50.46816157     32.23687307     13.36885589
 H    -49.39673862     30.32772094     12.78871337
 H    -48.75123432     30.55849522     12.23924863
 H    -47.58266081     31.06204696     11.65992063
 H    -48.59409221     31.31033163     10.21644291
 H    -49.74492507     29.97889437      9.57817514
 H    -48.85768319     28.73330936     10.48899153
 H    -46.84166784     28.82983223     10.20633822
 H    -47.06631944     29.83487095      8.75454777
 H    -48.62367410     28.40659031      7.68669835
 H    -48.17379688     27.12379234      8.83574426
 H    -45.81145496     27.29834622      8.36330190
 H    -46.77720630     27.48264972      6.54275956
 H    -47.74960647     26.60452778      6.04652836
 H    -47.06584225     25.43969583      7.20579524
 H    -44.87836874     25.55463040      6.83026929
 H    -45.77677365     25.53000397      4.96663766
 H    -46.74343988     24.56582981      4.60786103
 H    -46.07601278     23.60925603      5.95239602
 H    -43.94006699     23.60200892      5.73302345
 H    -44.09822407     24.15905633      4.04988615
 H    -45.59944041     22.57446176      3.28310290
 H    -45.26300508     21.59180119      4.72859802
 H    -42.76529043     21.90715355      3.88914900
 H    -43.51258971     22.50475625      2.38825544
 H    -44.86523553     21.31293794      1.56387233
 H    -44.27021172     19.93012851      2.51363621
 H    -42.18638061     19.78118645      2.32455768
 H    -42.21915658     20.84749866      0.89971710
 H    -43.60179571     20.23999290     -0.48989715
 H    -43.69570259     18.63254789      0.26876530
 H    -41.20625584     18.44420881      0.14942251
 H    -41.24135256     19.83853977     -0.95641476
 H    -42.15629147     20.20479976     -2.31563928
 H    -42.49787791     18.47381649     -2.55076114
 H    -40.47354889     17.53986860     -2.42500353
 H    -39.72604319     19.14185657     -2.63269666
 H    -41.09084832     19.51450148     -4.68554009
 H    -41.47125702     17.77612979     -4.64529396
 H    -39.21191447     17.03724796     -4.57141283
 H    -38.70611297     18.67720660     -5.04360682
 H    -40.04423466     18.89517725     -6.94363336
 H    -40.33299434     17.13922675     -6.90461619
 H    -38.23185931     16.32403206     -6.81787241
 H    -37.60387637     17.91641886     -7.30593839
 H    -39.14916735     17.90117597     -9.27433703
 H    -39.40537990     16.17037536     -8.94730336
 H    -37.07656908     15.60904973     -8.97166054
 H    -37.38742559     16.92439312    -10.53862519
 H    -38.37758031     16.77312475    -11.51049508
 H    -38.37907511     15.06411600    -11.01294756
 H    -35.93697955     14.91656408    -11.20324756
 H    -35.98288570     16.45951863    -12.08950403
 H    -37.67497503     15.33240617    -13.64926794
 H    -37.18499974     13.80048124    -12.88677408
 H    -34.85398051     14.07020024    -13.30929864
 H    -35.25883781     15.37053087    -14.45537782
 H    -36.64935821     12.87776569    -15.00771435
 H    -35.46839808     12.32379799    -13.79663234
 H    -33.51622669     12.86731353    -14.52915326
 H    -34.18738234     13.12990823    -16.15668538
 H    -35.29372238     11.18973689    -16.51108566
 H    -34.41846931     10.45398398    -15.14694990
 H    -32.34883473     10.77089814    -15.39574479
 H    -32.24645126     11.39645729    -16.06080203
 H    -32.19351017     12.56940023    -16.73191338
 H    -32.51803580     11.53811612    -18.14591581
 H    -30.97025661      9.90366761    -17.86691992
 H    -30.12303964     10.92561664    -16.68112473
 H    -29.89679324     12.85163190    -17.90904683
 H    -30.30063913     11.93706997    -19.38171503
 H    -28.87794094     10.21840130    -19.31426492
 H    -27.91253380     11.07083454    -18.08560171
 H    -27.64696588     13.08845639    -19.24370643
 H    -28.19402027     12.27130143    -20.72736944
 H    -26.19514883     11.89327685    -21.25175023
 H    -25.73696773     11.36271274    -19.44447631
 H    -25.25715750     13.21803877    -19.87717367
 H    -25.59748564     12.93675664    -21.60150653
 H    -24.19494368     10.95167070    -21.69065562
 H    -23.51060147     11.44053129    -20.12191163
 H    -22.88228204     13.60586544    -20.67681118
 H    -23.08557216     13.19544668    -22.39683916
 H    -21.45570376     11.22062676    -21.76554106
 H    -21.18422419     12.12600832    -20.25728055
 H    -20.73600718     13.89584973    -20.18508725
 H    -20.18510611     13.85267133    -21.87710093
 H    -19.02154302     12.44889315    -22.45457744
 H    -18.57789467     12.08111458    -20.77048072
 H    -18.01929803     14.02148477    -19.90191030
 H    -17.89366070     14.71985018    -21.53432191
 H    -16.82778941     13.73753512    -22.84760707
 H    -16.02812944     12.81311423    -21.55367639
 H    -15.58029342     15.21660883    -20.57239676
 H    -16.09255177     15.80351921    -22.17283241
 H    -14.83044905     14.74276566    -23.60909486
 H    -13.71971257     14.27779768    -22.29824173
 H    -13.88226767     16.98189801    -21.98988480
 H    -14.66579673     16.91804892    -23.58684196
 H    -12.83594425     15.75558995    -24.63770742
 H    -11.83682529     16.15920672    -23.22097827
 H    -11.90291154     18.18116697    -22.80147945
 H    -12.55156554     18.52104545    -24.42382260
 H    -11.02373747     17.40741586    -25.71421677
 H     -9.93570450     17.30829518    -24.30900290
 H    -10.13007958     19.78552998    -24.00893801
 H    -10.85399558     19.83606072    -25.63425611
 H     -9.69176088     18.88635802    -27.03143921
 H     -8.28788471     18.94139856    -25.93856734
 H     -8.25671320     21.13746961    -25.36927142
 H     -9.35932297     21.49059310    -26.72124116
 H     -8.36167638     20.55432221    -28.46970831
 H     -6.84937860     20.43087665    -27.53912608
 H     -6.26413947     22.11743461    -26.64712869
 H     -7.33868393     23.07793064    -27.69167081
 H     -6.66214812     22.23351981    -29.74865795
 H     -5.23073952     21.53022260    -28.95827253
 H     -4.50261379     23.54407396    -27.93054379
 H     -5.61403454     24.43866714    -28.99483398
 H     -4.74445294     23.45463667    -31.01848433
 H     -3.35180865     22.87582821    -30.07308001
 H     -3.43262758     25.59413067    -29.58289831
 H     -4.59313394     25.58017100    -30.93245260
 H     -2.81868142     24.46406708    -32.34558380
 H     -1.66194913     24.91028102    -31.06842673
 H     -2.33933114     27.28062746    -31.20792941
 H     -3.15762780     26.87823020    -32.73656726
 H     -1.51177228     25.88644006    -33.90799516
 H     -0.31525695     26.53659709    -32.76173448
 H     -0.40193431     28.44719363    -32.36243830
 H     -1.38424328     28.73879555    -33.81787778
 H      0.67231922     27.37605981    -34.89091544
 H      1.45094114     27.66003512    -33.31567812
 H      1.40734283     29.74829044    -32.91434968
 H      1.04402682     30.08554273    -34.62389028
 H      2.33225963     29.13748073    -35.89941045
 H      3.48344681     28.85816445    -34.57087096
 H      3.95098300     30.37590123    -33.44472989
 H      3.34998513     31.51378004    -34.67448598
 H      4.37326964     30.81918720    -36.53758584
 H      5.50379901     29.85952544    -35.55309647
 H      6.23862495     31.44350959    -34.08759683
 H      5.56755830     32.70966660    -35.14342950
 H      6.51447163     32.13958051    -37.13865746
 H      7.66085426     31.08625278    -36.27577030
 H      8.46354821     32.61890752    -34.73511657
 H      7.75088436     33.92973150    -35.70574390
 H      8.49894130     33.60749727    -37.73923490
 H      9.74871268     32.50711265    -37.11035347
 H     10.60979014     33.98372408    -35.47774619
 H      9.73595044     35.31322447    -36.27593137
 H     10.94894395     34.54074612    -38.42339318
 H     11.97773820     33.56904891    -37.34373879
 H     12.76178561     34.92757829    -35.85428587
 H     12.30000697     36.31810596    -36.86495888
 H     13.53907620     35.27182229    -38.78740609
 H     14.63544879     34.75224176    -37.12986232
 H     15.11984052     35.56459985    -36.07434958
 H     14.95253137     36.91311794    -37.22403357
 H     15.78377916     36.47328851    -39.05198180
 H     16.69404605     35.11926840    -38.34042688
 H     17.71590517     35.81592301    -36.61955052
 H     17.47307682     37.50170991    -37.13668066
 H     18.44348876     36.94266467    -39.37138996
 H     19.01887279     35.42350138    -38.64383048
 H     20.12213833     35.93637510    -36.87640551
 H     20.23535912     37.62691568    -37.42185970
 H     20.99265300     37.55671729    -39.45420220
 H     21.50828935     35.87021484    -39.21317252
 H     22.68710030     35.87886550    -37.37453256
 H     22.82861834     37.65081709    -37.46633045
 H     23.52912911     38.13067210    -39.44128267
 H     24.02484992     36.43929506    -39.68982092
 H     25.08301364     35.56480624    -38.35261171
 H     25.54920944     37.13284835    -37.65106193
 H     26.24201848     37.91509437    -39.92905030
 H     26.13958066     36.21467640    -40.44514320
 H     27.36105411     35.08675340    -39.04865869
 H     28.13142321     36.59219739    -38.49328808
 H     28.76151741     37.42714341    -40.57755237
 H     28.45837164     35.81995979    -41.27992699
 H     29.79387830     34.58976130    -39.78793682
 H     30.54198763     36.11454434    -39.25536215
 H     31.05363994     36.59138519    -41.69872024
 H     30.45106022     35.73559978    -42.18412571
 H     29.49407456     34.95130298    -42.63571734
 H     30.66447108     33.68608142    -42.19113545
 H     32.44070033     33.73165068    -42.60039309
 H     32.14094833     34.92738201    -43.88438763
 H     30.33706414     32.98480257    -44.49287389
 H     31.25762411     32.02918164    -43.30644030
 H     33.37220412     32.29310168    -44.31923260
 H     32.55383668     32.87960945    -45.78707116
 H     31.08707688     31.68230659    -46.45572465
 H     31.70800023     30.32861040    -45.48092853
 H     33.83508869     30.19842763    -45.94389246
 H     33.59155973     31.21915211    -47.38162744
 H     31.79648472     29.80418265    -48.23019652
 H     32.30234389     28.56744729    -47.05424635
 H     34.64580591     28.90224686    -48.20282655
 H     33.74203005     29.78975430    -49.45334101
 H     32.19694580     28.83071976    -50.24426856
 H     32.20915683     27.72873150    -49.60822653
 H     32.35316947     26.65867784    -48.73703559
 H     33.78024683     26.26441315    -49.72510048
 H     32.47777389     26.45284346    -51.80595341
 H     31.00797470     26.42522995    -50.80236260
 H     31.26829091     24.59033368    -49.56530348
 H     32.55183175     24.03407342    -50.66592335
 H     31.23135206     24.27458747    -52.65311537
 H     29.80407594     23.82373400    -51.28447386
 H     29.61975169     22.91703854    -50.26373605
 H     30.78184186     21.92424720    -51.17597421
 H     30.17087770     21.87889436    -53.21222009
 H     28.55444012     22.46906723    -52.75714626
 H     27.95876977     21.04909880    -51.12677658
 H     29.26449509     19.94464917    -51.62027334
 H     28.94583416     19.67952574    -53.79545549
 H     27.09680705     19.50219721    -52.89054349
 H     26.71007088     18.80426437    -51.85300138
 H     28.15535932     17.85727221    -52.28033479
 H     27.40605067     17.73261120    -54.64366180
 H     25.81533737     18.30324120    -54.08484226
 H     25.42407195     16.73035669    -52.43465947
 H     26.73791152     15.73471574    -53.10606945
 H     25.60631899     15.87445410    -55.35647095
 H     24.17985665     16.49605124    -54.49212793
 H     23.78962293     14.99323462    -52.92600904
 H     24.84679619     13.83638876    -53.77002267
 H     23.39617988     14.33242095    -55.84570044
 H     22.26439520     15.11449412    -54.71623523
 H     21.81173090     13.70852135    -53.16934271
 H     22.45610559     12.38239877    -54.16656225
 H     21.01420429     13.06528138    -56.06414003
 H     20.11900851     14.08599470    -54.91303816
 H     19.76785623     12.08521031    -53.44813210
 H     20.30102839     11.09383186    -54.82695873
 H     19.18517746     11.58196781    -56.53201586
 H     17.96165206     12.39204295    -55.52452862
 H     17.34426872     11.17413944    -53.96922651
 H     18.02824474      9.74699165    -54.78389986
 H     17.48044503      9.55381966    -56.71031919
 H     16.13032961     10.68863210    -56.47020312
 H     15.46908605      9.20389510    -54.47847904
 H     16.61665646      8.01313730    -55.13684420
 H     15.16187813      8.30777519    -57.31181997
 H     14.00727273      9.14625856    -56.24781871
 H     13.60346155      7.76673663    -54.61059722
 H     14.30124048      6.42952546    -55.55570965
 H     12.95591236      6.82505748    -57.49774303
 H     11.91722290      7.87449907    -56.50372933
 H     11.32117911      6.83088695    -54.77358122
 H     11.79984562      5.28622430    -55.51733007
 H     10.83208776      5.25024532    -57.47131482
 H      9.75307234      6.57368015    -56.96880847
 H      9.04943360      5.43055037    -54.94921968
 H      9.76240569      3.94161572    -55.61481043
 H      8.64496691      3.95695593    -57.67332744
 H      7.52368744      5.17440826    -57.01849248
 H      6.88208871      4.04567280    -55.08985147
 H      7.57774416      2.55296542    -55.76524382
 H      6.62097821      2.41160989    -57.77512437
 H      5.40888465      3.61699511    -57.27899702
 H      4.89386574      2.23524724    -55.25592263
 H      5.80350441      0.91791153    -56.03402983
 H      5.01320320      0.62398083    -57.98779382
 H      3.55503166      1.54812063    -57.55424101
 H      3.58326413     -0.03349317    -55.42168852
 H      4.45757384     -1.01151433    -56.27593576
 H      1.87077103      0.83052862    -56.17111079
 H      2.84032853      0.58066910    -54.69944672
 H      2.69924806     -1.63297425    -54.38788847
 H      1.33453462     -1.70082067    -55.52859910
 H     -0.00979700     -0.07148124    -54.59808310
 H      0.96476280     -0.05306996    -53.17181991
 H      1.78013615     -0.66442696    -52.16746279
 H      0.71351135     -2.07820340    -52.34582860
 H     -1.32303500     -1.26718722    -52.23768171
 H     -0.68650370      0.25222126    -51.56352118
 H      0.51022616     -1.13321466    -49.81107700
 H     -0.51047481     -2.49353240    -50.33640724
 H     -2.58529927     -1.40616333    -50.07238587
 H     -1.76154071     -0.14507400    -49.12404934
 H     -0.68483413     -1.83874727    -47.67296225
 H     -1.84042653     -2.93640205    -48.19012512
 H     -1.28792382     -0.00761854    -47.05328167
 H      0.09656959     -1.12218216    -47.14915985
 H     -1.23345356     -2.59666031    -45.50101530
 H     -2.27968094     -1.17603935    -45.26540746
 H     -0.78067356      0.41792491    -44.71530320
 H      0.43725891     -0.84474223    -44.41433997
 H     -0.40930830     -2.28826159    -43.09920864
 H     -1.70397940     -1.14953115    -42.65718332
 H     -0.44232319      0.68438289    -42.09603777
 H      1.00210055     -0.35370610    -42.03063146
 H     -0.05251933     -1.93379814    -40.50406159
 H     -1.32024181     -0.71668532    -40.22160319
 H      0.49526835      0.93497365    -39.62879024
 H      1.59998963     -0.45824631    -39.54635411
 H      0.36111753     -1.75231192    -38.04101744
 H     -0.60981164     -0.31218387    -37.65166614
 H      1.45904427      0.97224489    -37.15548299
 H      2.32508332     -0.58281447    -37.14970447
 H      0.92999431     -1.65851765    -35.57179398
 H      0.25132117     -0.06873526    -35.14722197
 H      2.44373843      0.90094037    -34.73009613
 H      3.10531365     -0.75150748    -34.72910673
 H      1.50570315     -1.50309985    -33.03885124
 H      1.13063076      0.20906838    -32.72890395
 H      3.42778781      0.82922922    -32.34979507
 H      3.81730047     -0.90270852    -32.21964812
 H      1.84877222     -0.71423650    -30.39557150
 H      2.07762846      1.04012270    -30.59080285
 H      4.29414876      1.25273135    -30.17744245
 H      4.30825324     -0.38279040    -29.47520580
 H      2.80883895     -0.57771436    -28.04282056
 H      2.63852188      1.19155705    -27.94828241
 H      4.93576705      1.65327845    -27.59732870
 H      5.18467370     -0.07123485    -27.23350732
 H      3.37780361      0.01391629    -25.52581129
 H      3.46832614      1.78798440    -25.63874784
 H      5.95013341      1.59829087    -25.15616198
 H      5.62450747     -0.08550738    -24.67965610
 H      3.96940870      0.22628978    -23.14051713
 H      4.38161928      1.95647435    -23.07115957
 H      6.71254424      1.58857679    -22.63818700
 H      6.32321002     -0.10726821    -22.26296007
 H      4.61432749      0.63250740    -20.61518979
 H      5.32972071      2.25852585    -20.72718630
 H      7.48125972      1.92491553    -20.32695648
 H      7.10997104      0.31034792    -19.67612409
 H      5.52077550      0.69165825    -18.18073912
 H      5.91368251      2.42752917    -18.20609432
 H      8.23295708      2.17835093    -17.80720778
 H      7.92789699      0.49277242    -17.32344122
 H      6.31070110      0.74168608    -15.76985414
 H      6.68271606      2.47974645    -15.67489261
 H      8.83816106      2.59730289    -15.34502987
 H      8.86909553      0.87604294    -14.89273139
 H      7.18409091      0.92607914    -13.28344449
 H      7.30027231      2.70208117    -13.25925077
 H      9.24434327      3.33393020    -12.98974271
 H      9.71647320      1.71636588    -12.41629205
 H      7.74543795      1.92904225    -10.77295070
 H      7.71538132      3.65190086    -11.21918099
 H      9.90392811      4.20516471    -10.78988933
 H     10.08611091      2.69012992     -9.87351295
 H      8.58949974      2.48111886     -8.46096246
 H      8.19305077      4.21154601     -8.59025581
 H      9.29108554      5.58536493     -8.57403037
 H     10.54440913      4.59620236     -7.78726226
 H      9.75756498      4.40226590     -5.84972579
 H      7.92155478      5.07056280     -6.51743949
 H     10.30510797      6.40431775     -6.03818742
 H     10.78100040      4.83604193     -5.34370633
 H      8.90711689      4.77559605     -3.80898526
 H      8.64182671      6.50083830     -4.15744898
 H     10.36371043      7.60367464     -3.91187496
 H     11.10584823      6.28294804     -2.97743428
 H      8.62380031      6.81300216     -1.78915135
 H      8.69928468      8.24384950     -2.84520280
 H     10.58595332      9.22911445     -2.35901491
 H     10.70416097      8.27688929     -0.85982818
 H      9.11030644      8.25887796      0.29710380
 H      8.46031638      9.69852018     -0.52338988
 H      9.79734391     11.21140047     -0.68345384
 H     10.82334969     10.47450802      0.57056703
 H      9.03726181     10.23224609      2.16027920
 H      8.06367108     11.33279083      1.15569520
 H      9.77345539     13.05993895      1.15016361
 H     10.57358057     12.18600650      2.47843634
 H      9.38734512     11.73801151      4.02528913
 H      8.18502896     12.93562561      3.48823886
 H      8.74973216     14.70507733      3.03852651
 H      9.73843672     14.25368996      4.79955081
 H      9.23476637     13.70454343      5.93705635
 H      7.68315586     14.30481322      5.30424702
 H      8.77771192     16.55403739      4.95461554
 H     10.11229238     15.95188918      5.96683053
 H      8.48869446     15.39017840      7.77429039
 H      7.29594822     16.37277668      6.89104428
 H      8.52307641     18.33177590      6.70344594
 H      9.64646543     17.71571210      7.93905477
 H      7.82338380     17.26606982      9.51146752
 H      6.77218250     18.25485698      8.46957384
 H      7.73778559     20.13606716      8.16220866
 H      8.82957380     19.81572962      9.53102166
 H      7.30421884     19.28104402     11.15165935
 H      6.01234024     19.96608543     10.13675314
 H      6.60281136     21.93216415      9.55554100
 H      7.84837429     21.95018832     10.82696335
 H      6.02203531     21.30263372     12.47252148
 H      4.86266481     21.72243706     11.18881908
 H      5.48029167     23.81066045     10.64385258
 H      6.43565705     23.91184438     12.14228691
 H      4.54325566     23.24505276     13.53097815
 H      3.49023808     23.54975922     12.12863204
 H      4.14217964     25.70887860     11.63636855
 H      4.92620203     25.81119175     13.23108093
 H      2.93360881     25.12573508     14.42524809
 H      2.00868200     25.42163324     12.93353051
 H      2.54326097     27.47747175     12.35052978
 H      3.20980853     27.76749233     13.97529717
 H      1.00519661     26.96838055     14.92941276
 H      0.35269230     27.11761606     13.28009970
 H      0.81755355     29.14540069     12.63910452
 H      1.15592958     29.60851274     14.32412545
 H     -0.59145105     28.96243660     15.46600310
 H     -1.51901193     28.78454562     13.95727772
 H     -1.12172043     30.88570652     13.05419355
 H     -0.54007179     31.43051157     14.64577735
 H     -1.63184964     31.10064462     16.19684132
 H     -3.06207889     30.83159551     15.17198839
 H     -2.76256421     32.89953840     13.94664482
 H     -1.61006719     33.40912382     15.20376056
 H     -3.35344248     32.96041423     16.94678076
 H     -4.53230585     32.87272821     15.61604451
 H     -4.29650833     34.70666844     14.47921271
 H     -3.39135363     35.43609723     15.82713529
 H     -4.90881191     35.01687183     17.53302242
 H     -6.14711383     34.65535422     16.30657224
 H     -6.14698614     36.37418013     14.95724180
 H     -5.82748763     37.24867003     16.79299544
 H     -6.56589566     37.00483290     18.00302985
 H     -7.86254823     36.40045445     16.94393331
 H     -8.07906718     37.99164995     15.41396260
 H     -7.15410353     39.10867448     16.44593406
 H     -8.27685467     38.93318972     18.40829943
 H     -9.62812459     38.15355165     17.55126924
 H     -9.50874279     40.25680199     16.01152791
 H     -8.45689782     40.94972723     17.26920174
 H     -9.80712091     40.69628920     19.10461583
 H    -11.18871685     40.39557744     18.02339810
 H    -11.16938017     42.10240452     16.62483651
 H    -10.07381883     42.98532915     17.71499986
 H    -10.59964549     43.08825396     19.60458532
 H    -12.27549498     42.65065818     19.19433528
 H    -13.04218322     43.76430254     17.67501670
 H    -11.75868622     44.98002593     17.88218513
 H    -13.34934715     44.16605683     20.26882929
 H    -14.47079137     44.26474056     18.53622046
 H    -14.62921744     45.44564719     17.73818104
 H    -14.13998787     46.34277215     19.19560613
 H    -15.36122560     45.55183639     20.81585917
 H    -16.46289130     44.80784930     19.63218583
 H    -17.77451668     45.98655383     19.20728516
 H    -16.47311507     47.57232200     19.31578733
 H    -17.79760368     46.66765646     21.18357025
 H    -18.15364516     45.67372318     20.72283206
 H    -18.33224352     44.45841804     20.08526945
 H    -19.50519667     45.35011065     19.08660441
 H    -20.18215695     46.26399483     21.56266051
 H    -19.87942146     45.18092032     21.98986081
 H    -21.17516166     46.88099943     19.80293878
 H    -20.52335660     47.44088218     21.36176787
 H    -21.57522660     46.57985343     22.94309490
 H    -22.89788505     46.12283026     21.84310803
 H    -22.84960008     48.62855099     21.14771459
 H    -21.82563544     48.87080432     22.58335954
 H    -23.66362713     47.78063070     23.95349877
 H    -24.70557063     47.98207151     22.52449841
 H    -24.64598659     50.00308277     21.90832456
 H    -23.95739908     50.48036487     23.47877535
 H    -26.11767576     49.10692706     24.30224826
 H    -26.60946014     49.20143144     22.59418394
 H    -26.61464421     51.08089444     21.85080450
 H    -26.60197473     51.76162324     23.49540611
 H    -28.50248330     50.10821687     24.04782592
 H    -28.81231656     50.05588745     22.52168190
 H    -28.16024275     51.84617262     25.05874178
 H    -28.42888322     50.09566160     25.23709580
 H    -30.51191142     49.81014900     24.52261844
 H    -30.79448040     51.56290234     24.65020038
 H    -29.90723131     51.82241742     26.84928136
 H    -30.17563342     50.26357319     27.12269765
 H    -31.17600979     53.05067040     25.98358066
 H    -29.62740256     52.93684606     26.85371072
 H    -30.44637358     52.21519573     28.90863010
 H    -31.92449807     53.48086122     28.25371276
 H    -31.78083885     54.81333377     27.73051744
 H    -30.21086778     54.84085397     28.56878955
 H    -31.24663197     54.06042674     30.66561903
 H    -32.60465135     55.37168491     29.82438314
 H    -32.35877938     56.66794338     29.35864180
 H    -30.92840642     56.60734342     30.41629369
 H    -31.60811789     55.90105418     32.34010947
 H    -33.04701625     57.25357453     31.72150741
 H    -32.66431834     58.56982005     31.25664014
 H    -31.12403932     58.29437508     32.10513130
 H    -32.44777073     57.62683625     34.14830905
 H    -33.86984207     58.32105978     33.33342656
 H    -33.14552394     60.39851559     32.82938636
 H    -31.78859049     60.18973095     33.96226201
 H    -33.49257518     59.55490129     35.73201263
 H    -34.72975107     60.19011609     34.62108300
 H    -33.56666491     62.35405009     34.45350794
 H    -33.41130000     61.76831827     36.43107441
 H    -34.37600254     61.34127985     37.29522370
 H    -35.47459960     62.20016513     36.18902875
 H    -34.84357178     64.07134547     35.72141272
 H    -33.72457167     64.06968057     37.10564632
 H    -34.86415087     63.67666125     38.85613148
 H    -36.40281261     63.60757021     37.96393580
 H    -35.48289431     65.12972255     38.03513447
