1502
Starting Conformation (Frame 1)
 C      0.00000000      0.00000000      0.00000000
 C      1.54000000      0.00000000      0.00000000
 C      2.16637443     -0.76969615      1.17763446
 C      3.69597010     -0.62268916      1.27925148
 C      4.44605415     -0.96678261     -0.02096912
 C      5.97331797     -1.07232918      0.14613905
 C      6.73092959     -1.33160553     -1.16930780
 C      8.26103702     -1.20890623     -1.04554946
 C      9.01567295     -1.42083554     -2.37114766
 C     10.53644481     -1.20116250     -2.26820749
 C     10.96406270      0.27509355     -2.36521800
 C     12.47235885      0.50534170     -2.15634364
 C     12.82927358      1.11562987     -0.78822075
 C     14.34291493      1.24522001     -0.53583962
 C     15.07505828     -0.10393995     -0.41201101
 C     16.47095454     -0.12108817     -1.06222603
 C     17.24664679     -1.43375369     -0.84586811
 C     18.77726140     -1.26399410     -0.84509030
 C     19.55467764     -2.59153207     -0.77532683
 C     21.06932701     -2.41966162     -0.55647104
 C     21.85614421     -3.74348771     -0.55468437
 C     23.37938824     -3.56699611     -0.69673483
 C     24.18395139     -4.85967497     -0.46595463
 C     25.64418414     -4.62082218     -0.03902411
 C     26.41384430     -5.90865157      0.30842184
 C     27.92028837     -5.84171182     -0.00422069
 C     28.62075551     -7.21318215     -0.00808434
 C     29.81522354     -7.30373588     -0.97588914
 C     30.41981623     -8.71513083     -1.09434578
 C     31.64684004     -8.79515080     -2.02149699
 C     32.07130179    -10.23239785     -2.37611389
 C     33.45107580    -10.32899707     -3.05323446
 C     33.71966502    -11.68225243     -3.73745646
 C     34.96460303    -12.41665441     -3.20605917
 C     35.17753040    -13.81305724     -3.81950932
 C     36.60176594    -14.36847040     -3.63331226
 C     36.84048565    -15.72439349     -4.32330173
 C     38.28782564    -16.23831551     -4.21064682
 C     38.49561745    -17.65459139     -4.77861267
 C     39.92311627    -18.20126585     -4.59154543
 C     40.12722148    -19.62295348     -5.14719401
 C     41.52517704    -20.20790231     -4.87304968
 C     41.79850099    -21.54133666     -5.59335993
 C     43.29011063    -21.91598301     -5.67298905
 C     43.56622218    -23.23179635     -6.42398683
 C     45.03983288    -23.67745762     -6.38580914
 C     45.26338349    -25.13948844     -6.81486742
 C     45.63512457    -25.30660192     -8.29995384
 C     45.57475369    -26.76160547     -8.80087301
 C     46.15999096    -26.96339353    -10.21097191
 C     46.17965643    -28.43110121    -10.67685539
 C     46.92360821    -28.65636804    -12.00628783
 C     46.85885122    -30.10582468    -12.52250676
 C     46.72079527    -31.16145625    -11.40977025
 C     46.81612359    -32.61486731    -11.90987906
 C     46.74737666    -33.66873448    -10.78905889
 C     46.53401245    -35.10769056    -11.29451026
 C     46.91067202    -36.19383808    -10.26980975
 C     47.59384084    -37.42797202    -10.88770439
 C     48.36949350    -38.28829331     -9.87290874
 C     49.13438799    -37.47172203     -8.81472739
 C     50.03510439    -38.32106869     -7.89880150
 C     50.53004611    -37.57846619     -6.64374205
 C     52.04416688    -37.70925368     -6.39487879
 C     52.52592819    -37.03624350     -5.09620125
 C     53.94924047    -37.44238280     -4.67095657
 C     54.20044833    -37.34925903     -3.15443998
 C     55.61921907    -37.76936016     -2.72758565
 C     55.93210685    -37.50113965     -1.24375312
 C     57.39539190    -37.77859487     -0.85207024
 C     57.80070617    -37.19117638      0.51257618
 C     59.19582413    -37.63072889      0.99428093
 C     59.62754656    -36.99333086      2.32804984
 C     59.31262316    -35.48964619      2.43461287
 C     59.12623393    -34.98955390      3.87917743
 C     58.59380492    -33.54798572      3.97918019
 C     58.40151294    -33.05007209      5.42372365
 C     58.08807075    -31.54615632      5.53138676
 C     56.59380731    -31.20540568      5.38083522
 C     56.26868489    -29.71310358      5.57814179
 C     56.89230592    -28.79023224      4.51465447
 C     56.56732616    -27.29791220      4.71206028
 C     57.33552708    -26.35877767      3.76364387
 C     56.92610422    -24.87880004      3.88043059
 C     57.57254507    -23.96474478      2.82297270
 C     56.63131102    -22.87465914      2.27763633
 C     55.34382348    -23.42303812      1.63478617
 C     54.26432281    -22.35372585      1.38408804
 C     52.87794320    -22.93112857      1.04326889
 C     51.82971768    -21.86576125      0.67203352
 C     50.40069955    -22.20499829      1.13509445
 C     49.87011669    -23.54708814      0.59762198
 C     48.33676276    -23.68033265      0.64930984
 C     47.58259750    -22.44574087      0.12146715
 C     46.10081603    -22.70913703     -0.20494689
 C     45.30783563    -21.44380279     -0.58139253
 C     43.78012907    -21.63797707     -0.57839245
 C     42.98155410    -20.32207325     -0.53069405
 C     41.47840260    -20.49075146     -0.81997460
 C     40.72296578    -19.16147835     -1.00422494
 C     39.20260014    -19.26933048     -0.78409714
 C     38.51590048    -17.92362905     -0.48554862
 C     36.98065940    -18.00920587     -0.40004175
 C     36.30073305    -16.68591185     -0.00230680
 C     34.77030189    -16.78529270      0.13734963
 C     34.06546116    -15.42445824      0.28877326
 C     32.53459560    -15.49144329      0.13526868
 C     31.87165939    -14.12748730     -0.13257389
 C     30.36034745    -14.09703354      0.16171983
 C     29.72090528    -12.70413806      0.01153362
 C     28.25061434    -12.63771386      0.46478009
 C     27.61907207    -11.23877927      0.33933538
 C     26.20602072    -11.13307815      0.94242175
 C     25.46269738     -9.83595268      0.57291406
 C     24.04895678     -9.73106667      1.17452559
 C     23.30715759     -8.43214305      0.80828606
 C     21.82580924     -8.41688091      1.22896901
 C     21.22496208     -7.00453820      1.35494819
 C     19.79778225     -6.98027040      1.93302156
 C     19.08135044     -5.62613026      1.77608228
 C     17.64756966     -5.60725144      2.33779064
 C     17.10022134     -4.19386340      2.61045175
 C     15.61250579     -4.16404945      3.00720553
 C     15.02577196     -2.74566374      3.13180648
 C     13.48775957     -2.69646078      3.07100394
 C     12.90610684     -1.27053113      3.07318219
 C     11.41591344     -1.20133118      2.69090610
 C     10.81708730      0.21586507      2.75844906
 C      9.49291799      0.37370725      1.98821436
 C      8.80214229      1.73337811      2.20204630
 C      7.34356602      1.77917708      1.71005269
 C      6.64656617      3.13272782      1.94176718
 C      5.13250117      3.11379914      1.66096673
 C      4.76610026      2.67530570      0.23090593
 C      3.41800245      3.22811446     -0.26772697
 C      3.14267413      2.95698753     -1.75845985
 C      1.85811669      3.62038839     -2.28894216
 C      1.58320958      3.34991933     -3.77987226
 C      0.27514335      3.97518937     -4.29910258
 C      0.18973396      4.06452710     -5.83413483
 C     -0.97247222      4.93494492     -6.34721340
 C     -2.36742565      4.40467195     -5.96706145
 C     -3.52091970      5.05837394     -6.75046758
 C     -4.88054959      4.36001422     -6.56258390
 C     -6.09108059      5.23403980     -6.93980262
 C     -7.45073754      4.53588272     -6.75136255
 C     -8.65794414      5.38836813     -7.18439935
 C    -10.02206513      4.73314343     -6.89899698
 C    -11.21946751      5.69062083     -7.04413333
 C    -12.53501945      4.99326851     -7.43735442
 C    -13.58176451      5.93576224     -8.05995408
 C    -14.91570049      5.24872699     -8.40664901
 C    -16.08498385      6.22631613     -8.62732048
 C    -17.38830526      5.54951670     -9.09088907
 C    -18.66612451      6.20072140     -8.52989852
 C    -19.97026232      5.62378840     -9.11125288
 C    -21.23128159      5.99292989     -8.30803127
 C    -22.54963329      5.57087962     -8.98288115
 C    -23.79660413      5.77156524     -8.10175175
 C    -25.08604659      5.17501513     -8.69594541
 C    -26.27007576      5.13719399     -7.71195126
 C    -27.63101465      4.86591494     -8.37967352
 C    -28.75196143      4.49764438     -7.38999928
 C    -30.10056268      4.17847410     -8.06156836
 C    -31.08946044      3.42404364     -7.15353978
 C    -32.53984994      3.42354238     -7.67119803
 C    -33.55766944      2.82546326     -6.68228710
 C    -35.02632584      3.11814323     -7.04143444
 C    -36.04685413      2.36920747     -6.16438414
 C    -37.48554622      2.39930583     -6.71289044
 C    -38.45690119      1.45906487     -5.97531573
 C    -39.91082857      1.54236012     -6.47607225
 C    -40.88612917      0.61741481     -5.72449729
 C    -42.08237602      0.14682690     -6.57251881
 C    -43.13034168     -0.66024739     -5.78384965
 C    -44.36627016     -1.05930296     -6.61139750
 C    -45.22237811     -2.16451486     -5.96549827
 C    -46.44125810     -2.58521505     -6.80748575
 C    -47.37080561     -3.59187860     -6.10451356
 C    -48.75494265     -3.73302434     -6.76469728
 C    -49.61706910     -4.86529568     -6.17622503
 C    -50.92125677     -5.12744124     -6.95209502
 C    -51.64980346     -6.41836427     -6.53455765
 C    -53.01246351     -6.61933060     -7.22330296
 C    -53.61634940     -8.02132463     -7.01999392
 C    -54.62021011     -8.43531624     -8.11199878
 C    -55.11568758     -9.88823855     -7.98904018
 C    -55.80889882    -10.42297212     -9.25597278
 C    -56.75687075    -11.60891375     -8.99811299
 C    -57.17469992    -12.36544498    -10.27274207
 C    -58.37805490    -13.30623844    -10.07666948
 C    -58.81044897    -14.04526535    -11.35669862
 C    -59.75036346    -15.23866015    -11.10377648
 C    -60.17812947    -15.98122741    -12.38331159
 C    -60.91674113    -17.30683113    -12.12096142
 C    -61.38086289    -18.02894991    -13.39952915
 C    -62.32774286    -19.21543266    -13.14015105
 C    -63.02596568    -19.74779819    -14.40532766
 C    -63.69770858    -21.12101496    -14.21921698
 C    -64.29359492    -21.70726331    -15.51259718
 C    -65.04087596    -23.03857824    -15.31067735
 C    -65.29928385    -23.81587979    -16.61475850
 C    -66.09443286    -25.12017853    -16.41945655
 C    -66.16956205    -26.00259499    -17.67933623
 C    -66.78186604    -27.39414426    -17.43382766
 C    -66.97641485    -28.22761109    -18.71409474
 C    -67.89338264    -29.45131476    -18.53155877
 C    -68.02790644    -30.32671268    -19.79139282
 C    -68.84842220    -31.61205338    -19.57632731
 C    -68.89669147    -32.53751395    -20.80628373
 C    -70.19528300    -33.35705768    -20.92293758
 C    -70.32991820    -34.13231063    -22.24674128
 C    -71.42352949    -35.21642788    -22.22930135
 C    -71.69396316    -35.85551325    -23.60408698
 C    -72.69781492    -37.02273469    -23.56567164
 C    -73.19744571    -37.46513388    -24.95356647
 C    -74.31385490    -38.52496038    -24.90886412
 C    -75.07945654    -38.68460513    -26.23550185
 C    -76.28794176    -39.63538716    -26.15078467
 C    -76.64978692    -40.30912001    -27.48747915
 C    -77.95326404    -41.12803058    -27.44351457
 C    -78.26829795    -41.87481145    -28.75296940
 C    -79.32246756    -42.98720405    -28.60161170
 C    -79.81795572    -43.56685236    -29.93955764
 C    -80.56402946    -44.90717904    -29.80354902
 C    -81.44515139    -45.25948010    -31.01644148
 C    -82.92853890    -44.88375881    -30.84325083
 C    -83.73248334    -44.88498120    -32.15674687
 C    -85.20766601    -44.47612213    -31.98860895
 C    -86.07062592    -44.71519691    -33.24150298
 C    -87.58516935    -44.59067729    -32.99199733
 C    -88.45576765    -45.20285204    -34.10505647
 C    -89.94022355    -45.35756195    -33.72551000
 C    -90.77483981    -46.13068056    -34.76344224
 C    -92.24438633    -45.67808616    -34.84824387
 C    -92.99523327    -46.21565113    -36.08066133
 C    -94.36490201    -45.55286875    -36.31799458
 C    -95.25413713    -46.29780619    -37.33087616
 C    -96.47625392    -45.48946108    -37.80480519
 C    -97.47325001    -46.30075369    -38.65298152
 C    -98.51536192    -45.43887269    -39.38970665
 C    -99.69704579    -46.24093142    -39.96583600
 C   -100.58601394    -45.43843560    -40.93399719
 C   -101.46172200    -46.31259022    -41.85083365
 C   -102.31317774    -45.51162259    -42.85336743
 C   -102.90568860    -46.36243320    -43.99207380
 C   -104.14476051    -45.73848856    -44.66064982
 C   -104.70814450    -46.56556114    -45.83118364
 C   -106.10439086    -46.11640852    -46.30060671
 C   -106.65830999    -46.92916594    -47.48559573
 C   -108.10543249    -46.56916492    -47.87008984
 C   -108.57699626    -47.19910843    -49.19387184
 C   -110.10805938    -47.27700744    -49.34008228
 C   -110.58017630    -47.84207450    -50.69263720
 C   -111.98848581    -48.46400936    -50.65440953
 C   -112.71037389    -48.46397198    -52.01473214
 C   -114.17863612    -48.92320980    -51.94468463
 C   -114.74159510    -49.42841495    -53.28611854
 C   -116.18795152    -49.95044231    -53.20161670
 C   -116.87742688    -50.10938741    -54.56944716
 C   -118.29492278    -50.70614651    -54.49080890
 C   -119.09858981    -50.58598626    -55.79896822
 C   -120.55519202    -51.07301726    -55.68622600
 C   -121.40498181    -50.80273551    -56.94177572
 C   -122.73199322    -51.58323903    -56.97991975
 C   -123.72973164    -51.07119528    -58.03534822
 C   -125.01181515    -51.91692535    -58.14760921
 C   -125.58820963    -51.99443363    -59.57356919
 C   -126.80761309    -52.92555011    -59.70652521
 C   -127.06288000    -53.42229816    -61.14168380
 C   -127.62272325    -54.85488075    -61.21838233
 C   -127.30606406    -55.58127297    -62.53886758
 C   -128.00740616    -56.94418584    -62.68782323
 C   -127.80121678    -57.60785252    -64.06209849
 C   -128.17998209    -59.10006021    -64.10021711
 C   -128.32439052    -59.67351765    -65.52214987
 C   -128.97025984    -61.07066453    -65.57147947
 C   -129.10260309    -61.64973835    -66.99230978
 C   -130.14919443    -62.77264840    -67.11608213
 C   -130.05639231    -63.57355314    -68.42815658
 C   -131.01965237    -64.77299724    -68.49931774
 C   -130.88175787    -65.61177186    -69.78346814
 C   -131.92334667    -66.73899328    -69.91021441
 C   -131.73487461    -67.62919486    -71.15263923
 C   -132.58349082    -68.91418828    -71.13706798
 C   -132.28827358    -69.87397801    -72.30465115
 C   -132.91713039    -71.27028967    -72.14200783
 C   -132.34011553    -72.33217188    -73.09650247
 C   -133.06457227    -73.68972541    -73.03477032
 C   -132.49125137    -74.74982714    -73.99346081
 C   -133.15310464    -76.13435248    -73.86446529
 C   -132.56655833    -77.19950078    -74.80946399
 C   -131.17354779    -77.70731029    -74.39322954
 C   -130.75695581    -79.02347884    -75.07568942
 C   -129.26251065    -79.36250105    -74.92305389
 C   -128.38529068    -78.86489148    -76.08687081
 C   -126.87599979    -78.87154354    -75.78093493
 C   -125.98733404    -78.58605276    -77.00583011
 C   -124.49473052    -78.41085320    -76.66961615
 C   -123.60959971    -78.10147462    -77.89126600
 C   -122.10447534    -78.03225179    -77.57281846
 C   -121.19476365    -78.24716711    -78.79667958
 C   -119.69027923    -78.14265233    -78.48490515
 C   -118.79301476    -78.93216724    -79.45608107
 C   -117.29193349    -78.86240157    -79.11920159
 C   -116.43351455    -79.90030056    -79.86584917
 C   -114.91634399    -79.68399658    -79.71417167
 C   -114.08244103    -80.97028491    -79.86137284
 C   -112.57019839    -80.76322898    -79.65680005
 C   -112.16586311    -80.50305927    -78.19378101
 C   -110.67680355    -80.15723736    -78.00747795
 C   -110.34003936    -79.56107573    -76.62806461
 C   -108.97256122    -78.85542233    -76.56759291
 C   -108.63982225    -78.25124490    -75.19069262
 C   -107.15707549    -77.87480491    -75.01361919
 C   -106.77052841    -77.51541656    -73.56689138
 C   -105.38108143    -76.86495554    -73.43296029
 C   -104.90025984    -76.70857413    -71.97832787
 C   -103.55927717    -75.96439654    -71.83845221
 C   -103.27499964    -75.44783948    -70.41579446
 C   -101.91454958    -74.74192750    -70.26591483
 C   -101.57429515    -74.33835628    -68.81920920
 C   -100.18421397    -73.69529129    -68.65876687
 C    -99.99873564    -72.92578719    -67.33775921
 C    -98.54494403    -72.50099647    -67.05911466
 C    -98.40425791    -71.43459245    -65.95703032
 C    -96.94626828    -71.10769689    -65.58419589
 C    -96.77617498    -69.77599268    -64.82972114
 C    -95.30987314    -69.39734849    -64.55010086
 C    -95.12136566    -67.95663201    -64.03980588
 C    -93.66386474    -67.60085865    -63.69236323
 C    -93.45204935    -66.12189206    -63.31901076
 C    -92.10705484    -65.83750531    -62.62495460
 C    -91.79721901    -64.33923829    -62.44946181
 C    -90.65989973    -64.04732336    -61.45302289
 C    -90.36209237    -62.54825892    -61.26403462
 C    -89.27380717    -62.25321621    -60.21513752
 C    -88.73624178    -60.81075288    -60.25898941
 C    -87.38119943    -60.62548926    -59.55107865
 C    -86.88362090    -59.16837464    -59.52222429
 C    -85.71734930    -58.92394878    -58.54669031
 C    -85.38169735    -57.43640325    -58.33187392
 C    -84.42545368    -57.17386036    -57.15362552
 C    -84.44603367    -55.72152993    -56.64185137
 C    -83.49679471    -55.46125376    -55.45745207
 C    -83.47536138    -53.99662569    -54.98205201
 C    -82.69384490    -53.77406844    -53.67388526
 C    -82.48324803    -52.29145947    -53.31455314
 C    -81.46161326    -52.05952463    -52.18580666
 C    -81.63097410    -50.71503315    -51.45419229
 C    -80.44668070    -50.34471536    -50.54209917
 C    -80.26164543    -48.82928221    -50.34004884
 C    -78.95477737    -48.44833563    -49.61992693
 C    -78.92554126    -46.99899035    -49.10017362
 C    -77.63317095    -46.62892760    -48.34888636
 C    -77.40966476    -45.11290655    -48.19616056
 C    -76.14678853    -44.74341680    -47.39602248
 C    -75.68889063    -43.28544814    -47.58643491
 C    -74.35008776    -42.95478044    -46.90096736
 C    -73.82722436    -41.53720454    -47.19878009
 C    -72.49588179    -41.20129011    -46.50143623
 C    -72.00995326    -39.75962467    -46.74033835
 C    -70.68273260    -39.42122334    -46.03637111
 C    -70.31615550    -37.92601389    -46.07599362
 C    -69.01551256    -37.57991834    -45.32756473
 C    -68.74132522    -36.06878541    -45.21399293
 C    -67.62611782    -35.70786231    -44.21517014
 C    -67.13775811    -34.25118979    -44.32104727
 C    -66.10878573    -33.85579019    -43.24565200
 C    -65.32487476    -32.57083433    -43.57118546
 C    -64.11359244    -32.32627439    -42.65217209
 C    -63.10865576    -31.29653090    -43.20110798
 C    -61.90599551    -31.03937145    -42.27424374
 C    -60.80766302    -30.16138506    -42.90226096
 C    -59.64020553    -29.84206765    -41.95006381
 C    -58.51187388    -29.01745364    -42.59696368
 C    -57.53821448    -28.38584543    -41.58470954
 C    -56.36509676    -27.62767754    -42.23322805
 C    -55.58325082    -26.72969039    -41.25653158
 C    -54.46485593    -25.90594364    -41.92153847
 C    -53.72980877    -24.95534775    -40.95838057
 C    -52.37192773    -24.45597901    -41.48600729
 C    -51.59663642    -23.57699364    -40.48705380
 C    -50.20433422    -23.14419712    -40.98281760
 C    -49.32105594    -22.50863660    -39.89310099
 C    -47.89170681    -22.17643485    -40.36022311
 C    -47.01640179    -21.51727355    -39.27811983
 C    -45.63447195    -21.06144396    -39.78219254
 C    -44.93774061    -20.04104044    -38.86298522
 C    -43.50681547    -19.67786406    -39.30134141
 C    -42.92940102    -18.43946725    -38.59101339
 C    -41.46373036    -18.13604860    -38.95343113
 C    -40.87229946    -16.92460166    -38.20898113
 C    -39.35420085    -16.75134876    -38.40123110
 C    -38.71598070    -15.72131993    -37.45080192
 C    -37.22641214    -15.44902441    -37.73123131
 C    -36.65053043    -14.25291553    -36.95066498
 C    -35.15013470    -14.00825250    -37.19673946
 C    -34.36173539    -13.62654886    -35.93011842
 C    -32.89265694    -13.24924539    -36.19667164
 C    -31.95818089    -13.48216926    -34.99496411
 C    -30.58956446    -12.78763757    -35.12190818
 C    -29.61684472    -13.10520989    -33.97101109
 C    -28.39212289    -12.17352172    -33.91089808
 C    -27.47844459    -12.41764466    -32.69549857
 C    -26.27523007    -11.45992293    -32.61398836
 C    -25.34418667    -11.72436794    -31.41614570
 C    -24.08998644    -10.83116140    -31.38850786
 C    -23.01534461    -11.29119810    -30.38595553
 C    -21.82288299    -10.32505421    -30.25867127
 C    -20.79416935    -10.73720266    -29.18933414
 C    -19.60298417     -9.76971660    -29.06030462
 C    -18.70147982    -10.04504527    -27.84248525
 C    -17.50655967     -9.08168765    -27.71715396
 C    -16.81419012     -9.11807369    -26.34205379
 C    -15.47238475     -8.36371522    -26.29621017
 C    -14.73754110     -8.47405701    -24.94734787
 C    -13.46017960     -7.61849551    -24.85811725
 C    -12.73444087     -7.71586054    -23.50333928
 C    -11.59148607     -6.69832926    -23.33046813
 C    -10.58754100     -7.06631459    -22.22218969
 C     -9.53464105     -5.97744260    -21.94405397
 C     -8.51400903     -6.35666068    -20.85496998
 C     -7.41362438     -5.30231666    -20.63335702
 C     -6.66071270     -5.45377811    -19.29852242
 C     -5.54711939     -4.41155383    -19.08573499
 C     -4.70877859     -4.64130627    -17.81451569
 C     -3.92693100     -3.39967092    -17.34690901
 C     -3.10133016     -3.62483786    -16.06656409
 C     -2.19951423     -2.43605574    -15.68561122
 C     -1.16644493     -2.75933612    -14.59023110
 C     -0.50326326     -1.51639221    -13.96823390
 C      0.03205372     -1.73982980    -12.54166060
 C      0.44762016     -0.44516600    -11.81864594
 C      1.04030474     -0.67378335    -10.41577064
 C      1.72119457      0.56919109     -9.81327287
 C      2.34201544      0.33179847     -8.42409103
 C      3.15756957      1.52413829     -7.89042708
 C      4.01028765      1.19514583     -6.65097726
 C      4.79632678      2.39685261     -6.09452124
 C      5.59660907      2.08427839     -4.81645801
 C      6.24022393      3.32096439     -4.16226564
 C      7.10742644      2.99842282     -2.93119832
 C      8.08583492      4.12232191     -2.54239545
 C      9.03772289      3.75309814     -1.38949342
 C     10.23877717      4.70524172     -1.23952270
 C     10.98944700      4.56086067      0.09735759
 C     12.16690607      5.53943591      0.26343181
 C     13.05152306      5.25245185      1.49090602
 C     14.34434550      4.48179625      1.16486908
 C     15.13542421      4.03164881      2.40710970
 C     16.61301385      3.70308223      2.12360867
 C     17.17547433      2.55540232      2.98271812
 C     18.71139474      2.44687244      2.95497374
 C     19.29219647      1.50465635      4.02572029
 C     19.56845646      0.07651979      3.52004610
 C     20.40725968     -0.77918113      4.48740595
 C     21.07533371     -1.99905677      3.82620968
 C     22.09562717     -2.71937667      4.72717610
 C     22.63281300     -4.03629461      4.13661828
 C     23.94496339     -4.52204159      4.77997761
 C     24.32813758     -5.96632067      4.40737130
 C     25.68738606     -6.41927653      4.97206109
 C     26.13912254     -7.80683800      4.47991548
 C     27.60963674     -8.13593775      4.79753372
 C     28.27820931     -9.06978103      3.77159637
 C     29.81748310     -9.03209757      3.80016455
 C     30.48660754    -10.06148907      2.87052718
 C     32.01463279     -9.90515978      2.75962196
 C     32.67398153    -10.88243149      1.76876413
 C     34.18750873    -10.66391124      1.58687321
 C     34.92086504    -11.85903653      0.95011262
 C     36.45462673    -11.78850092      1.06927562
 C     37.18009158    -13.05412252      0.57581568
 C     38.70152444    -12.88049056      0.41243277
 C     39.42942449    -14.15128498     -0.06384768
 C     40.93576430    -13.95322720     -0.31546944
 C     41.65180813    -15.20757591     -0.84978259
 C     43.17398996    -15.20715790     -0.61619682
 C     43.92907178    -16.29293681     -1.40520606
 C     45.39511420    -15.93705573     -1.71450892
 C     45.79716684    -16.16018550     -3.18425951
 C     45.57867508    -17.60120609     -3.68157329
 C     45.54299227    -17.73590123     -5.21525642
 C     44.16466391    -18.13049939     -5.77748699
 C     44.04200300    -17.97116520     -7.30430293
 C     42.81663407    -18.67922040     -7.91153340
 C     42.69889868    -18.52741989     -9.43950427
 C     41.53051873    -19.31641086    -10.05916672
 C     41.71305923    -20.84488354    -10.01388743
 C     40.39356498    -21.63005445     -9.89539027
 C     39.61444165    -21.35319324     -8.59619255
 C     38.19197186    -21.94306690     -8.58106756
 C     37.45474838    -21.76618858     -7.24061405
 C     38.11282637    -22.50642897     -6.06138654
 C     37.28523105    -22.47690181     -4.76299749
 C     36.81612973    -21.06911200     -4.35108512
 C     35.76188659    -21.06366141     -3.22852478
 C     35.00661465    -19.72928215     -3.08501070
 C     33.99904043    -19.70190797     -1.92068908
 H     -0.36333333      0.00000000      1.02766186
 H     -0.36333333     -0.88998127     -0.51383093
 H     -0.36333333      0.88998127     -0.51383093
 H      1.88274777     -0.35402041      0.97226206
 H      1.88274777      0.06400724      1.03272796
 H      3.19693073     -0.43510558      1.29638991
 H      3.17237580     -0.38399735      1.34285458
 H      4.15391419     -1.53821172      0.90481103
 H      4.10763268     -0.61784246      0.26998916
 H      5.38849535     -0.41919430     -0.02815483
 H      5.47820177     -1.20867441      0.23252577
 H      6.44469278     -0.42954614     -0.59732295
 H      6.44433257     -0.41543960     -0.58512104
 H      7.42955680     -0.51051736     -1.33003813
 H      7.78430102     -1.48361231     -0.93393027
 H      8.71588318     -1.72864358     -1.88880983
 H      8.61331218     -0.52301100     -1.81597139
 H      9.70408057     -0.58733523     -2.51069038
 H     10.08534098     -1.36381226     -2.16950778
 H     10.84937096     -0.57365269     -3.10271852
 H     10.71346656     -0.29626637     -1.68689320
 H     11.52177997      0.53030302     -1.46415220
 H     11.86087233      0.33232932     -2.98211066
 H     12.60964649      1.48688203     -1.70265797
 H     12.69629508      0.37083988     -1.09810839
 H     13.62499370      0.51805483     -0.34343591
 H     13.51287337      0.43702341     -0.27803981
 H     14.68459382      0.34220211     -0.02995998
 H     14.86689047      0.64190124     -1.27716013
 H     15.44803007     -0.38321194     -1.39740392
 H     16.14510848      0.07601180     -0.51549978
 H     16.98862389      0.79777599     -0.78689514
 H     16.74556542     -1.15776718     -1.25712473
 H     18.00954277     -1.51269936     -1.62037266
 H     17.94713346     -1.28643446     -0.02384896
 H     19.02475789     -0.38897806     -0.24409744
 H     19.20545457     -2.01239666     -1.51190678
 H     19.09310057     -3.29580895     -1.46745447
 H     19.48055207     -2.97914792      0.24072403
 H     21.22058106     -1.66773517      0.21801512
 H     21.51349464     -2.07417497     -1.48998809
 H     21.49956742     -4.35525453     -1.38335460
 H     22.88709468     -3.52907810     -0.27313570
 H     23.85841227     -4.00638993      0.17823320
 H     23.59885621     -3.30313845     -1.73129413
 H     23.68611704     -5.67230210     -0.99500859
 H     24.19115343     -5.07267599      0.60300687
 H     25.65578675     -3.83864587      0.72003162
 H     26.20646005     -4.28859916     -0.91170599
 H     26.19279928     -6.65616736     -0.45345691
 H     26.06628408     -6.26456955      1.27827971
 H     28.29961436     -4.87998117      0.34115728
 H     28.04994683     -5.91692074     -1.08386522
 H     27.99082108     -7.91825350     -0.55044677
 H     28.73129459     -7.54449947      1.02444166
 H     30.41100335     -6.39703680     -0.87080246
 H     29.42825199     -7.36838390     -1.99283243
 H     29.60305751     -9.43168628     -1.18125659
 H     30.98913378     -8.92130242     -0.18799553
 H     32.29797078     -7.94898586     -1.80210314
 H     31.30160358     -8.72998962     -3.05332343
 H     31.17582017    -10.80384718     -2.62036445
 H     32.55602977    -10.67162339     -1.50420810
 H     34.14345684     -9.68240896     -2.51413121
 H     33.35357329     -9.97997704     -4.08123168
 H     32.82727364    -11.96781776     -4.29440356
 H     33.80103416    -12.44679712     -2.96483075
 H     34.95908019    -12.35722263     -2.11769463
 H     35.85064783    -11.91330868     -3.59292824
 H     35.01352274    -13.74364879     -4.89486226
 H     34.44645059    -14.49399238     -3.38367718
 H     36.91100877    -14.18110353     -2.60503091
 H     37.26775506    -13.83959363     -4.31510978
 H     36.40756490    -15.68131919     -5.32271367
 H     36.33767955    -16.49771580     -3.74256201
 H     38.62474677    -16.09157645     -3.18446370
 H     38.91276471    -15.65330052     -4.88541242
 H     37.97554714    -17.72033431     -5.73428245
 H     38.06356731    -18.37090867     -4.07981211
 H     40.24492664    -17.97836937     -3.57426707
 H     40.57948484    -17.69508298     -5.29940078
 H     39.65545067    -19.67852665     -6.12823628
 H     39.64361005    -20.32793241     -4.47101009
 H     41.78952671    -19.99322206     -3.83761178
 H     41.98560189    -20.45786570     -5.82888819
 H     41.44497292    -21.45463927     -6.62078461
 H     41.24188589    -22.32713907     -5.08267980
 H     43.40495353    -22.94195615     -5.32328884
 H     43.76357447    -21.28071658     -6.42156673
 H     42.96095680    -23.24260062     -7.33042883
 H     44.17596943    -23.87000263     -5.78445494
 H     45.40940859    -23.55261700     -5.36800335
 H     45.60901805    -23.03754636     -7.06008047
 H     44.64589067    -25.33784067     -7.69091480
 H     44.92488939    -25.78914084     -6.00772834
 H     46.19917819    -26.23279953     -8.40996061
 H     44.73805195    -25.14619867     -8.89797685
 H     44.65963063    -27.21679792     -8.42212557
 H     46.43771359    -27.29664928     -8.40447885
 H     47.09822223    -26.41225620    -10.27476643
 H     45.75099675    -27.88590901    -10.62302642
 H     45.22102455    -28.88392514    -10.42372416
 H     46.97781776    -28.94888118    -10.14493208
 H     47.85419398    -28.08949536    -11.97862055
 H     46.29641001    -28.28580656    -12.81709397
 H     45.83491024    -30.46316897    -12.41319108
 H     46.37981197    -30.72011160    -11.76009415
 H     46.05414647    -31.94770313    -11.76402330
 H     47.68400503    -31.25967637    -10.90909094
 H     47.64629280    -32.68162493    -12.61305934
 H     45.88603538    -32.86310912    -12.42116363
 H     45.94766386    -33.38834468    -10.10353646
 H     47.69901268    -33.66640681    -10.25756714
 H     47.19305826    -35.27283173    -12.14685234
 H     45.49637679    -35.20892512    -11.61257283
 H     46.51204429    -35.90153249     -9.29834005
 H     47.99778516    -36.25048683    -10.21434857
 H     48.33993821    -37.08400984    -11.60403444
 H     46.83614844    -38.01552650    -11.40614626
 H     47.75331427    -38.40590749     -8.98151092
 H     48.20696923    -37.87445724     -8.87770747
 H     48.47985905    -36.67751208     -8.45566974
 H     50.01201145    -37.03262127     -9.28914028
 H     50.57545272    -39.03716496     -8.51793784
 H     49.39920760    -38.85705073     -7.19420337
 H     49.68949814    -37.03342491     -6.21419681
 H     51.30420912    -36.87311589     -6.94582249
 H     52.56122072    -37.56393918     -7.34337182
 H     52.24471194    -38.71362507     -6.02189113
 H     51.82708324    -37.28986234     -4.29908569
 H     52.52642959    -35.95703822     -5.24922317
 H     54.58866742    -37.42524048     -5.55353196
 H     53.91117877    -38.45503528     -4.26947648
 H     53.34254316    -37.77964215     -2.63784623
 H     54.29535687    -36.29691787     -2.88672658
 H     56.33230317    -37.31947468     -3.41839252
 H     55.68848046    -38.85536222     -2.79005467
 H     55.07603971    -37.82104386     -0.64969054
 H     56.08448817    -36.42969081     -1.11384038
 H     58.04203281    -37.35710171     -1.62167991
 H     57.53951780    -38.85810878     -0.80760185
 H     57.00466724    -37.40221180      1.22663925
 H     57.91290033    -36.11264158      0.40178293
 H     59.88624190    -37.56143617      0.15367292
 H     59.13259373    -38.66642486      1.32810092
 H     58.78392164    -37.03542480      3.01698025
 H     59.09963287    -36.04656127      2.44221854
 H     58.30135945    -35.32408461      2.06308215
 H     60.02232402    -34.94580400      1.81118656
 H     59.91768729    -35.41712931      4.49471040
 H     58.15791837    -35.33659478      4.23977082
 H     57.78114465    -33.43223448      3.26204357
 H     59.40388924    -32.86491432      3.72368683
 H     59.27602976    -33.34085258      6.00576063
 H     57.51427842    -33.53020058      5.83650874
 H     57.01083502    -31.41260293      5.43225715
 H     59.00550541    -30.99015406      5.33831906
 H     56.01858650    -31.91729713      5.97280783
 H     56.32375686    -31.30509726      4.32953395
 H     57.19668690    -29.14679951      5.49932570
 H     56.33265027    -29.48616853      6.64233581
 H     56.74517282    -29.24678107      3.53587205
 H     57.95957276    -28.70428852      4.71875044
 H     56.68782766    -27.05770773      5.76841306
 H     55.53130995    -27.13083959      4.41734490
 H     57.30763601    -26.78615976      2.76131327
 H     58.36918845    -26.29832199      4.10421586
 H     56.84826681    -24.62714844      4.93812280
 H     55.95343735    -24.75368719      3.40465130
 H     57.51221957    -24.46362318      1.85571824
 H     58.61870622    -23.81707289      3.09100229
 H     56.09867337    -22.42984780      3.11819567
 H     55.61271876    -23.11925068      2.57887506
 H     54.94328508    -24.20353651      2.28169517
 H     55.59996703    -23.85054920      0.66539215
 H     54.74570619    -21.47454304      0.95582686
 H     53.81328471    -22.09109633      2.34100515
 H     52.67071079    -23.75254634      1.72914612
 H     52.90595069    -23.30933667      0.02137153
 H     52.29420356    -21.14944421     -0.00564101
 H     51.52158973    -21.35549377      1.58460366
 H     50.45094675    -22.57454023      2.15930828
 H     50.22710726    -23.26695487      0.96127288
 H     50.65855033    -24.29282348      0.69936281
 H     49.62340596    -23.42067987     -0.45653871
 H     47.92818905    -22.76985274      1.08770903
 H     48.04183267    -23.84573697      1.68553262
 H     48.06223841    -22.11980745     -0.80146947
 H     47.65540243    -21.65465162      0.86777623
 H     45.66982365    -23.29476381      0.60707949
 H     46.05035187    -23.28073814     -1.13167530
 H     45.91215491    -20.85262970     -1.26944237
 H     45.12610318    -20.87015745      0.32745528
 H     43.50727122    -22.19570884      0.31747801
 H     43.50607143    -22.21376897     -1.46239251
 H     43.43225302    -19.62194594     -1.23410875
 H     43.04883697    -19.91671962      0.47889075
 H     41.11797954    -21.35770558     -0.26627272
 H     41.35238150    -20.66411514     -1.88869519
 H     41.32269022    -18.51194519     -1.64182769
 H     40.60127125    -18.69786281     -0.02527087
 H     39.02734494    -19.86675477      0.11059266
 H     38.76603155    -19.77137244     -1.64749840
 H     38.90637809    -17.17839202     -1.17854863
 H     38.76060981    -17.63318736      0.53614653
 H     36.71865418    -18.88790302      0.18931773
 H     36.58667862    -18.11871385     -1.41043136
 H     36.76247857    -15.87882928     -0.57108515
 H     36.46711294    -16.52153067      1.06230419
 H     34.53477258    -17.69631427      0.68750019
 H     34.33793845    -16.84205956     -0.86161952
 H     34.49447330    -14.73361724     -0.43702789
 H     34.24995667    -15.05319760      1.29685408
 H     32.17078645    -16.35008820      0.69960175
 H     32.30159757    -15.62573297     -0.92103535
 H     32.46350396    -13.59969535     -0.88040786
 H     31.87011574    -13.55866421      0.79723141
 H     30.18604245    -14.60110899      1.11231212
 H     29.84523578    -14.63457978     -0.63439827
 H     30.09852585    -12.25064935     -0.90490006
 H     30.01772930    -12.09673741      0.86655405
 H     28.15919631    -13.17109701      1.41095405
 H     27.63671804    -13.12905698     -0.29007968
 H     27.90250221    -10.82010789     -0.62631550
 H     28.01494031    -10.61116069      1.13776086
 H     26.20739963    -11.63664257      1.90912800
 H     25.50876231    -11.63554430      0.27200511
 H     25.60749755     -9.64916816     -0.49115570
 H     25.89556905     -9.01722525      1.14772490
 H     24.09622200    -10.04411225      2.21753492
 H     23.39108248    -10.40275288      0.62303757
 H     23.45347808     -8.24201588     -0.25498341
 H     23.73995018     -7.61564143      1.38631347
 H     21.75361941     -8.80837328      2.24367210
 H     21.26994287     -9.06323653      0.54975108
 H     21.54435239     -6.41808964      0.49345651
 H     21.60926902     -6.54870885      2.26743259
 H     19.76230818     -7.65679304      2.78692946
 H     19.11016980     -7.33049478      1.16319560
 H     19.25691526     -5.26071775      0.76427662
 H     19.50921397     -4.92672929      2.49432395
 H     17.65340758     -6.10202123      3.30901089
 H     17.00380752     -6.15902787      1.65279935
 H     17.35234972     -3.55892362      1.76110921
 H     17.58168360     -3.80724158      3.50868205
 H     15.43544094     -4.95751615      3.73326244
 H     15.01580032     -4.34909014      2.11400761
 H     15.36575004     -2.15798231      2.27907825
 H     15.40036288     -2.29950396      4.05306817
 H     13.09419697     -3.49705242      3.69731177
 H     13.18021632     -2.85875571      2.03796110
 H     13.49030330     -0.66101105      2.38376231
 H     12.99525074     -0.86554158      4.08121832
 H     10.88941259     -1.99658978      3.21859977
 H     11.33011487     -1.35984690      1.61591244
 H     11.52202217      0.90811957      2.29806821
 H     10.68017141      0.48048949      3.80693748
 H      8.86204466     -0.48674935      2.21117912
 H      9.71701530      0.39329759      0.92167950
 H      9.55800032      2.51595999      2.13613542
 H      8.35853524      1.73963086      3.19767359
 H      6.84372572      0.86634111      2.03407455
 H      7.35041929      1.82268147      0.62094278
 H      7.33543414      3.92675777      1.65353577
 H      6.41375643      3.22114318      3.00293746
 H      4.71285024      2.21103466      2.10482411
 H      4.95683243      2.51249631      0.76896034
 H      5.37063655      1.80557622     -0.02640029
 H      4.99987382      3.49436706     -0.44923260
 H      3.35906044      4.28255058      0.00206981
 H      2.61776693      2.68043256      0.23003568
 H      3.41156655      1.92292552     -1.97412773
 H      3.76804567      3.62590457     -2.34969620
 H      1.82024411      4.64296582     -1.91344106
 H      1.00223803      3.06210591     -1.90961065
 H      1.76102799      2.29234150     -3.97483313
 H      2.27576724      3.94969886     -4.37040457
 H      0.20672515      4.99366360     -3.91683409
 H     -0.56030915      3.38745021     -3.91873196
 H      0.53577940      3.11926295     -6.25225949
 H      0.84367894      4.87034173     -6.16747959
 H     -1.00428541      5.84868622     -5.75377868
 H     -1.86202888      4.69751979     -5.76375966
 H     -2.34532410      4.10156680     -4.92028602
 H     -2.58678242      3.53863828     -6.59153586
 H     -3.23488766      5.11166856     -7.80091765
 H     -3.67050032      6.06616197     -6.36305444
 H     -5.00883729      4.13903791     -5.50295579
 H     -4.86877678      3.42886773     -7.12908864
 H     -5.87112315      5.73592953     -7.88204751
 H     -6.23385261      5.97832509     -6.15637709
 H     -7.44035882      4.01857861     -5.79199362
 H     -7.57737518      3.80973992     -7.55434421
 H     -8.42234884      5.85540066     -8.14068146
 H     -8.81922957      6.16100341     -6.43265356
 H     -9.99595369      4.31074246     -5.89450924
 H    -10.17748942      3.93497907     -7.62485987
 H    -11.08398991      6.27319214     -7.95537232
 H    -11.22981245      6.35941488     -6.18348967
 H    -12.63879710      4.09170009     -6.83361226
 H    -12.47658355      4.72024069     -8.49098673
 H    -13.07802702      6.57809698     -8.78227992
 H    -14.00804614      6.54755931     -7.26491426
 H    -15.19913956      4.60901654     -7.57086625
 H    -14.76548895      4.63807294     -9.29695128
 H    -15.72994246      7.05157898     -9.24456180
 H    -16.40028630      6.60829494     -7.65635367
 H    -17.54319315      4.65484079     -8.48784283
 H    -17.27434908      5.26701579    -10.13745834
 H    -18.56424252      7.28276394     -8.61298880
 H    -18.75909476      5.92411591     -7.47968619
 H    -19.88565264      4.53725153     -9.13071652
 H    -20.08680011      5.99742836    -10.12855919
 H    -21.17870555      7.05184973     -8.05500057
 H    -21.24036053      5.40073035     -7.39298085
 H    -22.43173861      4.55502396     -9.36002585
 H    -22.74040915      6.24776837     -9.81566335
 H    -23.72629418      6.74973381     -7.62599683
 H    -23.80427907      4.99516380     -7.33674070
 H    -24.85729359      4.18255932     -9.08427972
 H    -25.41638336      5.81733855     -9.51227760
 H    -26.31198939      6.09276481     -7.18923943
 H    -26.09286962      4.33726977     -6.99304986
 H    -27.50469921      4.05661493     -9.09882435
 H    -27.94302985      5.77046547     -8.90172223
 H    -28.69698633      5.17889049     -6.54089300
 H    -28.58514437      3.47629541     -7.04777369
 H    -29.91160610      3.53622936     -8.92175270
 H    -30.54598165      5.11469058     -8.39802138
 H    -31.07747265      3.89293050     -6.16961833
 H    -30.75532306      2.39010413     -7.06739292
 H    -32.52226871      3.20986036     -8.73990327
 H    -32.96319340      4.41424021     -7.50567425
 H    -33.34243832      3.21915182     -5.68891664
 H    -33.43573604      1.74231285     -6.67811269
 H    -35.15689902      2.95385972     -8.11104258
 H    -35.23535472      4.16166930     -6.80593439
 H    -35.72380517      2.44048112     -5.12579884
 H    -36.05905807      1.32303324     -6.47011368
 H    -37.44841846      2.19853905     -7.78359779
 H    -37.89602595      3.39482210     -6.54391192
 H    -38.28875751      1.56472136     -4.90355810
 H    -38.23884799      0.43491306     -6.27807944
 H    -39.89787931      1.55315964     -7.56594182
 H    -40.34719226      2.47118036     -6.10867641
 H    -40.68066932      0.69748546     -4.65703538
 H    -40.70899193     -0.40677178     -6.05277190
 H    -41.71168310     -0.14806759     -7.55421326
 H    -42.77484839      0.98153854     -6.68132367
 H    -43.31075893     -0.15355128     -4.83579444
 H    -42.72525004     -1.65407987     -5.59332990
 H    -44.02654680     -1.42364002     -7.58090591
 H    -44.98486967     -0.17304039     -6.75272446
 H    -45.33714781     -1.93419452     -4.90630968
 H    -44.69748926     -3.11337612     -6.07619616
 H    -46.12171054     -2.69072643     -7.84423872
 H    -47.19381645     -1.79982316     -6.73737516
 H    -47.51691707     -3.26284683     -5.07568436
 H    -46.88492915     -4.56758806     -6.10840323
 H    -48.61524328     -3.79456670     -7.84395472
 H    -49.34140836     -2.84627126     -6.52422494
 H    -49.54242459     -4.82354549     -5.08958566
 H    -49.22173583     -5.81700615     -6.53127263
 H    -50.69236611     -5.12556168     -8.01778988
 H    -51.62053657     -4.32155916     -6.72924566
 H    -51.65251072     -6.47361931     -5.44596243
 H    -51.10085663     -7.26822705     -6.94013208
 H    -52.89930951     -6.38525368     -8.28184166
 H    -53.72854850     -5.93150428     -6.77361726
 H    -53.49897609     -8.29636700     -5.97181684
 H    -53.06605509     -8.72535764     -7.64418435
 H    -54.20170883     -8.16664959     -9.08193430
 H    -55.54748290     -7.88532893     -7.95143994
 H    -55.35034719    -10.08294202     -6.94255777
 H    -54.31361163    -10.55231558     -8.31118282
 H    -55.21458398    -10.12997233    -10.12144432
 H    -56.79744119     -9.96873223     -9.32342719
 H    -57.35346246    -11.38483589     -8.11382376
 H    -56.15243941    -12.49692092     -8.81316428
 H    -56.28878839    -12.51099641    -10.89086466
 H    -57.89795010    -11.75420551    -10.81255266
 H    -59.13326163    -12.77969759     -9.49313068
 H    -58.04048090    -14.18433553     -9.52613402
 H    -57.91587196    -14.41528955    -11.85761184
 H    -59.32296676    -13.33529776    -12.00582999
 H    -60.50538330    -14.93281394    -10.37955059
 H    -59.16122180    -16.05740650    -10.69065844
 H    -59.29809574    -16.11502347    -13.01238968
 H    -60.90971352    -15.36666658    -12.90790644
 H    -61.64521258    -17.14199843    -11.32707255
 H    -60.18630419    -18.04764257    -11.79575335
 H    -60.56603060    -18.00259402    -14.12303016
 H    -62.24141308    -17.49445316    -13.80185562
 H    -63.06570885    -18.90927250    -12.39868484
 H    -61.73910035    -20.04397219    -12.74629545
 H    -62.28556737    -19.81623811    -15.20233852
 H    -63.80344410    -19.03947022    -14.69150730
 H    -64.23650407    -21.11341317    -13.27172470
 H    -62.91833723    -21.88239482    -14.18789611
 H    -63.57117104    -21.56770739    -16.31679112
 H    -65.20780256    -21.16182452    -15.74673584
 H    -65.66776482    -22.94862069    -14.42353700
 H    -64.30298609    -23.82575475    -15.15584945
 H    -64.38715903    -23.79744842    -17.21123867
 H    -66.09974137    -23.31512199    -17.15937709
 H    -66.92391933    -24.91772543    -15.74191324
 H    -65.43237632    -25.86146942    -15.97194236
 H    -65.17810804    -26.04085096    -18.13061821
 H    -66.86927600    -25.54379413    -18.37790774
 H    -67.66703664    -27.27377584    -16.80926024
 H    -66.04689951    -28.00420832    -16.90871240
 H    -66.07635884    -28.13692573    -19.32218631
 H    -67.82711439    -27.82160159    -19.26142150
 H    -68.76495298    -29.14339110    -17.95393592
 H    -67.34254396    -30.21313143    -17.97991387
 H    -67.03638539    -30.45881018    -20.22444737
 H    -68.66895403    -29.80669322    -20.50324797
 H    -69.73909415    -31.35797964    -19.00165347
 H    -68.23942408    -32.31672140    -19.01005504
 H    -67.89206388    -32.60557395    -21.22364597
 H    -69.56682568    -32.09410439    -21.54276734
 H    -71.03715936    -32.69678068    -20.71466261
 H    -70.16576226    -34.15369996    -20.17957387
 H    -69.37361615    -34.60805783    -22.46411419
 H    -70.57010348    -33.42142883    -23.03734745
 H    -72.31358312    -34.79789853    -21.75947402
 H    -71.06239098    -36.05809872    -21.63831136
 H    -70.73554828    -36.06748836    -24.07801470
 H    -72.24924003    -35.14051820    -24.21116990
 H    -73.53749706    -36.73201377    -22.93439101
 H    -72.19944905    -37.88925571    -23.13107669
 H    -72.34112044    -37.51556598    -25.62607197
 H    -73.90234276    -36.71799997    -25.31827330
 H    -75.03586283    -38.23031898    -24.14729273
 H    -73.86780537    -39.48135034    -24.63599404
 H    -74.35472440    -38.70242997    -27.04947089
 H    -75.73975371    -37.82572979    -26.35567173
 H    -76.83818687    -39.40976448    -25.23731616
 H    -75.91624040    -40.65914034    -26.10756975
 H    -75.72877618    -40.65236703    -27.95866988
 H    -77.13015217    -39.56774119    -28.12599827
 H    -78.70712777    -40.54428420    -26.91528201
 H    -77.75983833    -42.05112809    -26.89709213
 H    -77.35124059    -42.34424270    -29.10897516
 H    -78.61313207    -41.14745384    -29.48791180
 H    -80.14077086    -42.60334089    -27.99240830
 H    -78.85789932    -43.83298975    -28.09473608
 H    -78.95368100    -43.73040254    -30.58328160
 H    -80.48358793    -42.83868482    -30.40302910
 H    -81.25384002    -44.83171723    -28.96297367
 H    -79.83107057    -45.68863225    -29.60304430
 H    -80.87876232    -45.05012590    -31.92389629
 H    -82.32840491    -44.62110685    -30.99539847
 H    -82.98082798    -43.88301610    -30.41443866
 H    -83.38500332    -45.59729754    -30.15724593
 H    -83.46766571    -45.77990260    -32.71985193
 H    -83.45487317    -44.00001131    -32.72933824
 H    -85.24954098    -43.60522357    -31.33448191
 H    -85.74233017    -45.30499906    -31.52471536
 H    -85.82880030    -45.69990945    -33.64145496
 H    -85.82231386    -43.95233303    -33.97939174
 H    -87.76017875    -43.70540469    -32.38063479
 H    -87.91750874    -45.47698277    -32.45152243
 H    -88.03430677    -46.17069762    -34.37661802
 H    -88.42552608    -44.53823489    -34.96846222
 H    -90.26525004    -44.44133654    -33.23257110
 H    -90.03158394    -46.19461154    -33.03333858
 H    -90.20670090    -47.00671370    -35.07630661
 H    -90.94192568    -45.48032283    -35.62205574
 H    -92.26816683    -44.58835223    -34.84444137
 H    -92.77055597    -46.05604915    -33.97166559
 H    -92.75125350    -47.27160517    -36.19700106
 H    -92.65364893    -45.66510694    -36.95720067
 H    -94.25262748    -44.47685009    -36.18503493
 H    -95.06552232    -45.93928390    -35.57778211
 H    -95.20479593    -47.36425397    -37.11097939
 H    -94.86183091    -46.11455694    -38.33118388
 H    -96.15086985    -44.47220261    -38.02254452
 H    -97.20918933    -45.47168893    -36.99821369
 H    -97.62266564    -47.26843649    -38.17406089
 H    -97.04086254    -46.44805861    -39.64264931
 H    -98.00233464    -44.58594847    -39.83403006
 H    -99.24444355    -45.08495141    -38.66081728
 H   -100.02757244    -46.95433113    -39.21091018
 H    -99.34846838    -46.77968481    -40.84693677
 H    -99.93895885    -44.87703378    -41.60797619
 H   -101.19063007    -44.74510439    -40.34933389
 H   -101.90431848    -47.10544801    -41.24785365
 H   -100.82329877    -46.75225543    -42.61713012
 H   -101.68661694    -44.73453832    -43.29115917
 H   -103.13818735    -45.05026892    -42.31058576
 H   -103.30544913    -47.28057099    -43.56159208
 H   -102.10467900    -46.60694799    -44.68970990
 H   -103.94700236    -44.67982542    -44.82865007
 H   -104.99121972    -45.84684449    -43.98251577
 H   -104.73049845    -47.61320571    -45.53111508
 H   -104.04281576    -46.44667235    -46.68634627
 H   -106.11249178    -45.02803415    -46.35956097
 H   -106.83632704    -46.44578502    -45.56312413
 H   -106.47051473    -47.98566655    -47.29418149
 H   -106.12881608    -46.62369808    -48.38805104
 H   -108.19909183    -45.48320191    -47.87359374
 H   -108.77425881    -46.98910810    -47.11881155
 H   -108.26140671    -48.24231814    -49.20859404
 H   -108.10207858    -46.66420093    -50.01632376
 H   -110.53202801    -46.32620350    -49.01709240
 H   -110.47378154    -48.07578867    -48.69487236
 H   -109.97319844    -48.71584395    -50.92971279
 H   -110.42972591    -47.07751665    -51.45481564
 H   -112.64284500    -47.79650855    -50.09373430
 H   -111.92518134    -49.42462880    -50.14323163
 H   -112.00225485    -48.78531864    -52.77854085
 H   -113.03865102    -47.44680393    -52.22851539
 H   -114.64830379    -48.44026320    -51.08778623
 H   -114.19338747    -50.00421069    -51.80569016
 H   -113.99750136    -50.07783072    -53.74729491
 H   -114.92026524    -48.56664161    -53.92917663
 H   -116.77113146    -49.24916155    -52.60478637
 H   -116.17325328    -50.92248753    -52.70865417
 H   -116.17470742    -50.58382939    -55.25442174
 H   -117.13379855    -49.11739978    -54.94138009
 H   -118.82758096    -50.21787050    -53.67474407
 H   -118.20688088    -51.77210329    -54.28084516
 H   -118.44630939    -50.85951428    -56.62831295
 H   -119.41544397    -49.54926191    -55.91257308
 H   -120.97636474    -50.68268803    -54.75975062
 H   -120.55068683    -52.16249036    -55.65263921
 H   -120.81573424    -51.07083711    -57.81870721
 H   -121.64060529    -49.73898645    -56.97370530
 H   -123.19470971    -51.52093461    -55.99497731
 H   -122.51039171    -52.62493396    -57.21200688
 H   -123.18571714    -50.89175781    -58.96268334
 H   -124.15658196    -50.13429919    -57.67740337
 H   -125.36367353    -52.14130084    -57.14065772
 H   -124.76567234    -52.84591228    -58.66190193
 H   -124.76576068    -52.17186979    -60.26652961
 H   -126.05893771    -51.03903981    -59.80538315
 H   -127.47637019    -52.73652207    -58.86680362
 H   -126.45723654    -53.95694181    -59.66693420
 H   -126.10886449    -53.72201312    -61.57541798
 H   -127.48220012    -52.59891649    -61.71988209
 H   -128.40626082    -54.95732319    -60.46759979
 H   -126.81396140    -55.55124746    -60.99684754
 H   -126.26056383    -55.39952178    -62.78785708
 H   -127.94304483    -55.16595642    -63.31980783
 H   -129.04468046    -56.83219159    -62.37219795
 H   -127.50525473    -57.66089133    -62.03799465
 H   -126.75013447    -57.51246356    -64.33454466
 H   -128.41517053    -57.08112640    -64.79266019
 H   -129.12975227    -59.22598449    -63.58042900
 H   -127.40449297    -59.66387187    -63.58172598
 H   -127.48733730    -59.31671648    -66.12226221
 H   -129.25859002    -59.30594459    -65.94672183
 H   -129.82980939    -61.07477211    -64.90121259
 H   -128.23698598    -61.79961474    -65.22645621
 H   -128.16762296    -61.47157423    -67.52350626
 H   -129.91413770    -61.12890384    -67.50048592
 H   -131.04499502    -62.46739717    -66.57528365
 H   -129.73970818    -63.67451655    -66.66104933
 H   -129.00665035    -63.79454330    -68.62130204
 H   -130.45225345    -62.95673317    -69.23495711
 H   -131.99517902    -64.45125724    -68.13472053
 H   -130.63283979    -65.56197109    -67.85433999
 H   -129.82067322    -65.76300490    -69.98178088
 H   -131.32940363    -65.05465219    -70.60646931
 H   -132.89820143    -66.33758049    -69.63340046
 H   -131.64997932    -67.53741954    -69.22036964
 H   -130.67488591    -67.86463629    -71.24798743
 H   -132.06290714    -67.06928192    -72.02842011
 H   -133.59054012    -68.65592526    -70.80957459
 H   -132.13786247    -69.61064275    -70.42680990
 H   -131.20724240    -69.94607812    -72.42412151
 H   -132.72692483    -69.45638527    -73.21090795
 H   -133.94315465    -71.14588476    -71.79574547
 H   -132.34508936    -71.81876897    -71.39364994
 H   -131.25495260    -72.23013712    -73.10700575
 H   -132.73242706    -72.14408366    -74.09590953
 H   -134.13871879    -73.50482157    -73.02382409
 H   -132.77297543    -74.19220809    -72.11250005
 H   -131.40364959    -74.71838167    -73.92839511
 H   -132.80197736    -74.49866072    -75.00759334
 H   -134.23226949    -75.99396896    -73.80285610
 H   -132.79453511    -76.60154286    -72.94726246
 H   -131.52739133    -76.94159829    -75.01371442
 H   -132.92196925    -76.99478977    -75.81935333
 H   -131.18212728    -77.88942333    -73.31858484
 H   -130.44294740    -76.93219371    -74.62456769
 H   -131.00946405    -78.95574943    -76.13387292
 H   -131.31855748    -79.83876299    -74.61960248
 H   -128.97354434    -79.17966246    -73.88808117
 H   -128.69329312    -78.70699112    -75.58214276
 H   -128.68223736    -77.84416831    -76.32780002
 H   -128.56254060    -79.50793277    -76.94894991
 H   -126.63040443    -79.81201928    -75.28769229
 H   -126.65883900    -78.04128609    -75.10891279
 H   -126.41985380    -77.75020864    -77.55573126
 H   -125.98113905    -79.47324557    -77.63903667
 H   -124.20701103    -79.19443906    -75.96868056
 H   -124.36128015    -77.43632124    -76.19995836
 H   -124.11459773    -77.35072910    -78.49909670
 H   -123.49132850    -79.01774344    -78.46968053
 H   -121.85198127    -78.87251215    -76.92605013
 H   -121.90789578    -77.09758513    -77.04759973
 H   -121.59490740    -77.66596645    -79.62745679
 H   -121.21028646    -79.30636555    -79.05350192
 H   -119.49177217    -78.69311216    -77.56529169
 H   -119.44259400    -77.09115608    -78.33962036
 H   -119.14454850    -78.75082800    -80.47177793
 H   -118.88618641    -79.99293854    -79.22330802
 H   -117.17484167    -79.00398268    -78.04479743
 H   -116.92365489    -77.87506531    -79.39783750
 H   -116.74918521    -79.91954376    -80.90896074
 H   -116.60810644    -80.87735952    -79.41532343
 H   -114.70427977    -79.46503728    -78.66766052
 H   -114.62848949    -78.83144594    -80.32931166
 H   -114.46209757    -81.52886222    -80.71691496
 H   -114.20591246    -81.56431191    -78.95584166
 H   -112.42655092    -80.12333240    -78.78616938
 H   -112.17010932    -80.26410486    -80.53935535
 H   -112.70160471    -81.20917473    -77.55936641
 H   -112.45841712    -79.48594803    -77.93301891
 H   -110.39215366    -79.44123856    -78.77846444
 H   -110.09504204    -81.07112645    -78.12772884
 H   -110.85428197    -80.14731899    -75.86650477
 H   -110.70194729    -78.53326031    -76.60126692
 H   -108.86558471    -78.23827998    -77.45966428
 H   -108.19360336    -79.61780406    -76.55765483
 H   -108.90192596    -78.98040102    -74.42405515
 H   -109.24049763    -77.35157609    -75.05695739
 H   -106.82211733    -77.36664251    -75.91787247
 H   -106.58422251    -78.79232088    -74.87906840
 H   -107.22133682    -78.24962976    -72.89920676
 H   -107.16896272    -76.52624244    -73.34131507
 H   -105.27587736    -76.11649508    -74.21835129
 H   -104.62577836    -77.63954927    -73.56570753
 H   -105.11256075    -77.63554108    -71.44563603
 H   -105.45585177    -75.89057003    -71.51975737
 H   -103.58080276    -75.09325276    -72.49323856
 H   -102.76027770    -76.63574845    -72.15307337
 H   -103.52717343    -76.23726093    -69.70775338
 H   -103.90873817    -74.57999561    -70.23324999
 H   -101.77952818    -74.07381689    -71.11650136
 H   -101.13212011    -75.50078517    -70.27217265
 H   -101.82084994    -75.17338211    -68.16343287
 H   -102.18310357    -73.47457295    -68.55213121
 H   -100.04525736    -72.97394942    -69.46403513
 H    -99.43209064    -74.48001584    -68.74011718
 H   -100.40678253    -73.53108360    -66.52830631
 H   -100.55244732    -71.98938022    -67.40591621
 H    -98.12359253    -72.09671285    -67.97950462
 H    -97.98132960    -73.38431587    -66.75880547
 H    -99.05060707    -71.71416396    -65.12506124
 H    -98.72899437    -70.47675304    -66.36346592
 H    -96.37134563    -71.00727732    -66.50478258
 H    -96.54908583    -71.93511237    -64.99620802
 H    -97.55235625    -69.71256864    -64.06708098
 H    -96.89929092    -68.96028248    -65.54215314
 H    -94.73031700    -69.57932657    -65.45514155
 H    -94.93871173    -70.03384920    -63.74685367
 H    -95.88045274    -67.75901948    -63.28294652
 H    -95.25904912    -67.27496367    -64.87913391
 H    -93.02030432    -67.97714633    -64.48755979
 H    -93.40586059    -68.09100070    -62.75359029
 H    -94.25353117    -65.82046991    -62.64456908
 H    -93.50210149    -65.52752487    -64.23132783
 H    -91.32419956    -66.37291402    -63.16214650
 H    -92.16430397    -66.20832237    -61.60156941
 H    -92.69994679    -63.84179625    -62.09487196
 H    -91.51517442    -63.93156499    -63.42021066
 H    -89.84526632    -64.74454747    -61.64885686
 H    -91.03937291    -64.20619653    -60.44363722
 H    -91.31052122    -62.02012144    -61.16578225
 H    -89.83617076    -62.18910998    -62.14863538
 H    -88.44925393    -62.94867845    -60.37180347
 H    -89.70020831    -62.41242324    -59.22471579
 H    -89.58336869    -60.13216887    -60.35898805
 H    -88.08766936    -60.71299984    -61.12956287
 H    -86.72897378    -61.45032195    -59.83805032
 H    -87.55020595    -60.65350546    -58.47462527
 H    -87.72175346    -58.52523684    -59.25388203
 H    -86.52997874    -58.90714194    -60.51961825
 H    -84.99795557    -59.73459486    -58.66255920
 H    -86.11278354    -58.93150967    -57.53097647
 H    -86.31551666    -56.88994614    -58.19971452
 H    -84.86839973    -57.06906174    -59.22051657
 H    -83.61848247    -57.90527303    -57.19759108
 H    -84.98205753    -57.30230283    -56.22529655
 H    -85.48434056    -55.39705837    -56.57302550
 H    -83.91714024    -55.09692283    -57.36173867
 H    -82.54196677    -55.94143741    -55.67152510
 H    -83.93447323    -55.90537979    -54.56342209
 H    -84.50303128    -53.63630917    -54.93550539
 H    -82.91663932    -53.40818644    -55.70983558
 H    -81.75983691    -54.33281337    -53.73332596
 H    -83.29340058    -54.15543641    -52.84733130
 H    -83.42305319    -51.76309653    -53.47486182
 H    -81.71953027    -51.88345775    -53.97664813
 H    -80.59573094    -52.69508746    -52.37129983
 H    -81.92472746    -52.34316991    -51.24072963
 H    -82.69222788    -50.56336522    -51.25712060
 H    -81.26547779    -49.92164067    -52.10614383
 H    -79.52174164    -50.54967318    -51.08115393
 H    -80.49308594    -50.96889699    -49.64971818
 H    -81.24024360    -48.38608231    -50.15560514
 H    -79.83957859    -48.41069790    -51.25369361
 H    -78.14310053    -49.03564622    -50.04928341
 H    -79.06150487    -48.69394538    -48.56333567
 H    -79.88255909    -46.78636045    -48.62372278
 H    -78.78738369    -46.33233212    -49.95139586
 H    -76.78516895    -47.01303191    -48.91585769
 H    -77.65918363    -47.10333867    -47.36788816
 H    -78.35325618    -44.65561388    -47.89847172
 H    -77.10083241    -44.71297237    -49.16196345
 H    -75.32707561    -45.37500724    -47.73846113
 H    -76.33992316    -44.93892548    -46.34123560
 H    -76.56619836    -42.64083871    -47.53249199
 H    -75.23205908    -43.19560670    -48.57199742
 H    -73.65199396    -43.76728945    -47.10244726
 H    -74.52341325    -42.88252728    -45.82726454
 H    -74.66046559    -40.83965428    -47.11373492
 H    -73.44244521    -41.52100378    -48.21847737
 H    -71.82647111    -42.05443760    -46.61156672
 H    -72.69643374    -41.03099251    -45.44366610
 H    -72.86053557    -39.08775812    -46.62542508
 H    -71.62781162    -39.69108382    -47.75885194
 H    -69.99330294    -40.25193357    -46.18706034
 H    -70.88048726    -39.30183762    -44.97112929
 H    -71.21013043    -37.34764438    -45.84276082
 H    -69.97841414    -37.68249613    -47.08333163
 H    -68.26253296    -38.32421839    -45.58667699
 H    -69.21465460    -37.62207915    -44.25674033
 H    -69.67022109    -35.57199798    -44.93389522
 H    -68.41452214    -35.70555766    -46.18834674
 H    -66.79348512    -36.39443420    -44.36827732
 H    -68.01747709    -35.83085244    -43.20531304
 H    -68.00959534    -33.60296940    -44.40942240
 H    -66.19312659    -34.16648305    -43.78383590
 H    -65.37975177    -34.66116012    -43.15627212
 H    -66.63322419    -33.73360388    -42.29795225
 H    -66.02812236    -31.82477892    -43.94124509
 H    -64.59686317    -32.80124854    -44.34900833
 H    -63.57655248    -33.26754986    -42.53517399
 H    -64.48147724    -31.99473516    -41.68117131
 H    -63.66783761    -30.44553780    -43.58998639
 H    -62.54751581    -31.76315848    -44.01072558
 H    -61.54403573    -32.00003276    -41.90789013
 H    -62.24457034    -30.43402739    -41.43339556
 H    -61.28638805    -29.32158567    -43.40590699
 H    -60.26490811    -30.76154281    -43.63255390
 H    -59.36245350    -30.75829313    -41.42902190
 H    -59.98086131    -29.10155497    -41.22639633
 H    -58.96448497    -28.21485713    -43.17927119
 H    -57.94544473    -29.67204973    -43.25935479
 H    -57.29184636    -29.13532822    -40.83259366
 H    -58.03869118    -27.54321129    -41.10764480
 H    -56.75804300    -27.02195182    -43.04979991
 H    -55.66137551    -28.35954675    -42.62976790
 H    -55.41762988    -27.28814920    -40.33523170
 H    -56.18739375    -25.84786013    -41.04325546
 H    -54.85575187    -25.48070172    -42.84591375
 H    -53.63633224    -26.57580140    -42.15162339
 H    -53.52155712    -25.49636679    -40.03532605
 H    -54.38449848    -24.11050707    -40.74454512
 H    -52.49375921    -24.17218080    -42.53133771
 H    -51.65421413    -25.27304816    -41.41262335
 H    -51.65130417    -24.04520675    -39.50425783
 H    -52.07381942    -22.59769562    -40.45001628
 H    -50.29412649    -22.82524747    -42.02123393
 H    -49.53678589    -24.00380366    -40.92318694
 H    -49.40539790    -23.11136433    -38.98883017
 H    -49.69142907    -21.50278079    -39.69516707
 H    -47.95231346    -21.70826369    -41.34269071
 H    -47.33057781    -23.10786100    -40.43558608
 H    -47.16353851    -22.05693112    -38.34258763
 H    -47.34168173    -20.48406218    -39.15659929
 H    -45.76719454    -20.56292529    -40.74238202
 H    -45.00952234    -21.94461535    -39.91465496
 H    -45.04912147    -20.37654075    -37.83190140
 H    -45.43007636    -19.07642843    -38.98639175
 H    -43.50938929    -19.51525945    -40.37914154
 H    -42.85194089    -20.51564976    -39.06185362
 H    -43.16287399    -18.51360327    -37.52889559
 H    -43.40672495    -17.55215608    -39.00687484
 H    -41.34938681    -18.23781866    -40.03262917
 H    -40.82831870    -18.86496011    -38.45040027
 H    -41.16328864    -16.99105326    -37.16064460
 H    -41.28978041    -16.01707661    -38.64510948
 H    -39.12340141    -16.89794029    -39.45638158
 H    -38.84475226    -17.51139509    -37.80886997
 H    -39.11499474    -15.88528632    -36.44980101
 H    -38.99070121    -14.72338039    -37.79248205
 H    -37.09468049    -15.33984388    -38.80771930
 H    -36.64948979    -16.30432282    -37.37948533
 H    -36.99991400    -14.31594248    -35.92010265
 H    -37.02369289    -13.33524494    -37.40534120
 H    -34.96007532    -14.09256755    -38.26672469
 H    -34.58621113    -14.77532561    -36.66599559
 H    -34.67214758    -14.28761797    -35.12096337
 H    -34.60629679    -12.59626533    -35.67165072
 H    -32.85955750    -12.59421422    -37.06726833
 H    -32.33706866    -14.16288344    -36.40806506
 H    -32.19251986    -14.45465258    -34.56199592
 H    -32.14645963    -12.70144749    -34.25799422
 H    -30.75239911    -11.77342830    -35.48655106
 H    -29.98981738    -13.34150257    -35.84415261
 H    -29.65892234    -14.17612194    -33.77232324
 H    -29.94264613    -12.55842922    -33.08614707
 H    -28.73344596    -11.14882992    -34.05788539
 H    -27.71196850    -12.44906443    -34.71685479
 H    -27.34109613    -13.49281558    -32.58042088
 H    -27.97200134    -12.01755378    -31.80981859
 H    -26.62576609    -10.45020755    -32.82776241
 H    -25.54731667    -11.75910593    -33.36813133
 H    -25.18069837    -12.79933587    -31.33988614
 H    -25.83818479    -11.36698767    -30.51262747
 H    -24.39179672     -9.80931960    -31.61839889
 H    -23.39911206    -11.18666146    -32.15297650
 H    -22.90294800    -12.37166405    -30.47573490
 H    -23.35609757    -11.04364260    -29.38061792
 H    -22.21048369     -9.30793287    -30.20096620
 H    -21.20228294    -10.42742017    -31.14888292
 H    -20.61014009    -11.80726984    -29.28519575
 H    -21.21816224    -10.52800237    -28.20721130
 H    -19.98719791     -8.74972898    -29.07055441
 H    -18.94579025     -9.91904310    -29.91698294
 H    -18.52954212    -11.11954085    -27.77926607
 H    -19.22273898     -9.70718145    -26.94680845
 H    -17.86225135     -8.06834698    -27.90349800
 H    -16.76780487     -9.35194701    -28.47167449
 H    -16.69696001    -10.16018710    -26.04480518
 H    -17.45275579     -8.60480746    -25.62310202
 H    -15.59762260     -7.41007572    -26.80903294
 H    -14.72511017     -8.96149670    -26.81807031
 H    -14.78139751     -9.51187741    -24.61703676
 H    -15.25137335     -7.84061003    -24.22428400
 H    -13.67757702     -6.63381792    -25.27193897
 H    -12.68346123     -8.09916949    -25.45289545
 H    -12.69991026     -8.76440123    -23.20758590
 H    -13.30500160     -7.14936360    -22.76737619
 H    -11.94002085     -5.72800633    -23.68415856
 H    -10.74729031     -7.02465067    -23.93787892
 H    -10.35299384     -8.12710174    -22.31061062
 H    -11.05783103     -6.87739698    -21.25718326
 H    -10.04007233     -5.01225677    -21.91156507
 H     -8.81268146     -5.98221019    -22.76066381
 H     -8.19141788     -7.38301253    -21.03000375
 H     -9.00734335     -6.29123799    -19.88520655
 H     -7.88146982     -4.31807631    -20.61118514
 H     -6.71589639     -5.35420737    -21.46916981
 H     -6.43005116     -6.50909897    -19.15294381
 H     -7.31348223     -5.11046778    -18.49594535
 H     -5.93213386     -3.43427595    -19.37692529
 H     -4.70432280     -4.67515552    -19.72472486
 H     -4.47018472     -5.70282153    -17.74849807
 H     -5.30737552     -4.34910983    -16.95172779
 H     -4.58928314     -2.53589754    -17.40422552
 H     -3.08108209     -3.25414077    -18.01881718
 H     -2.58656308     -4.58159376    -16.15450162
 H     -3.78560483     -3.65699421    -15.21872322
 H     -2.77676245     -1.51826087    -15.79758030
 H     -1.35060625     -2.41701779    -16.36905309
 H     -0.71422719     -3.72420967    -14.81961758
 H     -1.68760152     -2.82027461    -13.63483469
 H     -1.27873245     -0.77572210    -13.77290004
 H      0.21123287     -1.11368610    -14.68616361
 H      0.55498743     -2.69589626    -12.51763443
 H     -0.81654648     -1.77257975    -11.85835601
 H     -0.32289208      0.30624538    -11.99124898
 H      1.39091550     -0.10266767    -12.24407371
 H      1.74171875     -1.50625609    -10.47151573
 H      0.22637310     -0.92927734     -9.73728843
 H      1.07871217      1.43169251     -9.99049498
 H      2.67518265      0.71663722    -10.31950046
 H      2.87881505     -0.61660123     -8.44609530
 H      1.53532461      0.27582951     -7.69318927
 H      2.59191632      2.43707705     -8.07665068
 H      4.10156572      1.56437704     -8.43389015
 H      4.50527834      0.23875807     -6.81952004
 H      3.34667016      1.11406108     -5.79008407
 H      4.13267908      3.26132103     -6.07538754
 H      5.63447578      2.59694581     -6.76203076
 H      6.10305084      1.12895786     -4.95422380
 H      4.89702492      2.00792865     -3.98408025
 H      5.50443556      4.12508029     -4.15163112
 H      7.09732433      3.62070232     -4.76528810
 H      7.72590615      2.13190562     -3.16514444
 H      6.44555583      2.75839303     -2.09908475
 H      7.55311881      5.07209690     -2.58973491
 H      8.90426949      4.12851416     -3.26227497
 H      9.41887093      2.74769354     -1.56834465
 H      8.47029757      3.76635394     -0.45892758
 H      9.87747909      5.72962228     -1.33012169
 H     10.94427695      4.49633805     -2.04371752
 H     11.11731400      3.49861807      0.30566192
 H     10.38331342      5.01449883      0.88152243
 H     11.84139131      6.52631972     -0.06550660
 H     12.98758070      5.19846702     -0.36770476
 H     13.23501986      4.17902825      1.53771085
 H     12.51173305      5.56805120      2.38372392
 H     14.79025300      4.92220910      0.27307144
 H     14.08280465      3.44268354      0.96501625
 H     14.43213972      3.61852686      3.13017345
 H     15.62630177      4.90526546      2.83598400
 H     17.02067246      4.48389104      1.48154009
 H     16.65774505      2.74566598      1.60451981
 H     16.44086750      1.75038310      3.00263930
 H     17.33200786      2.92955203      3.99445388
 H     19.12773017      3.44886278      3.05880131
 H     19.00808457      2.02798749      1.99340702
 H     18.67313323      0.60841236      4.06581293
 H     19.22874991      2.00402832      4.99252026
 H     20.05284319      0.14550531      2.54602839
 H     18.61463966     -0.44062658      3.41567584
 H     20.02262818     -0.63214003      5.49663215
 H     21.44108168     -0.43715050      4.43916564
 H     21.50833376     -1.68063289      2.87793904
 H     20.30858345     -2.75134369      3.64111939
 H     21.66381716     -2.81807595      5.72311714
 H     22.99682751     -2.10858761      4.78079216
 H     22.86848722     -3.86962121      3.08553425
 H     21.85190294     -4.79232879      4.21842161
 H     23.85667459     -4.41521528      5.86113127
 H     24.75780976     -3.89256088      4.41785221
 H     24.17559708     -6.09582655      3.33589586
 H     23.67323378     -6.64614148      4.95238936
 H     25.75066592     -6.09841685      6.01184219
 H     26.47624393     -5.93740882      4.39447406
 H     25.95711940     -7.86589155      3.40684160
 H     25.54335629     -8.56269340      4.99162359
 H     27.81279288     -7.83902177      5.82644989
 H     28.24312719     -7.56138794      4.12175094
 H     28.00810612     -8.72995124      2.77176639
 H     27.89727930    -10.07907178      3.92755956
 H     30.14171253     -9.05776000      4.84050907
 H     30.14611836     -8.10021870      3.34005516
 H     29.96702649    -10.04675072      1.91244664
 H     30.38641757    -11.04804278      3.32304651
 H     32.41626433     -9.74465980      3.76013776
 H     32.22593213     -9.03418628      2.13925291
 H     32.07006082    -10.91041386      0.86179292
 H     32.69154111    -11.87253381      2.22427379
 H     34.63293640    -10.51484907      2.57047611
 H     34.33437333     -9.76903835      0.98211433
 H     34.32576122    -12.21860727      0.11067214
 H     35.00663136    -12.64682132      1.69853714
 H     36.70582913    -11.48405812      2.08530314
 H     36.81906514    -11.04043023      0.36523379
 H     36.72859861    -13.36229704     -0.36720213
 H     37.04215704    -13.83984524      1.31859012
 H     39.19897353    -13.67205558      0.97285156
 H     38.88447327    -12.28569276     -0.48246684
 H     38.84987407    -14.59525021     -0.87324015
 H     39.48152252    -14.84980140      0.77129340
 H     41.34860132    -13.37651265      0.51221765
 H     41.05772173    -13.39503406     -1.24371876
 H     41.03126230    -15.65087703     -1.62856818
 H     41.76360205    -15.91468417     -0.02783367
 H     43.36407571    -14.87431784      0.40418787
 H     43.62814792    -14.50696615     -1.31731882
 H     43.54241638    -16.30746809     -2.42421855
 H     43.73929437    -17.25576836     -0.93082231
 H     45.84365279    -15.51856486     -0.81352139
 H     45.41158504    -15.27251591     -2.57834661
 H     45.00380637    -15.76722092     -3.82007237
 H     44.98224814    -16.68073647     -3.68728456
 H     44.60197954    -17.93899068     -3.33506586
 H     46.35540321    -18.23363497     -3.25165803
 H     46.35758159    -17.14249543     -5.63048383
 H     44.60039027    -17.32232794     -5.57380714
 H     43.79216127    -17.30424621     -6.38300121
 H     44.29959899    -18.48202500     -6.80038594
 H     43.83719575    -18.95094144     -7.73580325
 H     43.00410455    -17.73833546     -7.54233048
 H     41.95315624    -18.47261624     -7.27921960
 H     43.14011996    -19.22372212     -8.79864937
 H     42.49762730    -19.50966983     -9.86702606
 H     41.67694970    -18.23179529     -9.67683604
 H     41.94441548    -20.12182323    -10.66587950
 H     41.55084512    -20.32999302     -9.65874440
 H     41.21377830    -21.22342147     -9.12196389
 H     41.03838441    -21.24842353     -9.25885804
 H     40.21505527    -21.84325738     -8.84145536
 H     39.64077567    -20.97177778     -9.46170826
 H     38.58242131    -21.12026873     -8.85845234
 H     38.70026744    -21.94661172     -8.61168544
 H     37.98182112    -22.30530993     -7.57472932
 H     37.52190360    -21.21049372     -8.13112858
 H     38.17908744    -21.87765120     -6.43376276
 H     38.19468247    -21.76352578     -6.44024511
 H     38.10280900    -21.84649555     -5.19392616
 H     37.37112125    -23.16953419     -5.61611699
 H     37.67024445    -21.67802638     -4.12922881
 H     36.42328016    -21.82859996     -4.92062164
 H     35.73334025    -21.09103808     -4.22785285
 H     36.62957984    -21.07056023     -3.27716844
 H     35.80906748    -20.10140545     -2.71868419
 H     35.04677145    -20.26705670     -3.43378380
 H     33.93720776    -19.93997080     -3.07611185
 H     34.50918700    -19.71957422     -2.11518005
 H     34.52057764    -19.89939913     -0.98415494
 H     33.23796872    -20.46561000     -2.08077989
 H     33.52542175    -18.72133957     -1.87303463
1502
Final Conformation Chain 1 (Simulation Frame 2)
 C      0.00000000      0.00000000      0.00000000
 C      1.54000000      0.00000000      0.00000000
 C      2.16637443      0.86781384     -1.10731848
 C      3.69903692      0.75167439     -1.20248844
 C      4.30903462      1.48614181     -2.41081804
 C      5.79683466      1.16913524     -2.65073024
 C      6.35517074      1.74243410     -3.96647689
 C      7.85449618      1.46604126     -4.18380203
 C      8.41938461      2.06399812     -5.48570397
 C      9.89428249      1.70843115     -5.74999238
 C     10.10497862      0.29366666     -6.32064863
 C     11.58360209     -0.12009140     -6.43929479
 C     11.81173058     -1.39908619     -7.26617430
 C     13.28744743     -1.66148957     -7.61973369
 C     13.96691747     -0.50235732     -8.37228462
 C     15.28105043     -0.89513885     -9.07255402
 C     16.10007062      0.30386236     -9.58558620
 C     17.52071875     -0.06238454    -10.05379777
 C     18.59336466      0.97379292     -9.66991363
 C     20.00289988      0.63908242    -10.19219644
 C     21.08417434      1.65085005     -9.76938228
 C     22.31305565      1.67863808    -10.69710991
 C     23.33696956      2.77460839    -10.34775425
 C     24.64151606      2.69563489    -11.16232262
 C     25.62772627      3.84384471    -10.87841483
 C     27.09709927      3.49697937    -11.18210449
 C     28.11028679      4.50333115    -10.60564360
 C     29.54136687      3.94867582    -10.47928198
 C     30.55020739      4.94818713     -9.88361600
 C     31.98010967      4.39168218     -9.75215600
 C     32.91269009      5.25905376     -8.88638450
 C     34.40966073      4.95186262     -9.07694290
 C     35.30879901      5.49466498     -7.95065876
 C     36.42711739      6.43377429     -8.43957356
 C     37.45316098      6.80489147     -7.35278628
 C     38.73042990      7.47019799     -7.89826896
 C     39.78813985      7.77297200     -6.82068947
 C     41.12504780      8.29052655     -7.38319674
 C     42.10784745      8.78621042     -6.30616269
 C     43.42236599      9.35509159     -6.87186156
 C     44.43014791      9.79441719     -5.79345134
 C     45.73441578     10.38653170     -6.35903575
 C     46.79912916     10.69225037     -5.28921262
 C     48.21056314     10.92613695     -5.85908207
 C     49.29188681     11.14358543     -4.78434709
 C     50.65585151     11.58332981     -5.34810695
 C     51.61290593     12.16413496     -4.29060413
 C     52.58090534     11.12991734     -3.68647579
 C     53.32373179     11.62540784     -2.43176545
 C     54.45978674     10.69483888     -1.96806237
 C     55.22822306     11.20987676     -0.73686717
 C     56.48649487     10.39010760     -0.39579451
 C     57.20889919     10.85414581      0.88264225
 C     57.02324139     12.34977916      1.19920512
 C     57.85602918     12.84473185      2.39632096
 C     57.75184305     14.36046780      2.64789558
 C     58.33043762     14.81192792      4.00178335
 C     58.65217406     16.31615511      4.07517427
 C     59.93836906     16.64422800      4.85598832
 C     60.60674805     17.96619557      4.43495235
 C     60.56443553     18.23448183      2.91909215
 C     61.37446611     19.46787713      2.47842616
 C     61.08169548     19.92764290      1.03811342
 C     62.34373715     20.21043421      0.20212304
 C     62.05155385     20.75106900     -1.20994740
 C     63.28055734     21.35152958     -1.91747657
 C     62.93622321     22.41712007     -2.97461938
 C     64.16536839     23.01944578     -3.68031468
 C     63.81812096     23.96034628     -4.84895725
 C     65.04138999     24.43764669     -5.65356722
 C     64.68810560     25.08518939     -7.00540988
 C     65.88573997     25.74046910     -7.71806719
 C     65.54666650     26.32920219     -9.10010284
 C     64.65701430     25.41930932     -9.96740551
 C     63.82192664     26.17608421    -11.01693892
 C     62.77783284     25.30161832    -11.73581133
 C     61.93585310     26.06070360    -12.77814508
 C     61.05152430     25.15137444    -13.65146235
 C     59.67536132     24.83746741    -13.03563947
 C     58.75142283     24.01516391    -13.95311134
 C     59.29016998     22.61228371    -14.28968029
 C     58.36476090     21.78880647    -15.20461378
 C     58.98189783     20.46438811    -15.69108887
 C     58.01897644     19.59036051    -16.51598776
 C     58.57038040     18.19089493    -16.84621459
 C     57.51775622     17.06927924    -16.77164530
 C     56.82391822     16.95148307    -15.40185959
 C     55.56187212     16.06903199    -15.41280164
 C     54.66368419     16.24511694    -14.17431364
 C     53.47813043     15.26397852    -14.11575009
 C     52.20597540     15.85590505    -13.48104972
 C     52.40794686     16.38339509    -12.04837328
 C     51.10144146     16.53854507    -11.24801577
 C     50.15532446     15.32795238    -11.35255271
 C     49.06558942     15.28889821    -10.26510050
 C     48.02096466     14.17514349    -10.46487420
 C     46.72720177     14.37712213     -9.65432980
 C     45.52971885     13.55858072    -10.17165427
 C     44.30709411     13.57708078     -9.23546707
 C     43.19612423     12.58887342     -9.63645603
 C     41.80817752     12.94386574     -9.07149199
 C     40.63765546     12.28909190     -9.82829403
 C     39.25550571     12.57429778     -9.21191779
 C     38.07951388     11.97963681    -10.00880019
 C     36.70800169     12.16449609     -9.33324016
 C     35.58587449     11.30833587     -9.94921112
 C     34.31656219     11.22104220     -9.08155559
 C     33.38057471     10.05692551     -9.45620176
 C     31.93871101     10.22179392     -8.94098581
 C     30.98537046      9.09311898     -9.37553693
 C     29.52167798      9.31057494     -8.94901937
 C     28.57001083      8.17743829     -9.37555306
 C     27.08149550      8.48142650     -9.12353465
 C     26.15832267      7.25786531     -9.27269881
 C     24.66363732      7.57350246     -9.07804810
 C     23.74373788      6.34370196     -9.19195923
 C     22.26585052      6.63514787     -8.87179015
 C     21.28987803      5.56046797     -9.38573647
 C     19.80611315      5.95805838     -9.27635800
 C     18.82597280      4.82038126     -9.61784839
 C     17.34395438      5.19074649     -9.42278174
 C     16.36120353      4.22517415    -10.11087390
 C     14.88238017      4.63142659     -9.97072961
 C     13.89008429      3.56910198    -10.47907528
 C     12.44901695      3.76472382     -9.97246200
 C     11.48454417      2.63368462    -10.37513133
 C     10.15737846      2.63443113     -9.59395874
 C      9.18739550      1.51150759    -10.00599730
 C      8.07942592      1.23083878     -8.97389826
 C      7.03263199      0.20310918     -9.44250720
 C      5.78756702      0.12112467     -8.53990443
 C      4.74507619     -0.91336915     -9.00319203
 C      3.43876386     -0.89455719     -8.18784288
 C      3.63882225     -1.12810351     -6.67885887
 C      2.41122524     -1.72986166     -5.96999166
 C      2.65291133     -2.08332840     -4.49071849
 C      1.47126879     -2.80675964     -3.81843272
 C      1.73642713     -3.21569177     -2.35758859
 C      0.53518720     -3.88832564     -1.66752605
 C      0.89351248     -4.62384069     -0.36283429
 C     -0.23233556     -5.52484022      0.17778207
 C     -1.52674074     -4.76770350      0.52829482
 C     -2.49772635     -5.56567584      1.41825387
 C     -3.68076763     -4.73782470      1.95367501
 C     -4.86385628     -5.58710098      2.45430566
 C     -5.99858332     -4.76532880      3.09359046
 C     -7.14054139     -5.62000152      3.67416456
 C     -8.31980737     -4.79784011      4.22641663
 C     -9.58093935     -5.63120294      4.52078464
 C    -10.47713513     -5.04210663      5.62595371
 C    -11.42202581     -6.06776095      6.27926438
 C    -12.36227197     -5.46622582      7.34025102
 C    -13.57057314     -6.35709336      7.68370889
 C    -14.42757549     -5.82831141      8.84884263
 C    -15.93688969     -6.08556105      8.68333353
 C    -16.77488934     -5.71499285      9.92108787
 C    -18.28630953     -5.60907375      9.64542476
 C    -19.13961661     -5.39063303     10.90865501
 C    -20.62250925     -5.09270101     10.61905884
 C    -21.43344073     -4.68268527     11.86239195
 C    -22.83322749     -4.12642588     11.54181042
 C    -23.76418488     -4.03018234     12.76478037
 C    -25.02190531     -3.17344211     12.52869671
 C    -25.93286722     -3.04453990     13.76365931
 C    -26.95363067     -1.89510243     13.67181441
 C    -28.08656994     -1.97892884     14.71153636
 C    -29.19792840     -0.93156832     14.51274422
 C    -30.47564719     -1.21212908     15.32534520
 C    -31.52974690     -0.09255467     15.24151841
 C    -32.65409997     -0.21127125     16.28714576
 C    -33.59256366      1.00864329     16.33905353
 C    -34.76530433      0.85522814     17.32533093
 C    -35.73775341      2.04933316     17.33281343
 C    -36.45203127      2.26701914     18.67966902
 C    -37.53674099      3.35960064     18.64402511
 C    -38.30980731      3.51812507     19.96646168
 C    -39.11490293      4.82695644     20.06835130
 C    -39.86596649      4.99815488     21.40184094
 C    -40.77175026      6.24246090     21.45530382
 C    -41.79022557      6.22666722     22.61031837
 C    -42.55702840      7.55039261     22.78741862
 C    -43.44148377      7.59821670     24.04720097
 C    -43.99341778      8.99868733     24.37224076
 C    -44.97521872      9.02523550     25.55839510
 C    -45.33016407     10.44218329     26.04611710
 C    -45.80371848     10.50033240     27.51034553
 C    -46.02338473     11.92910166     28.04134945
 C    -46.12841809     12.01803868     29.57518719
 C    -46.86292775     13.27353308     30.08098298
 C    -46.67538866     13.54560388     31.58511282
 C    -47.67215498     14.56559817     32.16620535
 C    -47.50367282     14.81558473     33.67641079
 C    -48.22845246     16.07454312     34.18760375
 C    -48.04803788     16.33250437     35.69508727
 C    -48.56453894     17.70621590     36.16171699
 C    -48.41987783     17.94854847     37.67563511
 C    -49.15644376     19.20241550     38.18247642
 C    -49.26682549     19.28692556     39.71618888
 C    -49.69092822     20.67226454     40.23827394
 C    -49.68645937     20.79130391     41.77365977
 C    -50.19397619     22.14733541     42.29825983
 C    -49.84228802     22.41995477     43.77257124
 C    -50.39468771     23.75231998     44.31225404
 C    -49.87052844     24.12706382     45.71097636
 C    -50.25568669     25.54751129     46.16438798
 C    -49.84763853     25.87490906     47.61280346
 C    -50.52519869     27.13387639     48.18509139
 C    -50.06125526     27.50377166     49.60619448
 C    -50.65372212     28.82323959     50.13495471
 C    -50.11533483     29.24284924     51.51541364
 C    -51.12617014     30.03127565     52.36875752
 C    -50.65697371     30.29452014     53.81172566
 C    -51.47678484     31.36836946     54.55088554
 C    -51.14458031     31.48850613     56.04982094
 C    -51.87195614     32.64410427     56.76194267
 C    -51.78437792     32.58714488     58.29839497
 C    -52.63518620     33.65266348     59.01421295
 C    -52.86219224     33.37106827     60.51113392
 C    -53.83152992     34.35412892     61.19346539
 C    -53.58143116     34.53474452     62.70224921
 C    -54.64870435     35.38443457     63.41678036
 C    -54.36144318     35.62429894     64.91061640
 C    -55.17861276     36.77389085     65.52889815
 C    -55.07939353     36.85822663     67.06338276
 C    -55.56174104     38.19813053     67.64955543
 C    -55.90477974     38.13829528     69.14967016
 C    -57.40365269     37.93951327     69.44201515
 C    -57.70875152     37.51984276     70.89197769
 C    -59.20558938     37.29796482     71.17806612
 C    -59.53861506     37.12256761     72.67136104
 C    -61.04330345     37.19754167     72.99056590
 C    -61.35691475     37.42160394     74.48155351
 C    -62.82145646     37.80587126     74.76272284
 C    -63.09651935     38.19660556     76.22671297
 C    -64.51813471     37.85430178     76.70986707
 C    -64.70270243     37.95603794     78.23537829
 C    -66.02102688     37.34772066     78.74876970
 C    -66.36509808     37.73223294     80.19975740
 C    -67.50132748     36.89567682     80.81681219
 C    -67.98305726     37.40758135     82.18702756
 C    -68.87846629     36.41225812     82.94806260
 C    -69.62233831     37.02911996     84.14711885
 C    -70.29627971     35.99348720     85.06628573
 C    -70.63177535     36.52737463     86.47127929
 C    -71.25256699     35.47554373     87.40929287
 C    -71.25881088     35.88585021     88.89361413
 C    -72.30892966     35.14649916     89.74344386
 C    -72.27986801     35.51804439     91.23766927
 C    -73.50456492     35.02399177     92.02989996
 C    -73.46442704     35.37545034     93.52872144
 C    -74.74517887     34.99669792     94.29541653
 C    -74.61885751     35.11960087     95.82529815
 C    -75.96823885     35.24053137     96.55751794
 C    -75.84574877     35.29476214     98.09168065
 C    -77.03437038     35.98001195     98.79111711
 C    -77.25069885     35.52657451    100.24686313
 C    -78.54100228     36.07108484    100.88735167
 C    -78.51976185     36.08171495    102.42716849
 C    -79.78179416     36.68975238    103.06682849
 C    -79.93404430     36.38107573    104.56787433
 C    -81.15297892     37.05451321    105.22535464
 C    -81.48363010     36.51695056    106.63009526
 C    -82.77103531     37.10371090    107.23828941
 C    -83.19076255     36.44900228    108.56749430
 C    -84.25111136     37.24526718    109.35057962
 C    -84.92897577     36.44499661    110.47826169
 C    -85.91154791     37.27091885    111.32914620
 C    -85.96307627     36.85180748    112.81012239
 C    -86.86337206     37.74566719    113.68309565
 C    -86.52924574     37.69403552    115.18552495
 C    -86.74018358     39.03083925    115.92041338
 C    -85.86932193     39.19765886    117.17952862
 C    -86.20049600     40.45259089    118.00842508
 C    -85.42645910     40.54843490    119.33631092
 C    -85.47153836     41.94284633    119.98837273
 C    -85.02182775     41.96045405    121.46114235
 C    -85.32835258     43.27979430    122.19393416
 C    -84.86648571     43.30235616    123.66286913
 C    -85.57073693     44.36677966    124.52463060
 C    -84.89202674     44.62215598    125.88320905
 C    -85.52146824     45.77193083    126.69155377
 C    -84.80182410     46.07103902    128.01980322
 C    -85.50004387     47.13727879    128.88422319
 C    -84.73859283     47.49481811    130.17416813
 C    -85.27472992     48.74786114    130.89113410
 C    -84.42604637     49.19053257    132.09752468
 C    -84.78677751     50.58647142    132.63866032
 C    -83.72856501     51.18434896    133.58434989
 C    -84.15089398     52.51410926    134.23625155
 C    -83.09472985     53.10942544    135.18583882
 C    -83.47727492     54.48395896    135.76542216
 C    -82.41150193     55.08918231    136.69785587
 C    -81.16814886     55.62459938    135.96368851
 C    -80.29800018     56.56983563    136.81278785
 C    -78.90607347     56.84625825    136.21468204
 C    -77.80414313     55.90182930    136.72985530
 C    -76.51531104     55.92458986    135.88724400
 C    -75.34059207     55.15439304    136.51845885
 C    -74.11201586     55.02253325    135.59932148
 C    -72.94561438     54.23312725    136.22217440
 C    -71.67983841     54.19018268    135.34606542
 C    -70.38869560     53.87916306    136.12569163
 C    -69.12823379     53.80107611    135.24436396
 C    -67.82015333     54.11852092    135.99253125
 C    -66.56466094     54.08406528    135.10137938
 C    -65.31875674     54.71562424    135.74980517
 C    -64.01490085     54.47513683    134.96639876
 C    -62.94464537     55.56106265    135.18300509
 C    -61.66130080     55.34896833    134.35860063
 C    -61.83161996     55.62324990    132.85282475
 C    -60.59216856     55.27366757    132.00834122
 C    -60.86653039     55.19760994    130.49488794
 C    -59.76566355     54.47753729    129.69414605
 C    -60.04702441     54.38856603    128.18268312
 C    -58.81711669     54.00724890    127.33797947
 C    -59.02483943     54.16882731    125.82063189
 C    -57.91959597     53.52263167    124.96478838
 C    -57.99976468     53.87532610    123.46786500
 C    -56.95926081     53.14775846    122.59631637
 C    -57.29293556     53.14568697    121.09290130
 C    -56.23085708     52.45609936    120.21651198
 C    -56.50270464     52.56044286    118.70429131
 C    -55.40526263     51.93165906    117.82574026
 C    -55.84441838     51.65760384    116.37534860
 C    -54.68908346     51.27034228    115.43363224
 C    -55.14873292     50.66354807    114.09493020
 C    -54.00332325     50.40364162    113.09889539
 C    -54.36225361     49.41235126    111.97634811
 C    -53.18631738     49.07113740    111.04235286
 C    -53.46136564     47.88823277    110.09541830
 C    -52.31305260     47.59231223    109.11286641
 C    -52.53038075     46.33052203    108.25714801
 C    -51.59202469     46.22971623    107.04021493
 C    -51.66260895     44.87835518    106.30506789
 C    -51.02180939     44.89282954    104.90479420
 C    -51.10768156     43.54615903    104.16269952
 C    -50.52840403     43.57901938    102.73618006
 C    -50.30737133     42.18612229    102.11764772
 C    -49.34867358     42.18090509    100.91246250
 C    -49.18712746     40.80175174    100.24655043
 C    -48.50692002     40.84872578     98.86571326
 C    -48.55571657     39.51478043     98.09772321
 C    -48.14683806     39.62896149     96.61739182
 C    -48.61107604     38.44684686     95.74636478
 C    -48.21098511     38.56596078     94.26402234
 C    -48.63223562     37.36082413     93.40274789
 C    -48.42252788     37.56739874     91.89114291
 C    -48.62272375     36.29238548     91.05098650
 C    -48.12765574     36.41556562     89.59794338
 C    -48.78821461     35.42150169     88.62475332
 C    -48.09313464     35.33172526     87.25347508
 C    -48.26637966     33.97215439     86.55122639
 C    -47.39462223     33.80133227     85.29326821
 C    -47.80340316     32.61181607     84.40470230
 C    -46.95535849     32.46325632     83.12785061
 C    -47.09323861     31.09215756     82.44033534
 C    -46.29120000     30.96404573     81.13193119
 C    -46.09085485     29.51200183     80.65967033
 C    -45.16804647     29.37345401     79.43458698
 C    -44.83176878     27.91670833     79.06525063
 C    -43.92036094     27.77767115     77.83171732
 C    -43.63292863     26.32003837     77.42639109
 C    -42.73017608     26.18106163     76.18650266
 C    -42.63307751     24.74448062     75.64023634
 C    -41.76964380     24.61370933     74.37178016
 C    -41.84186546     23.22738663     73.70507677
 C    -41.23932934     23.18139723     72.28858985
 C    -41.03053781     21.75662423     71.74267043
 C    -40.53901506     21.71055109     70.28394405
 C    -39.95502535     20.34934153     69.86244130
 C    -39.21116779     20.37728389     68.51429622
 C    -38.30120703     19.15802470     68.27559460
 C    -37.56906789     19.17850037     66.92091641
 C    -36.51921539     18.06345754     66.75939483
 C    -35.84308327     18.03535381     65.37604544
 C    -34.74467639     16.96490260     65.23734962
 C    -34.32953094     16.67828343     63.78232257
 C    -33.18869687     15.65273241     63.64688730
 C    -32.98674546     15.12604144     62.21391408
 C    -31.90589925     14.03564798     62.09385754
 C    -31.75061851     13.46131420     60.67342500
 C    -30.42943258     12.70373734     60.44507209
 C    -30.23504218     12.20467255     59.00120689
 C    -28.87912119     11.51803020     58.75301227
 C    -28.56385037     11.27340615     57.26561071
 C    -27.16460139     10.68283561     57.01079957
 C    -26.85940000     10.41341022     55.52558509
 C    -25.52517230      9.68374118     55.28264569
 C    -25.41117383      9.03342258     53.89135490
 C    -24.03102284      8.41546306     53.59996294
 C    -24.00496655      7.49459890     52.36589233
 C    -22.60491315      6.95830827     52.01397923
 C    -22.57159373      6.07335412     50.75408005
 C    -21.15163183      5.71580334     50.27714644
 C    -21.10464670      5.06564917     48.88190741
 C    -19.70176895      4.59215377     48.45842642
 C    -19.69005068      3.73216380     47.18097585
 C    -18.28299499      3.29475542     46.73323912
 C    -18.06824278      3.34052842     45.20897329
 C    -16.70756932      2.78328281     44.75110316
 C    -16.21245559      3.36125480     43.41229370
 C    -15.05288087      2.57005617     42.77905504
 C    -14.49020472      3.20440698     41.49352223
 C    -13.55439137      2.27762790     40.69544083
 C    -13.07954627      2.87005223     39.35560668
 C    -12.16221650      1.93405244     38.54689754
 C    -11.66603632      2.53671299     37.21941666
 C    -10.65524816      1.65038944     36.46819242
 C     -9.91990586      2.37122245     35.32308480
 C     -9.00465709      1.45387689     34.49098096
 C     -8.31061800      2.16306113     33.31328514
 C     -7.43161248      1.23562355     32.45374524
 C     -6.91619263      1.88624028     31.15657900
 C     -6.05659526      0.95133192     30.28558031
 C     -5.80608998      1.47781011     28.86021445
 C     -4.73888111      0.68844839     28.07946269
 C     -4.43040390      1.26326878     26.68446330
 C     -3.44768452      0.41171838     25.85940299
 C     -3.16325950      0.97013996     24.45268064
 C     -2.37336987      0.00891150     23.54509361
 C     -1.69704501      0.69535982     22.34385534
 C     -1.03507261     -0.28212451     21.35495851
 C     -0.35039652      0.40486785     20.15877285
 C      0.39115734     -0.56479682     19.21991806
 C      0.70863647      0.02559841     17.83346919
 C      1.43519562     -0.94972559     16.88877088
 C      1.87272382     -0.31947158     15.55349976
 C      2.17649784     -1.34574945     14.44621702
 C      2.59176743     -0.71479187     13.10418733
 C      3.05107494     -1.73633059     12.04726006
 C      3.73623936     -1.10425787     10.82144041
 C      3.89228945     -2.06373137      9.62701211
 C      4.00999245     -1.35453864      8.26510475
 C      3.89309353     -2.29942601      7.05468230
 C      4.05729583     -1.59739697      5.69387635
 C      4.23912889     -2.56356221      4.50852346
 C      4.41264918     -1.86132843      3.14898000
 C      4.74587752     -2.81707567      1.98833101
 C      5.24507540     -2.10730015      0.71608096
 C      5.52834474     -3.05836491     -0.46155833
 C      5.92857509     -2.34068413     -1.76399834
 C      6.08066074     -3.27952657     -2.97521460
 C      6.56621207     -2.57583621     -4.25609702
 C      7.10178011     -3.53655228     -5.33396135
 C      7.71058547     -2.82777820     -6.55813264
 C      8.53909473     -3.75233608     -7.46937636
 C      8.84220316     -3.15663000     -8.85676944
 C      9.64968271     -4.09101327     -9.77682633
 C     10.14232650     -3.42124227    -11.07309363
 C     11.61352533     -2.96870223    -11.02429310
 C     12.10484841     -2.29481383    -12.31892666
 C     13.63741239     -2.26572932    -12.46725655
 C     14.18203798     -0.96608090    -13.08846259
 C     15.63221519     -1.07387045    -13.59538218
 C     16.15374604      0.20422838    -14.27807461
 C     16.98781745      1.11174666    -13.35485445
 C     17.68613458      2.27462820    -14.08400445
 C     18.84601240      2.90491538    -13.29089569
 C     19.71118452      3.87798485    -14.11321740
 C     20.83947779      4.54755789    -13.30685132
 C     21.83224438      5.35129241    -14.16709856
 C     22.72599234      6.31126480    -13.36008704
 C     23.93275226      6.85459490    -14.14756586
 C     24.91777734      7.67668786    -13.29580959
 C     26.20134226      8.08537583    -14.04215752
 C     27.45516289      8.13789439    -13.14953463
 C     28.78181675      8.06229005    -13.92791340
 C     30.03481482      8.07331832    -13.03266248
 C     31.36071531      7.97430870    -13.80969852
 C     32.61546948      8.05998208    -12.92096231
 C     33.90863917      8.38268069    -13.69243996
 C     35.14379261      8.57335204    -12.79263976
 C     36.45712526      8.78549314    -13.56836747
 C     37.67710752      9.06307347    -12.67048526
 C     38.99306228      9.26125629    -13.44546052
 C     40.22550843      9.46599977    -12.54504028
 C     41.54954262      9.00290099    -13.18070765
 C     42.73910241      8.97889988    -12.20296972
 C     44.11641165      9.00071015    -12.89155056
 C     45.24916849      8.38951774    -12.04602954
 C     46.65936764      8.64541747    -12.60945982
 C     47.79694039      8.13028812    -11.70825507
 C     48.03575598      8.98589443    -10.45027853
 C     49.52255019      9.23002625    -10.13177796
 C     50.04365896      8.43066128     -8.92303427
 C     51.45511864      8.84000631     -8.46279717
 C     52.04147346      7.93685475     -7.36184064
 C     53.03251322      8.65327171     -6.42579207
 C     53.46912270      7.81088294     -5.21279852
 C     52.38178606      7.65679919     -4.13318876
 C     52.71981717      6.61826291     -3.04747362
 C     51.61385244      6.43291478     -1.99196991
 C     50.22413538      6.13748081     -2.58611237
 C     49.36881383      7.39393479     -2.83379853
 C     48.02796660      7.11042939     -3.53618975
 C     48.16895967      6.70597740     -5.01542588
 C     46.82889202      6.41122176     -5.71466675
 C     46.95072025      6.18783761     -7.23350098
 C     45.66464864      5.65701918     -7.89369155
 C     45.82763915      5.29569856     -9.38180495
 H     -0.36333333      0.00000000      1.02766186
 H     -0.36333333     -0.88998127     -0.51383093
 H     -0.36333333      0.88998127     -0.51383093
 H      1.88274777      0.43606298     -0.93833525
 H      1.88274777      0.02475745     -1.03441338
 H      3.20318160      0.55865317     -1.23979705
 H      3.17990406      0.51094456     -1.29035401
 H      3.95665182      0.43463916     -2.21304434
 H      4.05699142      1.50540143     -1.90381869
 H      5.33488736      1.75936965     -2.16368911
 H      5.28981973      1.05612103     -2.61390100
 H      6.30552125      2.09492357     -2.91953113
 H      6.30909013      2.09801475     -2.90148346
 H      7.25923050      2.30688317     -3.73806238
 H      7.32472653      1.28215948     -4.15676314
 H      8.07253203      1.57448230     -5.24625246
 H      8.34748468      2.41078835     -4.41296416
 H      9.39012220      2.50833491     -5.26585554
 H      9.41900363      1.65903745     -5.64340200
 H     10.10335725      0.74523593     -5.28454344
 H      9.94752830      1.13069078     -6.67274963
 H     10.79267573      0.36295928     -7.16348385
 H     10.84811529     -0.21608358     -5.70745813
 H     11.65119162     -1.19749227     -6.28850013
 H     11.72907039     -0.59816240     -7.40799861
 H     12.49857530     -1.16367584     -8.07914803
 H     12.37340384     -1.13273494     -8.16154024
 H     13.54479822     -1.05536210     -8.48834181
 H     13.88090345     -0.82129904     -7.25919266
 H     15.01723919     -0.47435265     -8.08221562
 H     14.61856338     -0.92534983     -9.13683347
 H     15.12772254     -1.84767483     -9.57976774
 H     15.97467859     -0.05797623     -8.99420410
 H     17.07174154      0.29162875     -9.09181909
 H     16.48313570      0.05858088    -10.57614066
 H     17.45995272     -0.96831928    -10.65686471
 H     18.21536041      0.15293668     -9.24188045
 H     18.42921432      1.26919860     -8.63362692
 H     18.47812631      1.84259154    -10.31799470
 H     19.91618372      0.31538355    -11.22940392
 H     20.40719046     -0.17470376     -9.59019878
 H     20.94377240      1.88125889     -8.71330508
 H     21.69743294      1.88121503    -10.64055728
 H     22.46149826      2.70301481    -11.03874876
 H     22.90808445      0.78589660    -10.50461734
 H     23.48001165      2.77813617     -9.26718657
 H     22.93147325      3.73577391    -10.66371879
 H     24.38360240      2.51502096    -12.20585468
 H     25.23169588      1.86088387    -10.78419762
 H     25.67659101      3.99493444     -9.80004377
 H     25.24799718      4.74755816    -11.35507802
 H     27.13619902      2.98066235    -12.14126451
 H     27.46200446      2.83412856    -10.39751988
 H     27.81482062      4.73976337     -9.58344032
 H     28.07718183      5.40849898    -11.21200593
 H     29.78221055      3.40969383    -11.39557491
 H     29.56873703      3.26004357     -9.63480788
 H     30.08531320      5.43437746     -9.02594920
 H     30.78197865      5.69493574    -10.64305566
 H     32.22806100      3.86289648    -10.67248519
 H     32.00063537      3.69364473     -8.91524357
 H     32.36868824      5.55824094     -7.99047769
 H     33.18554309      6.14560499     -9.45881631
 H     34.60612771      4.85327553    -10.14454831
 H     34.63223833      4.00870396     -8.57793293
 H     34.83281556      5.27337529     -6.99537313
 H     35.32517513      6.58237845     -8.01929710
 H     36.00072236      7.12523428     -9.16632687
 H     37.19616234      5.82951547     -8.92076078
 H     37.71389888      5.89981064     -6.80420224
 H     36.98953228      7.52047138     -6.67374739
 H     38.43935316      8.21544037     -8.63853116
 H     39.33965432      6.70263944     -8.37555239
 H     39.87229072      6.90324223     -6.16908471
 H     39.44967993      8.63086547     -6.23968718
 H     40.90924767      9.03652044     -8.14806498
 H     41.65527274      7.45135536     -7.83347802
 H     42.11262586      8.06527561     -5.48864806
 H     41.75588995      9.75009402     -5.93852927
 H     43.18110476     10.00069559     -7.71630724
 H     44.03659439      8.52252893     -7.21488180
 H     44.46620944      9.02355724     -5.02366272
 H     44.07836943     10.72869291     -5.35586618
 H     45.47757036     11.07352055     -7.16537114
 H     46.57212821      9.81661036     -5.95713085
 H     46.84686592      9.84756121     -4.60195618
 H     46.49224516     11.58590051     -4.74578679
 H     48.61603036     11.83236101     -5.40913287
 H     48.62240817      9.96301810     -6.16055472
 H     49.14662770     10.40356759     -3.99734430
 H     49.78814252     12.09317007     -4.98464505
 H     50.48376672     12.35356589     -6.09992022
 H     51.12851813     10.71914988     -5.81488238
 H     51.54015606     11.55381144     -3.39043045
 H     51.26789727     13.16433896     -4.02857173
 H     53.46479386     11.65682137     -3.32701338
 H     52.02018685     10.49596388     -2.99960041
 H     52.60578131     12.13024000     -1.78539744
 H     54.09113602     12.33329256     -2.74495865
 H     55.03127265     10.38868134     -2.84428804
 H     54.64184730     10.87760454     -0.90902948
 H     54.50393945     11.57640803     -0.00942777
 H     55.87232392     12.03028439     -1.05335634
 H     57.02697794     10.19082353     -1.32113980
 H     56.17067562      9.44727422      0.05077398
 H     56.45970811     11.03337738      1.65380291
 H     56.72522301     11.76376709      1.23865697
 H     56.91492255     12.46089077      2.27810328
 H     57.63510809     12.92561380      0.50484670
 H     58.86249525     12.43610841      2.30602742
 H     57.39428305     12.47436309      3.31159004
 H     56.70422586     14.65021972      2.56639687
 H     58.33192746     14.87565072      1.88226601
 H     59.28479564     14.30723977      4.15208515
 H     57.63524077     14.51600192      4.78742267
 H     57.81962101     16.86650947      3.63692148
 H     59.55608213     16.50202113      3.49508461
 H     60.71453010     15.94374043      4.54778189
 H     59.73562461     16.51706457      5.91939048
 H     59.83128060     18.72559456      4.33463580
 H     59.96433759     18.45753377      3.70420233
 H     59.56325508     18.00019137      2.55736617
 H     61.28835839     17.57919399      2.43470230
 H     62.33485356     19.44915525      2.99360129
 H     60.82323511     20.36194350      2.76978456
 H     60.00247872     19.91188815      0.88598528
 H     61.55569514     19.22630547      0.35141833
 H     63.05636164     19.40368290      0.37364174
 H     62.77419002     21.15329269      0.53950741
 H     61.27761440     21.51456765     -1.13128663
 H     61.68801965     19.92711754     -1.82398883
 H     64.12610368     20.68106568     -1.76375755
 H     63.49742765     22.31936436     -1.46541118
 H     62.17909858     23.08130272     -2.55781761
 H     62.53284350     21.91164319     -3.85204626
 H     64.84464214     22.20704175     -3.93855267
 H     64.65962686     23.69973287     -2.98676004
 H     63.00656029     24.61537805     -4.53209346
 H     63.48697864     23.35292965     -5.69126942
 H     65.69158878     23.58066704     -5.82942914
 H     65.57308267     25.18137643     -5.06004470
 H     63.84886676     25.76351528     -6.85161729
 H     64.39506367     24.29569546     -7.69745451
 H     66.73604803     25.06151546     -7.65405037
 H     66.12409304     26.67087299     -7.20266792
 H     64.60635988     26.87450175     -9.01903593
 H     64.68861180     25.78984361     -9.50126921
 H     63.85694650     25.02455919     -9.34117564
 H     65.26752146     24.59619020    -10.33869503
 H     64.46316575     26.91524498    -11.49709907
 H     63.00438097     26.68270769    -10.50405323
 H     62.27352128     24.68709735    -10.99006753
 H     63.29916625     24.65817535    -12.44453739
 H     62.60389146     26.69093470    -13.36520002
 H     61.21777571     26.68678818    -12.24853867
 H     60.09953277     25.00630096    -13.14081001
 H     61.69118053     24.63900294    -14.37008280
 H     59.26146940     25.76166586    -12.63233970
 H     59.81711283     24.11981046    -12.22757078
 H     59.35385690     23.59491654    -14.75844689
 H     58.37921080     24.67028333    -14.74075133
 H     59.67425527     22.16373261    -13.37350324
 H     60.10172088     22.72033354    -15.00927071
 H     58.01320757     22.43582113    -16.00828179
 H     57.51424648     21.44778455    -14.61433480
 H     59.46745320     19.98076512    -14.84347765
 H     59.72592795     20.69284169    -16.45419315
 H     57.49664870     20.23180864    -17.22578916
 H     57.29742498     19.13880689    -15.83513328
 H     59.02874131     17.78186581    -15.94582553
 H     59.32704509     18.29534755    -17.62380587
 H     56.60970624     17.41818201    -17.26338925
 H     56.63235804     17.46281202    -16.27234377
 H     56.56500095     17.95407184    -15.06145157
 H     57.52496487     16.49931817    -14.70030382
 H     55.77979338     15.16630358    -15.98349574
 H     54.76042065     16.62315154    -15.90139867
 H     54.57144662     17.31115652    -13.96658344
 H     55.14357132     15.75057204    -13.32978200
 H     53.84208581     14.27056389    -14.37797873
 H     52.73340197     15.58234740    -14.84521618
 H     52.05494285     16.85674414    -13.88553738
 H     52.49970140     16.45377100    -12.61827435
 H     53.33668011     16.95329786    -12.02070763
 H     52.48591109     15.52880219    -11.37629252
 H     50.26935425     16.25249421    -11.89137087
 H     50.57306320     17.41587674    -11.62111837
 H     50.74759337     14.41955396    -11.24241717
 H     49.68975903     15.34089433    -12.33803804
 H     48.64690926     16.29012114    -10.16331849
 H     49.53017537     14.99203689     -9.32481690
 H     48.54505087     13.25771567    -10.73275446
 H     47.36001799     14.46750163    -11.28082530
 H     46.42417750     15.42007252     -9.74669205
 H     46.93879114     14.15143380     -8.60915292
 H     45.87415603     12.54769652    -10.38977391
 H     45.16641035     14.02423254    -11.08777398
 H     44.15080558     14.60101178     -8.89599805
 H     44.52204137     12.93894241     -8.37833400
 H     43.66063070     11.63701808     -9.89395391
 H     42.67996293     12.98911642    -10.50908599
 H     41.64793491     14.01394013     -9.20326114
 H     41.79908479     12.70331385     -8.00840587
 H     40.89065875     11.24523921    -10.01393051
 H     40.51170467     12.80704322    -10.77906363
 H     39.20528564     13.63315077     -8.95812993
 H     39.15506210     11.97812868     -8.30494839
 H     38.33975967     10.96050801    -10.29471736
 H     37.93328115     12.58236476    -10.90514556
 H     36.64305123     13.18792961     -8.96382810
 H     36.64253111     11.47081545     -8.49501539
 H     35.97258855     10.30239469    -10.11241217
 H     35.30430367     11.74894768    -10.90559969
 H     34.08693695     12.21922039     -8.70871171
 H     34.52071830     10.55740137     -8.24131686
 H     33.98775730      9.16492484     -9.61035787
 H     32.86927773     10.31322907    -10.38409393
 H     31.62214098     11.24742277     -9.13064042
 H     31.93462665     10.03290299     -7.86748521
 H     31.49791362      8.14063575     -9.24072148
 H     30.74812441      9.23195102    -10.43030704
 H     29.25513527     10.34727009     -9.15473314
 H     29.44493791      9.12128911     -7.87832715
 H     29.05494844      7.22455045     -9.16356187
 H     28.39247440      8.26422505    -10.44749003
 H     26.88032646      9.50220174     -9.44857148
 H     26.89067434      8.39649501     -8.05373377
 H     26.62619606      6.41205122     -8.76892008
 H     26.05300554      7.03538631    -10.33454220
 H     24.43304485      8.48938296     -9.62218964
 H     24.48145907      7.72714887     -8.01442041
 H     24.19639949      5.52420090     -8.63373394
 H     23.66804024      6.06856406    -10.24394259
 H     21.98431461      7.56384816     -9.36813006
 H     22.16604099      6.75500328     -7.79300716
 H     21.70617504      4.58021854     -9.15355585
 H     21.19803417      5.66951819    -10.46637182
 H     19.70080312      6.98713466     -9.61988646
 H     19.50995816      5.89239939     -8.22941907
 H     19.17491767      3.90968265     -9.13105735
 H     18.82858637      4.67857179    -10.69858112
 H     17.18077988      6.18366550     -9.84181146
 H     17.13295697      5.20845098     -8.35354526
 H     16.68968174      3.20450147     -9.91483984
 H     16.38804195      4.41576378    -11.18374635
 H     14.80195853      5.70232006    -10.15732956
 H     14.56266415      4.41522498     -8.95134817
 H     14.21567045      2.59432359    -10.11589385
 H     13.90931999      3.57576760    -11.56888515
 H     12.19554463      4.82125932    -10.05955118
 H     12.41071628      3.46706868     -8.92459060
 H     11.98658937      1.68029333    -10.21052375
 H     11.25095422      2.74322716    -11.43415738
 H      9.79065000      3.65958541     -9.54229686
 H     10.35249580      2.26714064     -8.58642367
 H      9.75481864      0.58552855    -10.09923780
 H      8.75354874      1.77059488    -10.97178753
 H      7.68066960      2.18554582     -8.63092906
 H      8.52210108      0.69847989     -8.13203561
 H      7.55644892     -0.63172339     -9.90809329
 H      6.38693352      0.68263958    -10.17818653
 H      5.47235051      1.13606131     -8.29774297
 H      6.06202299     -0.40235508     -7.62407537
 H      5.26930117     -1.82837546     -9.27896659
 H      4.22931936     -0.51298123     -9.87599464
 H      3.13836270      0.14354608     -8.04571352
 H      3.69255921     -0.75456793     -7.13708557
 H      4.48642851     -0.52765971     -6.34850927
 H      3.85838067     -2.18411888     -6.52161496
 H      2.01786549     -2.53523330     -6.59026952
 H      1.65766428     -0.94900196     -5.86750269
 H      3.19079714     -1.25782963     -4.02453116
 H      3.26418784     -2.98483596     -4.44918350
 H      1.10611665     -3.57419561     -4.50093250
 H      0.68198007     -2.07751649     -3.63587388
 H      2.21289377     -2.37803309     -1.84826799
 H      2.41112871     -4.07177422     -2.35837636
 H      0.10504592     -4.61353223     -2.35828930
 H     -0.20396642     -3.12008059     -1.44047655
 H      1.55841661     -3.98549205      0.21898485
 H      1.41097734     -5.54772605     -0.62122540
 H     -0.65272509     -6.08608151     -0.65671230
 H     -1.17799989     -4.99357871      0.07017085
 H     -1.74150402     -4.06500402     -0.27680776
 H     -1.36233115     -4.21872783      1.45549232
 H     -1.92240192     -6.04148938      2.21242216
 H     -2.97362205     -6.33135493      0.80558853
 H     -4.07485457     -4.13448844      1.13588479
 H     -3.31152885     -4.08310368      2.74304381
 H     -4.46786409     -6.40712454      3.05334785
 H     -5.38742840     -5.99024095      1.58744328
 H     -6.19001768     -3.89695900      2.46320424
 H     -5.66896971     -4.43390294      4.07827912
 H     -6.70051311     -6.44921457      4.22813282
 H     -7.73219047     -6.00974876      2.84582377
 H     -8.55065063     -4.00730960      3.51236277
 H     -8.01418041     -4.35382795      5.17380534
 H     -9.27671092     -6.54412302      5.03276315
 H    -10.05217943     -5.88669217      3.57170191
 H    -10.57013186     -3.96940553      5.45635435
 H     -9.99524362     -5.21745058      6.58779313
 H    -10.85629264     -6.97853575      6.47556832
 H    -12.22884828     -6.28496095      5.57929177
 H    -12.76995289     -4.53446366      6.94818527
 H    -11.77870872     -5.25853778      8.23714545
 H    -13.21899741     -7.38253392      7.79757794
 H    -14.27998582     -6.30582751      6.85775159
 H    -14.57303210     -4.75718197      8.70875656
 H    -13.88672854     -6.00295860      9.77894097
 H    -16.07408666     -7.11027861      8.33803523
 H    -16.32209897     -5.39477310      7.93331631
 H    -16.43246483     -4.74812893     10.28989624
 H    -16.61108039     -6.47429649     10.68576075
 H    -18.58308998     -6.45922192      9.03120211
 H    -18.47109269     -4.68408839      9.09920387
 H    -18.65222083     -4.63530686     11.52511891
 H    -19.18746143     -6.33151658     11.45687852
 H    -20.96765296     -5.78519240      9.85131442
 H    -20.70070551     -4.07070645     10.24823210
 H    -20.84405238     -3.96674652     12.43523841
 H    -21.60981754     -5.57328004     12.46557698
 H    -23.29235302     -4.76689165     10.78874512
 H    -22.71831092     -3.11929009     11.14109643
 H    -23.19683485     -3.60989489     13.59518533
 H    -24.09555168     -5.03590296     13.02328002
 H    -25.43844257     -3.43675129     11.55644932
 H    -24.72627375     -2.12430433     12.52524508
 H    -25.30560086     -2.84885582     14.63334008
 H    -26.45989743     -3.98874082     13.90085917
 H    -27.39767652     -1.90976301     12.67647107
 H    -26.42415219     -0.95387730     13.81962442
 H    -27.64785577     -2.23131792     15.67690138
 H    -28.77349528     -2.76855401     14.40702748
 H    -29.44491394     -0.89103929     13.45186932
 H    -28.81694281      0.03770874     14.83438371
 H    -30.18332557     -1.49946057     16.33533960
 H    -31.00820402     -2.03735420     14.85260138
 H    -31.61347676      0.22218531     14.20131264
 H    -31.18818486      0.74593327     15.84845609
 H    -32.20300686     -0.45280769     17.24957766
 H    -33.31952565     -1.01984095     15.98461688
 H    -33.83848642      1.29563986     15.31667641
 H    -33.06452805      1.82668390     16.82904123
 H    -34.37933978      0.43504433     18.25408112
 H    -35.49156865      0.16874356     16.89015389
 H    -35.93872409      2.33417025     16.30006050
 H    -35.25771956      2.87904025     17.85171000
 H    -35.71604825      2.16915676     19.47769905
 H    -37.21433997      1.49605255     18.79190076
 H    -38.12818234      3.22597561     17.73824287
 H    -37.04367786      4.33130051     18.61595213
 H    -37.59253663      3.50044726     20.78701653
 H    -38.99585323      2.67690327     20.06539027
 H    -39.63190734      4.98588841     19.12201781
 H    -38.41710109      5.64586909     20.24315025
 H    -39.19363403      4.71707070     22.21243378
 H    -40.72841435      4.33162304     21.39748216
 H    -41.32273349      6.30589112     20.51695735
 H    -40.13855860      7.12286958     21.56507122
 H    -41.27838624      5.89612400     23.51412237
 H    -42.58051912      5.51867272     22.36075896
 H    -42.86714219      7.90118854     21.80310584
 H    -41.88300037      8.27940969     23.23721891
 H    -42.87046745      7.19279850     24.88247126
 H    -44.32039754      6.97760748     23.87268800
 H    -44.35266713      9.44879021     23.44679639
 H    -43.18103449      9.60156566     24.77803764
 H    -44.56193992      8.41202669     26.35919195
 H    -45.92331350      8.60080203     25.22813381
 H    -45.52518209     11.06607859     25.17386563
 H    -44.47592014     10.84016094     26.59382240
 H    -45.14076753      9.87663277     28.11000777
 H    -46.81785826     10.10373081     27.55859158
 H    -46.55802392     12.49881175     27.28128936
 H    -45.04816399     12.38325062     28.21682947
 H    -45.34308813     11.39902415     30.00898191
 H    -47.10265348     11.63192285     29.87498705
 H    -47.75598375     13.41656478     29.47263036
 H    -46.20005712     14.13035715     29.96033869
 H    -45.62279010     13.40422779     31.83036591
 H    -47.27767638     12.82710822     32.14109257
 H    -48.66520625     14.33101280     31.78290536
 H    -47.37900578     15.56049965     31.83104181
 H    -46.44012280     14.92314910     33.88946307
 H    -47.89609455     13.95159398     34.21271776
 H    -49.22536502     16.09858308     33.74750443
 H    -47.66627634     16.94972127     33.86184123
 H    -46.99860346     16.17819569     35.94603791
 H    -48.66139840     15.61586171     36.24126689
 H    -49.53587018     17.88224582     35.69951672
 H    -47.86016877     18.46844527     35.82859681
 H    -47.42867400     17.61511944     37.98294608
 H    -49.17770651     17.35858733     38.19113637
 H    -50.14661464     19.22568060     37.72737163
 H    -48.59222226     20.08112297     37.87002276
 H    -48.30000835     19.02250289     40.14449399
 H    -50.01859456     18.56975738     40.04575386
 H    -50.51235983     21.03472419     39.62023420
 H    -48.84093369     21.34832947     40.14583202
 H    -48.77226921     20.33253972     42.15034501
 H    -50.55035987     20.25173496     42.16178511
 H    -51.09188456     22.41584118     41.74169428
 H    -49.42015261     22.89444677     42.12184641
 H    -48.80228152     22.13684539     43.93485356
 H    -50.48832777     21.80439383     44.39852442
 H    -51.42731636     23.85539694     43.97885758
 H    -49.79651661     24.56411785     43.89839954
 H    -48.79663893     23.94196980     45.73550250
 H    -50.36574295     23.49071669     46.44441001
 H    -51.30594487     25.71134393     45.92310676
 H    -49.64117679     26.26098466     45.61535854
 H    -48.82979450     25.51846447     47.77104627
 H    -50.52514498     25.35046947     48.28663440
 H    -51.58169371     27.10577519     47.91839196
 H    -50.05944448     28.00941427     47.73275696
 H    -48.97581653     27.41286413     49.64692035
 H    -50.51128102     26.80104738     50.30744722
 H    -51.71695103     28.84178907     49.89558009
 H    -50.15331335     29.64999685     49.63080841
 H    -49.03476884     29.09981877     51.51982198
 H    -50.56987145     28.60105285     52.27012806
 H    -52.09442295     29.53568074     52.29824380
 H    -51.20393470     31.04001824     51.96318257
 H    -49.61563897     30.61505629     53.78044406
 H    -50.73369190     29.36294137     54.37241749
 H    -52.53370602     31.18812622     54.35459498
 H    -51.19563088     32.34527798     54.15756354
 H    -50.06070492     31.46805727     56.16338148
 H    -51.58028450     30.63366674     56.56703605
 H    -52.91379208     32.64255574     56.44151254
 H    -51.40143253     33.58093265     56.46351325
 H    -50.75738755     32.34810915     58.57453387
 H    -52.44841942     31.79774201     58.65051995
 H    -53.61264673     33.69059129     58.53334666
 H    -52.13913264     34.61714277     58.90553646
 H    -51.91410799     33.05838264     60.94869986
 H    -53.58817285     32.56307184     60.60165416
 H    -54.69049782     34.49886581     60.53823614
 H    -53.31546744     35.30428536     61.33124147
 H    -52.50841234     34.64144977     62.86144912
 H    -53.93837950     33.64327609     63.21797386
 H    -55.63097086     35.06329737     63.07019215
 H    -54.49198805     36.42895171     63.14747767
 H    -53.30814223     35.88257389     65.01993774
 H    -54.56715166     34.70077274     65.45180341
 H    -56.21009989     36.68288120     65.18852843
 H    -54.76209204     37.71797711     65.17774061
 H    -54.03485461     36.72919849     67.34691438
 H    -55.67415457     36.05064833     67.49020427
 H    -56.49418563     38.47226798     67.15610253
 H    -54.80506131     38.95493868     67.44272892
 H    -55.11825757     37.58162893     69.65918507
 H    -56.84817019     37.60451044     69.26451003
 H    -57.78382873     37.16729006     68.77325698
 H    -57.91928230     38.87890719     69.24260311
 H    -57.10863360     38.13675479     71.56084092
 H    -57.42745107     36.47367443     71.01240149
 H    -59.63121920     36.72670104     70.35308313
 H    -59.69178754     38.27188447     71.23456274
 H    -58.99034282     37.87689940     73.23570234
 H    -59.21302842     36.12941664     72.98078710
 H    -61.58101530     36.60814417     72.24788391
 H    -61.35638266     38.23946227     72.92361171
 H    -60.68877057     38.19528666     74.85983701
 H    -61.17167567     36.48909292     75.01466670
 H    -63.46599057     37.15642629     74.17035724
 H    -62.96895413     38.84148351     74.45637055
 H    -62.29502389     38.85475595     76.56218743
 H    -63.09721318     37.28845501     76.82950821
 H    -64.76377874     36.84908195     76.36738771
 H    -65.21199884     38.56875328     76.26690925
 H    -64.22604266     38.87453959     78.57779645
 H    -64.21358221     37.09866636     78.69773678
 H    -66.17230236     36.38908414     78.25255225
 H    -66.83502730     38.02418057     78.48818326
 H    -66.18218821     38.79956249     80.32406188
 H    -65.71095430     37.17133836     80.86728508
 H    -67.33204971     35.84883405     80.56469068
 H    -68.44492690     37.22600002     80.38252346
 H    -68.08355074     38.49154074     82.13195383
 H    -67.23115665     37.14982734     82.93288836
 H    -68.43075419     35.42133389     82.87241183
 H    -69.86066799     36.40422467     82.47550013
 H    -70.03096669     37.99142676     83.83875467
 H    -68.90547766     37.18057929     84.95413241
 H    -69.59548665     35.17535561     85.23256800
 H    -71.18469900     35.61396833     84.56153174
 H    -71.07305082     37.51837629     86.36501704
 H    -69.70494224     36.60144415     87.04013260
 H    -70.68673995     34.54943433     87.30799559
 H    -72.28407502     35.30677296     87.10008807
 H    -71.58442772     36.92389920     88.96090430
 H    -70.24249858     35.79823290     89.27771377
 H    -72.28145024     34.08945273     89.47887301
 H    -73.29122591     35.55501600     89.50615065
 H    -72.18878717     36.60112019     91.31983422
 H    -71.40926189     35.04473290     91.69167502
 H    -73.70988650     33.99443875     91.73670443
 H    -74.35667021     35.65238212     91.77078193
 H    -73.14264700     36.41201225     93.62920535
 H    -72.74043980     34.72151450     94.01483911
 H    -75.04602029     33.99554235     93.98673876
 H    -75.52662315     35.70884084     94.03028014
 H    -74.11474004     36.05875340     96.05324137
 H    -74.01635180     34.28658939     96.18748421
 H    -76.65547454     34.50883832     96.13274460
 H    -76.35898376     36.24461077     96.39246347
 H    -75.03370558     35.97563276     98.34682972
 H    -75.60760266     34.29401797     98.45209363
 H    -77.95589088     35.61345654     98.33885934
 H    -76.95330569     37.05503333     98.63031425
 H    -76.28104596     35.49509256    100.74373551
 H    -77.68475899     34.52681739    100.23353985
 H    -79.35193345     35.96671245    100.16652087
 H    -78.39141379     37.12635218    101.11568069
 H    -77.55411867     36.46750209    102.75397355
 H    -78.63942784     35.05691350    102.77868242
 H    -80.65409874     36.29651853    102.54476349
 H    -79.74146104     37.77193287    102.94289863
 H    -78.96606563     36.52614935    105.04753143
 H    -80.24002014     35.34034658    104.67446529
 H    -82.01009107     36.93367696    104.56289154
 H    -80.93435975     38.11543556    105.34680187
 H    -80.55302908     36.42688053    107.19042475
 H    -81.93933314     35.53270685    106.52193305
 H    -83.54328306     37.10623629    106.46905146
 H    -82.56654486     38.12761098    107.55119881
 H    -82.30351612     36.34039739    109.19127210
 H    -83.60409636     35.46434514    108.34907845
 H    -85.01751151     37.57663589    108.64991880
 H    -83.76696249     38.11382937    109.79700946
 H    -84.15823370     35.89863116    111.02189894
 H    -85.62505119     35.73831187    110.02640366
 H    -86.52194730     37.87519865    110.65805864
 H    -85.33357285     37.92471692    111.98228700
 H    -84.94141444     36.70533531    113.16062632
 H    -86.50996782     35.91163518    112.88143632
 H    -87.79317958     37.92641200    113.14375412
 H    -86.34928809     38.69249566    113.84842416
 H    -85.44650726     37.75000115    115.29797599
 H    -86.88731541     36.74470814    115.58385098
 H    -87.69100181     39.45386638    115.59623325
 H    -85.92954394     39.70526403    115.64452468
 H    -84.85735320     38.86941703    116.94230171
 H    -86.28085209     38.56630768    117.96701743
 H    -87.28441326     40.53259468    118.09102519
 H    -85.81094785     41.32382263    117.48182515
 H    -84.38470385     40.29094394    119.14514502
 H    -85.85560189     39.83098788    120.03574372
 H    -86.49552663     42.31272939    119.93607977
 H    -84.81627050     42.60642506    119.42411455
 H    -84.12025310     41.35456499    121.55148384
 H    -85.81550437     41.52344113    122.06711028
 H    -86.34292269     43.58584373    121.93882392
 H    -84.62310899     44.03565034    121.84837208
 H    -83.86233122     42.88132520    123.71293610
 H    -85.54905170     42.68445012    124.24630360
 H    -86.63648892     44.34150112    124.29740008
 H    -85.16608211     45.34391711    124.26089422
 H    -83.81606628     44.68815489    125.72179892
 H    -85.11001145     43.77928162    126.53906382
 H    -86.60573469     45.67102081    126.64376854
 H    -85.22387074     46.71549820    126.23415206
 H    -83.72753554     46.06987924    127.83540488
 H    -85.04955432     45.28144602    128.72922034
 H    -86.56980798     46.92826718    128.88857015
 H    -85.32246566     48.11381932    128.43374057
 H    -83.68298346     47.61020452    129.92825183
 H    -84.85923901     46.67466035    130.88190095
 H    -86.36325807     48.69376987    130.90788515
 H    -84.96324671     49.62601235    130.32551173
 H    -83.37492522     49.14348139    131.81286608
 H    -84.61126260     48.49870387    132.91921074
 H    -85.87282246     50.66447240    132.68888200
 H    -84.40056052     51.33329834    131.94498461
 H    -82.74423010     51.01590811    133.14752903
 H    -83.79415867     50.66824749    134.54217908
 H    -85.18159146     52.41655306    134.57719948
 H    -84.09017798     53.29960905    133.48298955
 H    -82.11958351     53.03334553    134.70479675
 H    -83.09262977     52.52486454    136.10583020
 H    -84.52037125     54.44529061    136.07935657
 H    -83.36158507     55.23119903    134.98034374
 H    -81.43576031     54.70892349    136.39547943
 H    -82.44025431     54.55168336    137.64567874
 H    -81.50097073     56.18797103    135.09194199
 H    -80.56878581     54.77389822    135.63938700
 H    -80.18894379     56.13526070    137.80644339
 H    -80.80916895     57.52944129    136.89001125
 H    -79.02322292     57.03776599    135.14805146
 H    -78.28836659     55.96004191    136.36014275
 H    -78.19637834     54.88484804    136.72904178
 H    -77.55209337     56.19322213    137.74949305
 H    -76.27073121     56.96284839    135.66296754
 H    -76.70375755     55.38682505    134.95805246
 H    -75.71761432     54.20434991    136.89710417
 H    -74.94843071     55.74547134    137.34606739
 H    -73.92966906     55.98931912    135.13009368
 H    -74.33645923     54.28243162    134.83122335
 H    -73.35233375     53.34471555    136.70529344
 H    -72.46441367     54.86470052    136.96894149
 H    -71.50117039     55.19089325    134.95267491
 H    -71.85787141     53.50153311    134.52013199
 H    -70.59308484     53.05912943    136.81407370
 H    -70.10775663     54.76727517    136.69175716
 H    -69.14545348     54.63833230    134.54664944
 H    -69.15637368     52.86404354    134.68823618
 H    -67.83836888     53.59871519    136.95043010
 H    -67.77549884     55.19408676    136.16359875
 H    -66.79056504     54.60453136    134.17069017
 H    -66.32540515     53.04260084    134.88641779
 H    -65.25499896     54.36722505    136.78065577
 H    -65.43871954     55.79895060    135.73917828
 H    -64.21425266     54.64578779    133.90845873
 H    -63.71104727     53.43914457    135.11637559
 H    -62.89685469     55.78756843    136.24813944
 H    -63.24620840     56.45366810    134.63490360
 H    -61.94752611     55.06870429    133.34488118
 H    -61.09404715     54.53537521    134.81069524
 H    -62.39908984     56.54634532    132.73461824
 H    -62.38904181     54.79542563    132.41454646
 H    -60.21446203     54.30589952    132.33828482
 H    -59.83377819     56.03747670    132.18021225
 H    -61.48323937     56.05168017    130.21500569
 H    -61.40971531     54.27485989    130.29097007
 H    -59.48411906     53.57385001    130.23468468
 H    -58.90408980     55.14135983    129.62251991
 H    -60.40956783     55.35904920    127.84382523
 H    -60.81875731     53.63588715    128.02142919
 H    -58.29944604     53.18787938    127.83672859
 H    -58.15766145     54.87334379    127.28231583
 H    -59.52392653     55.12134459    125.64252267
 H    -59.66097675     53.35476532    125.47316621
 H    -57.70120065     52.53651681    125.37464317
 H    -57.02859483     54.14741277    125.02696190
 H    -58.19266788     54.94430388    123.37745004
 H    -58.82722842     53.31835151    123.02833904
 H    -56.92891568     52.10146328    122.90036500
 H    -55.98553410     53.60532983    122.77120131
 H    -57.62155945     54.14667077    120.81336998
 H    -58.10299417     52.43653602    120.92257811
 H    -55.93705260     51.52567155    120.70239573
 H    -55.36649671     53.11602298    120.14247164
 H    -56.80159705     53.58430237    118.47962482
 H    -57.31770878     51.88098713    118.45487568
 H    -55.13108716     50.96870902    118.25661732
 H    -54.53895644     52.59313526    117.83366663
 H    -56.38948619     52.52873929    116.01185981
 H    -56.50427909     50.79003032    116.37515080
 H    -54.05500819     50.54821229    115.94800254
 H    -54.11176621     52.16800606    115.21226256
 H    -55.97489809     51.26301968    113.71258888
 H    -55.49329433     49.64615545    114.28010498
 H    -53.17589187     49.94488685    113.64019140
 H    -53.68247502     51.36094365    112.68812875
 H    -55.35368640     49.66476165    111.60024971
 H    -54.37880020     48.40762843    112.39867292
 H    -52.30297291     48.89127364    111.65509389
 H    -53.00790272     49.92568975    110.38965961
 H    -54.46098028     48.00870931    109.67785876
 H    -53.41893004     46.96700089    110.67647857
 H    -51.37268938     47.63236692    109.66260510
 H    -52.31566244     48.36179444    108.34086233
 H    -53.55862386     46.33457638    107.89548566
 H    -52.37076099     45.45649288    108.88857067
 H    -50.58438859     46.49329325    107.36161287
 H    -51.93061130     46.94062157    106.28650895
 H    -52.71118701     44.60034248    106.19879946
 H    -51.14829027     44.13172992    106.91015220
 H    -50.06986955     45.41989485    104.96892451
 H    -51.68842012     45.42772088    104.22831701
 H    -52.11520015     43.14949085    104.28784200
 H    -50.38897055     42.86080326    104.61196776
 H    -49.58108780     44.11749773    102.76325437
 H    -51.23019370     44.11049009    102.09342806
 H    -51.18554654     41.57511872    102.32641302
 H    -49.43235559     41.73727925    102.58774065
 H    -48.48728103     42.80242979    101.15702319
 H    -49.87218787     42.60618757    100.05621044
 H    -50.17452420     40.35051445    100.14891553
 H    -48.56584979     40.18037712    100.89153697
 H    -47.64897002     41.51807946     98.92885948
 H    -49.22274606     41.24264005     98.14423933
 H    -49.56163771     39.10456504     98.18686348
 H    -47.84205267     38.82959090     98.55521544
 H    -47.25438956     40.25168772     96.55536178
 H    -48.96145419     40.10618295     96.07263478
 H    -49.64604623     38.21893592     96.00130265
 H    -47.98272193     37.58578738     95.97406563
 H    -47.17266631     38.89390243     94.21454173
 H    -48.85087105     39.31359421     93.79531109
 H    -49.65704543     37.09545654     93.66244943
 H    -47.97086819     36.52598701     93.63456699
 H    -47.44202576     38.01881042     91.73967313
 H    -49.19471949     38.24530989     91.52747191
 H    -49.52157635     35.78689741     91.40403863
 H    -47.75906179     35.64439734     91.20031626
 H    -47.15338363     36.90422870     89.60805524
 H    -48.83720326     37.03122304     89.04512491
 H    -49.85909111     35.40385710     88.82726799
 H    -48.36762586     34.43257497     88.80704165
 H    -47.01641476     35.28745681     87.41722676
 H    -48.33770423     36.22952311     86.68580904
 H    -49.30884462     33.66805522     86.64551589
 H    -47.62870639     33.24385771     87.05228203
 H    -46.39217149     34.16498664     85.51898486
 H    -47.82703761     34.40129470     84.49254228
 H    -48.88921412     32.61253599     84.30923487
 H    -47.48229561     31.69224759     84.89397090
 H    -45.90725706     32.59852882     83.39484264
 H    -47.25460796     33.24098864     82.42522540
 H    -48.14976107     30.82510171     82.41706578
 H    -46.54546219     30.35667746     83.02949579
 H    -45.29922766     31.38521886     81.29534499
 H    -46.80492303     31.53404895     80.35779621
 H    -47.03920067     28.98444262     80.76175600
 H    -45.34359821     29.04332736     81.30002317
 H    -44.29876507     30.01335634     79.58616159
 H    -45.71579953     29.70739396     78.55336585
 H    -45.74897004     27.32991829     79.11544328
 H    -44.11595910     27.53502813     79.79328684
 H    -43.11684107     28.50946105     77.91502009
 H    -44.51335699     27.98890379     76.94186539
 H    -44.56819834     25.76182016     77.46837913
 H    -42.92589256     25.89863990     78.14097022
 H    -41.90294231     26.88406985     76.28429697
 H    -43.31856827     26.43282484     75.30417057
 H    -43.63473491     24.31486115     75.62576009
 H    -41.99879981     24.16488609     76.31095385
 H    -40.85949615     25.19609732     74.51515205
 H    -42.33207915     25.01965139     73.53096060
 H    -42.88541393     22.91367898     73.67873116
 H    -41.26676616     22.52598208     74.30955378
 H    -40.29317626     23.72245532     72.30085746
 H    -41.93107732     23.67458581     71.60569180
 H    -41.92153605     21.16991449     71.96626340
 H    -40.36870091     21.81425392     70.87852303
 H    -39.74906507     22.45210132     70.16485474
 H    -41.37551114     21.96292665     69.63226861
 H    -40.61486634     19.56419012     70.23155799
 H    -38.97137507     20.24201606     70.31962109
 H    -38.57730727     21.26372215     68.49088594
 H    -39.95077449     20.43829728     67.71594836
 H    -38.84610475     18.26090798     68.56947905
 H    -37.41401164     19.26505901     68.89971637
 H    -37.17532314     20.18195853     66.75924765
 H    -38.28947650     18.94042852     66.13833528
 H    -36.95129862     17.13074342     67.12195306
 H    -35.65005749     18.32073531     67.36476470
 H    -35.58697801     19.05794483     65.09888539
 H    -36.55371687     17.63071700     64.65537287
 H    -35.11377632     16.03658100     65.67333614
 H    -33.86664160     17.30134092     65.78867906
 H    -34.21963491     17.63048321     63.26334429
 H    -35.11970585     16.09553577     63.30890015
 H    -33.39412017     14.82060650     64.32028743
 H    -32.25676645     16.13600001     63.94024392
 H    -33.03212987     15.97211038     61.52819724
 H    -33.79505918     14.43083026     61.98717558
 H    -32.04066283     13.32792850     62.91182571
 H    -30.92871814     14.51054117     62.18157031
 H    -31.75757698     14.29039306     59.96583767
 H    -32.59870718     12.80628634     60.47396549
 H    -30.24972292     12.06070637     61.30664948
 H    -29.62497373     13.43464811     60.36312460
 H    -30.51823692     13.00718724     58.32012619
 H    -30.88909039     11.34699063     58.84403611
 H    -28.67899851     10.84356469     59.58556688
 H    -28.10747678     12.28692562     58.71474038
 H    -28.81898274     12.17481631     56.70841487
 H    -29.17926397     10.44418311     56.91667628
 H    -26.99198123      9.88594934     57.73417676
 H    -26.42749281     11.47235740     57.15717680
 H    -27.19249283     11.27409695     54.94561309
 H    -27.41652184      9.52913203     55.21612209
 H    -25.44311315      8.87036449     56.00360661
 H    -24.71282004     10.39302540     55.44107450
 H    -25.77726780      9.74367156     53.14999022
 H    -26.03578687      8.14023288     53.87828889
 H    -23.71218634      7.85807987     54.48073946
 H    -23.32677947      9.22487084     53.40760821
 H    -24.55473024      7.98358790     51.56168487
 H    -24.49849699      6.55830179     52.62642145
 H    -22.12015331      6.63510404     52.93519958
 H    -22.03006122      7.76880616     51.56594081
 H    -23.17205204      6.55393949     49.98168927
 H    -23.00708309      5.10570628     51.00329217
 H    -20.55876409      5.43353925     51.14716645
 H    -20.71442914      6.59846135     49.81038241
 H    -21.76816889      5.62364269     48.22123992
 H    -21.45926434      4.03873414     48.97017886
 H    -19.24265746      4.08090275     49.30455822
 H    -19.10835020      5.46856516     48.19793215
 H    -20.34266344      4.20227274     46.44531684
 H    -20.07583353      2.74354711     47.42979031
 H    -17.73289021      2.95812862     47.61196953
 H    -17.77860072      4.15700264     46.29710136
 H    -18.48539331      4.27430776     44.83195659
 H    -18.59859887      2.49929922     44.76270448
 H    -16.51701695      1.85658106     45.29241053
 H    -15.93724275      3.51363685     44.99865101
 H    -16.37486394      4.43903180     43.42326072
 H    -16.79728649      2.91385170     42.60861262
 H    -15.28280697      1.50712093     42.85255792
 H    -14.14408420      2.78493026     43.34120959
 H    -14.38111626      4.27615319     41.65953355
 H    -15.20226335      3.03238783     40.68637794
 H    -14.00845650      1.28769445     40.65120704
 H    -12.60163186      2.21717002     41.22145810
 H    -12.79238627      3.90822249     39.52246486
 H    -13.90978571      2.83156945     38.65039640
 H    -12.58999541      0.93174775     38.56904529
 H    -11.18128650      1.92101673     39.02198323
 H    -11.35471031      3.56471368     37.40486392
 H    -12.49319776      2.53002004     36.50958629
 H    -11.01878666      0.62300215     36.48856659
 H     -9.69796890      1.70740986     36.98632859
 H     -9.61123068      3.35411912     35.67908166
 H    -10.61331958      2.48772721     34.49019581
 H     -9.54271948      0.52861741     34.28486505
 H     -8.11423083      1.23297633     35.07957592
 H     -7.93165630      3.12225722     33.66603277
 H     -9.05001630      2.33033062     32.53007950
 H     -7.98096926      0.31126263     32.27524026
 H     -6.52027475      1.01511102     33.00956694
 H     -6.56550141      2.89086382     31.39289916
 H     -7.74479095      1.94724320     30.45102712
 H     -6.54635331     -0.02139041     30.24032186
 H     -5.07997845      0.84478214     30.75777385
 H     -5.55119869      2.53558192     28.92540040
 H     -6.72447522      1.36015561     28.28503971
 H     -4.91745888     -0.37551426     28.23500516
 H     -3.75851107      0.95395575     28.47503875
 H     -4.33992460      2.34595576     26.77222663
 H     -5.26153241      1.02061244     26.02231277
 H     -3.73569378     -0.63500822     25.95694326
 H     -2.44652350      0.55256073     26.26676038
 H     -3.00256181      2.04495663     24.53661739
 H     -4.03487394      0.78092164     23.82611485
 H     -2.79859124     -0.98917334     23.65051385
 H     -1.33542141     -0.00136445     23.87774567
 H     -1.22408670      1.61253445     22.69485554
 H     -2.46621311      0.94048241     21.61146518
 H     -1.72031776     -1.11215499     21.18294547
 H     -0.11652499     -0.65689739     21.80652861
 H      0.21717992      1.25732598     20.53196464
 H     -1.12424297      0.75466451     19.47546914
 H     -0.24767672     -1.43103156     19.04778898
 H      1.31005453     -0.88311270     19.71226242
 H      1.09075627      1.03711696     17.97099986
 H     -0.21543299      0.06160717     17.25649520
 H      0.94792262     -1.92219353     16.95927710
 H      2.47081082     -1.03758028     17.21722593
 H      2.31481759      0.65460909     15.76283191
 H      0.98849392     -0.19058656     14.92929936
 H      1.38868981     -2.09902885     14.45156959
 H      3.13277849     -1.81852765     14.67006542
 H      3.30604911      0.08316953     13.30706488
 H      1.70281461     -0.29554851     12.63291470
 H      2.35302590     -2.57346094     12.05360897
 H      4.04497249     -2.08993682     12.32154147
 H      4.43456574     -0.34467777     11.17283524
 H      2.96984668     -0.63549877     10.20418263
 H      2.95547429     -2.60583709      9.49817593
 H      4.69151378     -2.76870556      9.85581740
 H      4.69807080     -0.51615822      8.37357808
 H      3.02431638     -0.98189038      7.98640065
 H      3.06418947     -2.98433861      7.23332381
 H      4.82071677     -2.86565819      6.97103872
 H      4.90318585     -0.91324582      5.76101267
 H      3.14832851     -1.03219756      5.48789571
 H      3.51562354     -3.37229584      4.61143085
 H      5.24889388     -2.97182583      4.55089667
 H      5.10890841     -1.03261452      3.27765146
 H      3.44239637     -1.47547811      2.83620370
 H      4.09440367     -3.68772878      2.06346414
 H      5.78477908     -3.13078629      2.09016020
 H      5.96842066     -1.34651059      1.00945935
 H      4.39237529     -1.63065778      0.23253720
 H      4.70660910     -3.77104058     -0.53187134
 H      6.45586552     -3.59247173     -0.25531793
 H      6.64972543     -1.56119974     -1.51814007
 H      5.03548655     -1.88697159     -2.19369333
 H      5.23830509     -3.97126940     -2.98058460
 H      7.00928946     -3.83871688     -2.86095661
 H      7.38394417     -1.90597855     -3.99019304
 H      5.73840231     -1.99502196     -4.66289650
 H      6.41632165     -4.38043818     -5.41208479
 H      8.08242764     -3.89298513     -5.01870583
 H      8.34205372     -2.01312937     -6.20359756
 H      6.89679125     -2.42166283     -7.15888991
 H      7.98721434     -4.68217254     -7.60697067
 H      9.48693305     -3.96231967     -6.97378639
 H      9.14789745     -2.11873207     -8.72478878
 H      7.93012779     -3.19381937     -9.45245011
 H      9.22716914     -5.09312278     -9.70362245
 H     10.68256200     -4.10588594     -9.42891946
 H     10.54245265     -2.43922551    -10.82081970
 H      9.29106122     -3.30534453    -11.74392531
 H     12.20327402     -3.76798766    -10.57547322
 H     11.67719252     -2.07647723    -10.40141186
 H     11.33883902     -1.59505856    -12.65310052
 H     12.24618311     -3.06712850    -13.07500505
 H     14.02717123     -3.24540525    -12.19080923
 H     14.03338027     -1.51192077    -11.78675519
 H     13.67182068     -0.12325855    -12.62217000
 H     13.96249008     -0.97823124    -14.15605385
 H     15.73654300     -2.01317654    -14.13844735
 H     16.29768884     -1.07743712    -12.73211391
 H     15.85716441      1.06123612    -13.67336223
 H     15.69213423      0.27968233    -15.26261573
 H     17.67811326      0.48479494    -12.79047583
 H     16.30976373      1.61640752    -12.66662443
 H     16.97304781      2.72295959    -14.77581817
 H     18.53024819      1.87102075    -14.64317638
 H     19.44614496      2.10119395    -12.86431304
 H     18.42373004      3.50869003    -12.48763123
 H     19.04813124      4.51849481    -14.69477337
 H     20.33645013      3.29386214    -14.78845334
 H     21.32248465      3.78545610    -12.69529164
 H     20.39590326      5.30483005    -12.66041454
 H     21.26351703      5.94098944    -14.88606073
 H     22.47216644      4.64767793    -14.69957056
 H     23.08593178      5.78352715    -12.47689024
 H     22.12192115      7.16477181    -13.05231476
 H     23.59073888      7.14664159    -15.14045839
 H     24.67053689      6.05727970    -14.23735619
 H     25.08341274      7.14781961    -12.35721314
 H     24.46639196      8.64748090    -13.09108510
 H     25.92251753      8.44150303    -15.03388843
 H     26.83726367      7.20527105    -14.13765373
 H     27.46206251      7.25113666    -12.51572620
 H     27.39477941      9.02979818    -12.52586687
 H     28.71021070      8.72256931    -14.79220726
 H     28.92297441      7.03561593    -14.26572218
 H     29.86413373      7.39604409    -12.19584257
 H     30.17857205      9.08629734    -12.65675377
 H     31.30705526      8.64636170    -14.66618282
 H     31.47722414      6.94855101    -14.15947968
 H     32.45852595      7.43082130    -12.04481995
 H     32.74258326      9.09582614    -12.60636867
 H     33.69527411      9.18509547    -14.39863106
 H     34.21395827      7.48995148    -14.23825568
 H     35.14865735      7.78047532    -12.04469401
 H     35.06045169      9.54032288    -12.29653323
 H     36.26757827      9.49194036    -14.37651614
 H     36.76597291      7.82798661    -13.98776510
 H     37.65417615      8.36326215    -11.83511812
 H     37.59971676     10.08255634    -12.29264224
 H     39.47047364     10.17166693    -13.08306452
 H     39.33067362      8.28816135    -13.80211836
 H     40.18371599      8.73691758    -11.73584775
 H     40.18296167     10.47279761    -12.12953112
 H     41.57488478      9.35234988    -14.21286231
 H     41.57449012      7.91329546    -13.16529899
 H     42.40562704      8.52766260    -11.26847569
 H     43.05218188     10.00659749    -12.01879900
 H     44.09024564      9.74564334    -13.68684287
 H     44.30014168      8.01620916    -13.32178432
 H     44.88477158      7.46227188    -11.60384180
 H     45.50425431      9.09393779    -11.25430760
 H     46.72176122      9.68960305    -12.91586400
 H     47.21129494      7.70565121    -12.59169378
 H     47.53174401      7.13274329    -11.35800490
 H     47.43315138      8.09901733    -10.68123039
 H     47.06793577      9.22465556    -10.00935093
 H     48.53478306      9.90684631    -10.75180731
 H     50.03441738      9.48528321    -11.05964426
 H     49.97306830      8.27877942     -9.84847087
 H     51.02394282      8.02678177     -9.17606566
 H     50.73300099      9.06402840     -8.36468523
 H     51.47261227      8.84379091     -7.37294412
 H     52.06610413      7.94032551     -8.38950874
 H     51.84400421      6.89868663     -7.62888530
 H     52.00304274      8.47913719     -6.41709049
 H     52.72870157      8.46491092     -5.39607429
 H     53.89329386      8.00186958     -6.27468959
 H     53.12140786      8.30803024     -4.30723850
 H     52.57417421      7.44222112     -4.71154444
 H     52.10319569      6.60460842     -4.07503391
 H     52.26147470      6.59525843     -3.91695652
 H     52.24582573      6.92907128     -2.11643642
 H     51.81908442      6.04428958     -2.82990723
 H     50.70961791      6.92266951     -2.35335644
 H     50.71947722      6.06372453     -2.49385788
 H     49.52385710      6.88153078     -2.20650735
 H     50.04791193      6.83188687     -3.40760219
 H     48.32106355      7.09489228     -2.86368038
 H     48.31832456      7.11540164     -2.75018280
 H     48.00594665      7.66984377     -4.47142805
 H     48.11031134      6.15842818     -4.06060660
 H     47.55470388      5.82247254     -5.18923320
 H     47.41657571      7.24484887     -5.59130427
 H     46.79460033      6.98028589     -6.64369317
 H     47.01127140      5.69778849     -6.51831514
 H     46.43524688      5.26123890     -7.48609162
 H     45.94802615      6.18425142     -7.66092545
 H     45.46762121      6.25043389     -8.78651805
 H     45.93033977      5.21085599     -8.85204776
 H     46.60248610      4.53655177     -9.48861486
 H     46.11148418      6.18604013     -9.94289664
 H     44.88431057      4.90876385     -9.76717844
1502
Final Conformation Chain 2 (Simulation Frame 3)
 C      0.00000000      0.00000000      0.00000000
 C      1.54000000      0.00000000      0.00000000
 C      2.16637443      1.32871659     -0.46234976
 C      3.70298791      1.29659886     -0.55923874
 C      4.31736423      2.55993892     -1.19020119
 C      5.85658612      2.59297993     -1.15408668
 C      6.52569453      1.41190228     -1.88137584
 C      8.03246307      1.60468187     -2.13452520
 C      8.65738631      0.53017672     -3.04365095
 C     10.13600485      0.78556778     -3.39015148
 C     10.73979992     -0.24788270     -4.35917759
 C     12.10428730      0.16326238     -4.94290175
 C     12.13065785      1.58603230     -5.53165498
 C     13.36436251      1.87959753     -6.40537821
 C     14.70187816      1.80572691     -5.64564470
 C     15.93611419      2.09210048     -6.52100268
 C     17.18463569      2.51434444     -5.72444503
 C     18.37581667      2.93668956     -6.60439529
 C     19.52805584      3.59640978     -5.82419395
 C     20.74407019      3.96414468     -6.69464219
 C     21.90661483      4.60016163     -5.91005796
 C     23.11931162      4.97560782     -6.78184156
 C     24.22309560      5.73733861     -6.02485601
 C     25.24660776      6.43209751     -6.94209802
 C     26.39760630      7.12216344     -6.18670979
 C     27.78382448      6.90122600     -6.82010208
 C     28.96028352      7.19515249     -5.87081215
 C     30.26146680      6.45833998     -6.23909109
 C     31.36375798      6.56067889     -5.16853941
 C     32.67121514      5.83913140     -5.54473749
 C     33.66402843      5.69225893     -4.37668345
 C     35.05107333      5.17037428     -4.79542305
 C     35.95020941      4.76324637     -3.61330581
 C     37.27704070      5.54140034     -3.53850532
 C     38.15128223      5.17372201     -2.32519810
 C     39.63630297      5.54819041     -2.48671223
 C     40.53416282      5.06050069     -1.33449418
 C     42.03771864      5.29723981     -1.56874720
 C     42.87979253      5.29957645     -0.27936513
 C     44.36680671      5.63181366     -0.50298814
 C     45.23994706      5.47449289      0.75577161
 C     46.70331449      5.91330770      0.56187135
 C     47.60963003      5.62427381      1.77292525
 C     49.11487400      5.75051703      1.47308657
 C     50.01988552      5.49929103      2.69351258
 C     51.51870223      5.72141448      2.41817710
 C     52.37533863      5.86072375      3.69032765
 C     53.06008582      4.55349595      4.13064206
 C     53.69011634      4.61842394      5.53436778
 C     54.52958254      3.38079407      5.90202087
 C     55.21433678      3.47466071      7.27821151
 C     56.21233483      2.33620924      7.56021884
 C     56.81197014      2.36585290      8.97837213
 C     56.90486654      3.77621495      9.58980418
 C     57.64769801      3.82681816     10.93785489
 C     57.77439805      5.24257576     11.53045720
 C     58.22377524      5.26723642     13.00322738
 C     58.80974835      6.61724065     13.45679556
 C     60.01131164      6.48946008     14.41152997
 C     60.87759728      7.75951276     14.50161538
 C     61.10533169      8.45962914     13.14899788
 C     62.10103699      9.63281270     13.21073356
 C     62.06823733     10.54802402     11.97262516
 C     63.45676558     10.84589495     11.37692204
 C     63.43080905     11.81932545     10.18387581
 C     64.81410701     12.37685479      9.80014703
 C     64.76949873     13.77616844      9.15863989
 C     66.15300268     14.33474827      8.77718820
 C     66.09878556     15.64876063      7.97591919
 C     67.47209586     16.13530759      7.47702952
 C     67.39422167     17.23196833      6.39866463
 C     68.75407950     17.86480709      6.04952027
 C     68.68014296     18.94227727      4.95170817
 C     67.78126279     18.56211128      3.76045326
 C     67.17831013     19.77037220      3.02007928
 C     66.11541263     19.39530087      1.97071261
 C     65.50995784     20.60380728      1.23278528
 C     64.61483315     20.22429836      0.03849689
 C     63.14774672     19.94958088      0.41769038
 C     62.24267571     19.61501174     -0.78252208
 C     62.61206897     18.30283714     -1.49900408
 C     61.69950387     17.96209973     -2.69178359
 C     62.15390555     16.73000056     -3.49617824
 C     61.18101489     16.32033130     -4.61745200
 C     61.53617271     14.98537668     -5.29815683
 C     60.31373974     14.11885116     -5.65367217
 C     59.42115237     13.77023947     -4.44811931
 C     58.07198447     13.13397176     -4.83088474
 C     57.05342328     13.08352649     -3.67694004
 C     55.74470480     12.35175550     -4.02817664
 C     54.50379184     12.90475614     -3.30296954
 C     54.62025433     12.89667502     -1.76740086
 C     53.26945113     13.00738597     -1.03618694
 C     52.19282217     12.03839188     -1.55917884
 C     51.00224243     11.84858654     -0.60100672
 C     49.84958290     11.01539309     -1.19156975
 C     48.57911115     10.99847967     -0.32138847
 C     47.32171681     10.50102359     -1.05833956
 C     46.16183103     10.10953323     -0.12399472
 C     44.99674485      9.39757104     -0.83623347
 C     43.67401165      9.41859818     -0.04785874
 C     42.42615889      9.15478804     -0.91091593
 C     41.10572045      9.15151569     -0.11843148
 C     39.84787959      9.02288024     -0.99757270
 C     38.52482301      9.10297858     -0.21354110
 C     37.27604886      8.78962836     -1.05851136
 C     35.97798782      8.67233399     -0.23821899
 C     34.87921342      7.83643473     -0.92054386
 C     33.46756158      8.07484135     -0.35309223
 C     32.34781928      7.37324832     -1.14400586
 C     30.92677765      7.79020829     -0.72164927
 C     29.80805516      6.97691020     -1.39885397
 C     28.38636158      7.44791164     -1.04032221
 C     27.26734776      6.60755723     -1.68313831
 C     25.85416364      7.18373919     -1.47692244
 C     24.72696554      6.29003024     -2.02674855
 C     23.31263804      6.85664445     -1.80263684
 C     22.24452939      6.26385791     -2.74037242
 C     20.82995926      6.82951675     -2.51538042
 C     19.71842100      6.03991611     -3.23135076
 C     18.31982555      6.67188631     -3.10429012
 C     17.34719451      6.27193494     -4.22929134
 C     15.88369811      6.67064558     -3.96319339
 C     14.87787778      6.06187159     -4.95783890
 C     13.41882456      6.08378686     -4.46561597
 C     12.41006840      5.49606021     -5.46990100
 C     11.03784228      5.16140721     -4.85622122
 C      9.98034806      4.72479369     -5.88708231
 C      8.76676343      4.00314678     -5.27223428
 C      7.65969300      3.66330280     -6.28737030
 C      6.34089652      3.19695140     -5.64324904
 C      5.20779411      2.93760092     -6.65340560
 C      3.82502087      2.73721762     -6.00580641
 C      3.78053672      1.60664803     -4.96108943
 C      2.39087402      0.96510869     -4.79119290
 C      2.39132210     -0.31126792     -3.92953023
 C      1.02963747     -1.02822836     -3.87136914
 C      1.03043182     -2.30535253     -3.01081513
 C     -0.34308282     -2.99472450     -2.91169984
 C     -0.29224246     -4.40745399     -2.30079016
 C     -1.59211438     -5.21389333     -2.47852191
 C     -2.81026340     -4.60500562     -1.75951654
 C     -4.01104771     -5.56201863     -1.64185975
 C     -5.11272492     -5.07001188     -0.68486620
 C     -6.47427958     -5.75981398     -0.88966362
 C     -7.56738030     -5.29104932      0.08859530
 C     -8.91162851     -6.02417315     -0.07610499
 C    -10.02647965     -5.50384646      0.85016013
 C    -11.43359538     -6.01017939      0.48239349
 C    -12.37109474     -6.18790677      1.69115646
 C    -13.56069051     -7.12983874      1.42804800
 C    -14.52738166     -7.26575523      2.61911262
 C    -15.90295452     -7.84900502      2.24599201
 C    -16.83775301     -8.06841320      3.44999028
 C    -18.32605287     -7.82177913      3.14057930
 C    -19.27398596     -8.17372118      4.30211261
 C    -20.69518814     -7.60148926      4.14611580
 C    -21.69067452     -8.09785033      5.21111935
 C    -23.06898797     -7.41390878      5.14727573
 C    -23.99661678     -7.76290783      6.32596332
 C    -25.24230797     -6.86348136      6.43029680
 C    -26.33012379     -7.40720434      7.37508359
 C    -27.42405324     -6.38185589      7.72662150
 C    -28.47982636     -6.90706674      8.71712475
 C    -29.31250420     -5.80024937      9.39032823
 C    -30.58601036     -6.31176098     10.08899692
 C    -31.47746146     -5.19466643     10.66259494
 C    -32.88748384     -5.66386279     11.06668858
 C    -33.73039778     -4.58258258     11.76806524
 C    -34.99853864     -5.12392593     12.45389768
 C    -35.71952542     -4.09240585     13.34144735
 C    -37.02808702     -4.61009764     13.96695653
 C    -37.74332459     -3.58231077     14.86344378
 C    -38.57522375     -4.21112433     15.99664161
 C    -39.40283694     -3.19429644     16.80455091
 C    -40.30072296     -3.83181358     17.88110680
 C    -40.83340109     -2.83241219     18.92468280
 C    -41.70877386     -3.47439757     20.01700935
 C    -42.35178005     -2.46003359     20.98096410
 C    -43.49970865     -3.04103410     21.82730820
 C    -44.01941146     -2.08591169     22.91783568
 C    -45.03948693     -2.72654166     23.87733518
 C    -45.35631076     -1.87030318     25.11752804
 C    -46.46401645     -2.45309813     26.01471150
 C    -46.60331570     -1.74731426     27.37635199
 C    -47.24755903     -2.61870027     28.47053523
 C    -47.25818652     -1.96625743     29.86545652
 C    -47.54798510     -2.94956100     31.01468707
 C    -48.08570610     -2.27877941     32.29238351
 C    -48.04595587     -3.18264148     33.53859909
 C    -48.89310536     -2.66432829     34.71558217
 C    -48.87384031     -3.58116949     35.95276893
 C    -49.39981825     -2.91228503     37.23633458
 C    -49.38135366     -3.82939574     38.47333378
 C    -49.67691020     -3.10098430     39.79759323
 C    -49.69880306     -4.02500278     41.02938484
 C    -50.23152248     -3.35188779     42.30794897
 C    -50.53841830     -4.33557256     43.45240483
 C    -50.74267598     -3.66000363     44.82115807
 C    -50.92985169     -4.64943432     45.98631563
 C    -51.21495563     -3.97500961     47.34110973
 C    -51.01765481     -4.90107761     48.55563452
 C    -51.35417630     -4.24272033     49.90653013
 C    -50.96042013     -5.08926781     51.13123966
 C    -51.10401958     -4.35120368     52.47520415
 C    -50.83918602     -5.23629574     53.70730611
 C    -51.31320260     -4.61847280     55.03591556
 C    -50.98380424     -5.47054821     56.27569950
 C    -51.35297360     -4.80058582     57.61228634
 C    -50.93044932     -5.60653464     58.85467103
 C    -51.85814390     -5.41744415     60.06926050
 C    -51.55896986     -6.37154243     61.24049547
 C    -52.22702827     -5.96388518     62.56681125
 C    -52.10333898     -7.01981430     63.68095426
 C    -52.66246222     -6.56343061     65.04135682
 C    -52.81190171     -7.69958129     66.07015684
 C    -53.51815682     -7.27705305     67.37179949
 C    -54.01189329     -8.45784396     68.22827898
 C    -54.84540176     -8.03776551     69.45318621
 C    -54.79004389     -9.03920533     70.62179811
 C    -55.74302326     -8.70006021     71.78300908
 C    -55.62571156     -9.65185663     72.98796615
 C    -56.26308528     -9.10805443     74.28010929
 C    -56.37136532    -10.14791118     75.41084947
 C    -56.64319918     -9.53817776     76.79862881
 C    -57.20116410    -10.54139709     77.82518915
 C    -58.73495675    -10.51180025     77.96011181
 C    -59.32439048    -11.73996946     78.67828189
 C    -60.86096261    -11.72827483     78.78030808
 C    -61.43553882    -12.81648017     79.70619756
 C    -62.92707743    -12.63030586     80.04123743
 C    -63.40633662    -13.45923142     81.24738545
 C    -64.79372473    -13.05085368     81.77651857
 C    -65.19291575    -13.74760111     83.09059221
 C    -66.70668402    -13.99037424     83.23608053
 C    -67.07912712    -14.96007084     84.37299506
 C    -68.54730809    -15.42401927     84.34477264
 C    -69.01043135    -16.11638867     85.64004924
 C    -70.35710772    -16.85202537     85.51004390
 C    -70.91893219    -17.37101912     86.84668101
 C    -72.08627597    -18.36353071     86.69231377
 C    -72.85726202    -18.63173072     87.99816570
 C    -73.82854792    -19.82414691     87.91849565
 C    -74.24778910    -20.38330076     89.29078710
 C    -75.18435304    -21.60314095     89.21055058
 C    -75.31785333    -22.37849412     90.53441052
 C    -76.60210357    -23.22184049     90.63961618
 C    -76.71257391    -24.03483604     91.94285619
 C    -78.10896410    -24.63532406     92.19005766
 C    -78.21332286    -25.46726799     93.48179236
 C    -79.63893792    -25.95598188     93.79862108
 C    -79.70896689    -26.98285454     94.94414649
 C    -81.09781120    -27.09609534     95.59980494
 C    -81.18925696    -28.17978453     96.69015141
 C    -82.30691341    -27.93780795     97.72160252
 C    -82.81021703    -29.21906212     98.41201777
 C    -84.04159261    -29.00358248     99.31139683
 C    -84.23662887    -30.09644404    100.37873674
 C    -85.42856984    -29.84597359    101.32114921
 C    -85.84434543    -31.07799465    102.14628846
 C    -86.98554252    -30.80740411    103.14431149
 C    -87.60739984    -32.08167083    103.74525891
 C    -88.82637726    -31.81776842    104.64861354
 C    -89.54917782    -33.09537278    105.11432424
 C    -90.53034808    -32.87046302    106.27979433
 C    -91.49096744    -34.04865630    106.52610923
 C    -92.39920571    -33.86957248    107.75681318
 C    -92.71643332    -35.18197315    108.49746905
 C    -93.53536837    -34.99093495    109.78760462
 C    -93.41192204    -36.15670592    110.78627326
 C    -93.45904055    -35.72374442    112.26340703
 C    -92.74385198    -36.69266275    113.22325211
 C    -92.93599890    -36.35403509    114.71322220
 C    -92.33486656    -37.39584510    115.67492475
 C    -92.19946175    -36.90270435    117.12753542
 C    -91.94872959    -38.02681542    118.14984050
 C    -92.09413940    -37.58283666    119.61726642
 C    -91.83298097    -38.70434684    120.63981774
 C    -92.43050187    -38.43329413    122.03305111
 C    -91.90666140    -39.37494801    123.13326887
 C    -92.40721266    -39.02579366    124.54717822
 C    -91.83350084    -39.92822200    125.65536495
 C    -92.42480725    -39.65856907    127.05151825
 C    -91.79236537    -40.50299364    128.17337581
 C    -92.17035713    -40.04198948    129.59330446
 C    -91.42638667    -40.79163596    130.71408013
 C    -91.57870044    -40.14936889    132.10544404
 C    -90.56773637    -40.66397292    133.14694985
 C    -90.80920942    -40.13030472    134.57120019
 C    -89.80264148    -40.65064831    135.61411128
 C    -89.98470578    -40.04357467    137.01764759
 C    -88.96487361    -40.54809415    138.05543487
 C    -87.54831208    -39.97224043    137.87282618
 C    -86.63675562    -40.14994859    139.10127424
 C    -85.14699482    -39.87939123    138.82018444
 C    -84.34075276    -41.13815321    138.44992504
 C    -82.96661171    -40.83964488    137.82204834
 C    -82.06991145    -42.08087357    137.65809723
 C    -80.77543571    -41.81826377    136.86628370
 C    -79.88795579    -43.06382125    136.68582329
 C    -78.54513656    -42.78027161    135.98722747
 C    -77.46218241    -43.84131909    136.25739142
 C    -76.13051515    -43.57629564    135.53073821
 C    -74.90477958    -44.20297983    136.22098398
 C    -73.56810550    -43.90236532    135.51775334
 C    -72.32584186    -44.24040507    136.36280373
 C    -70.99915998    -44.16407355    135.58454369
 C    -69.77249242    -43.86323319    136.46566898
 C    -68.45401364    -43.73344511    135.68057742
 C    -68.34829531    -42.44592209    134.84230055
 C    -67.09285700    -42.37884997    133.95293225
 C    -67.15168826    -41.28794188    132.86754825
 C    -66.11037448    -41.46288469    131.74653950
 C    -66.17895527    -40.38032044    130.65340122
 C    -64.93974944    -40.33276265    129.74032554
 C    -64.89315272    -39.10563405    128.81103327
 C    -63.82628721    -39.19817853    127.70431130
 C    -63.62573926    -37.89013214    126.91665962
 C    -62.63930457    -38.01223105    125.74037800
 C    -62.73486431    -36.86204847    124.72079555
 C    -61.71773404    -36.96019183    123.56866105
 C    -61.72502815    -35.74589821    122.62154026
 C    -60.65807716    -35.80983351    121.51287987
 C    -60.91922558    -34.85127554    120.33620314
 C    -59.73773954    -34.72578358    119.35643658
 C    -60.10647310    -34.07411233    118.01071739
 C    -58.90177498    -33.82570630    117.08411236
 C    -59.28139753    -33.61045852    115.60723893
 C    -58.07236675    -33.46808346    114.66406667
 C    -58.43638285    -33.51047318    113.16830753
 C    -57.23751967    -33.29689812    112.22559190
 C    -57.56757333    -33.50401554    110.73570367
 C    -56.50238374    -32.94448600    109.77450763
 C    -56.72048493    -33.33621474    108.30121864
 C    -55.89532810    -32.50318045    107.30283489
 C    -56.11697471    -32.89176199    105.82924161
 C    -55.34587086    -32.01293554    104.82691286
 C    -55.28070276    -32.59631192    103.40317654
 C    -54.17337658    -31.98395634    102.52542408
 C    -54.15990023    -32.50845010    101.07755506
 C    -53.28634529    -31.67829685    100.11872904
 C    -53.45627749    -32.05187664     98.63442409
 C    -52.81658105    -31.04700773     97.65839799
 C    -53.35725306    -31.14050724     96.21946380
 C    -52.72468677    -30.12896801     95.24568339
 C    -53.22320343    -30.26056498     93.79455853
 C    -52.75555536    -29.12437601     92.86612980
 C    -53.06720676    -29.36383779     91.37712629
 C    -52.34767008    -28.39292861     90.42255710
 C    -53.02846928    -28.24517815     89.04913719
 C    -52.16659311    -27.52237039     87.99732046
 C    -52.49618321    -27.90997016     86.54379482
 C    -51.49441705    -27.36650000     85.50808021
 C    -51.99879982    -27.43201887     84.05449661
 C    -51.01185126    -26.85549581     83.02243377
 C    -51.33170954    -27.24146336     81.56630200
 C    -50.37827763    -26.61900452     80.52942563
 C    -50.42466769    -27.29879748     79.14836463
 C    -49.37156292    -26.77262411     78.15553437
 C    -49.33747563    -27.53331957     76.81696032
 C    -48.29429027    -26.99789424     75.81861968
 C    -48.25412165    -27.76417538     74.48340445
 C    -47.21641865    -27.22376758     73.48203943
 C    -47.33766049    -27.82415265     72.06908572
 C    -46.33513772    -27.24436093     71.05400462
 C    -46.57424481    -27.70541526     69.60422646
 C    -45.78578329    -26.90196632     68.55332293
 C    -45.75445371    -27.55555264     67.15924855
 C    -45.07212001    -26.69538818     66.07936993
 C    -44.68824861    -27.47478380     64.80784124
 C    -43.77034871    -26.69486377     63.84826607
 C    -43.05260517    -27.57864726     62.81126513
 C    -42.14788013    -26.79672706     61.84086655
 C    -41.27134064    -27.69044978     60.94390600
 C    -40.42032626    -26.91139938     59.92387904
 C    -39.47881644    -27.79734475     59.08706360
 C    -38.91185014    -27.10158842     57.83563547
 C    -37.90356854    -27.95691874     57.04609240
 C    -37.58905150    -27.41526611     55.63921946
 C    -36.65099604    -28.31741873     54.81595000
 C    -36.39503493    -27.81330039     53.38348756
 C    -35.16199229    -28.44270924     52.70891337
 C    -34.85624963    -27.87671248     51.30971035
 C    -33.57471439    -28.44359064     50.67102688
 C    -33.11307879    -27.68443287     49.41318267
 C    -31.77064956    -28.17715865     48.84160147
 C    -31.32092870    -27.43427401     47.56980212
 C    -30.05030709    -28.01473251     46.92158251
 C    -29.82618856    -27.56151167     45.46694794
 C    -28.49447570    -28.04052158     44.85974914
 C    -28.41111345    -27.88346744     43.33004828
 C    -27.04441002    -28.26926215     42.73432671
 C    -26.94752411    -28.07261305     41.21000973
 C    -25.52600772    -28.24960587     40.64470920
 C    -25.37152792    -27.79022963     39.18296043
 C    -23.98769403    -28.08717786     38.57597979
 C    -23.90991533    -27.86291118     37.05438361
 C    -22.51121604    -28.10328111     36.45650186
 C    -22.10364666    -27.07633212     35.38371904
 C    -20.77803440    -27.40598174     34.67260493
 C    -20.04847665    -26.17420171     34.10509861
 C    -18.92046437    -26.51585460     33.11390661
 C    -18.11944594    -25.29256618     32.63065209
 C    -17.21455685    -25.57592227     31.41719213
 C    -16.52076685    -24.32466529     30.84744535
 C    -15.64133803    -24.60289477     29.61424086
 C    -14.91790292    -23.35833517     29.06714578
 C    -13.97115509    -23.65171104     27.88850284
 C    -13.02210077    -22.48914675     27.54304638
 C    -12.16978173    -22.72958113     26.28314815
 C    -11.28479992    -21.53286472     25.88782928
 C    -10.45994459    -21.75979937     24.60731596
 C     -9.76222100    -20.49269376     24.07889836
 C     -8.91488796    -20.72541154     22.81419715
 C     -8.50364319    -19.43071935     22.08876633
 C     -7.45014845    -19.63878810     20.98492928
 C     -6.95930156    -18.33262606     20.33330819
 C     -6.00224398    -18.54616805     19.14585688
 C     -5.49310480    -17.23975810     18.50893434
 C     -4.74084440    -17.44221594     17.18050854
 C     -3.85493263    -16.24983443     16.77432306
 C     -3.26096242    -16.36458771     15.35812001
 C     -2.36253604    -15.17961480     14.95778359
 C     -1.75824532    -15.30054146     13.54646879
 C     -1.23231622    -13.97104178     12.97425450
 C     -0.59873673    -14.09777940     11.57635801
 C      0.02718401    -12.79221896     11.05163411
 C      0.24390870    -12.76999376      9.52712224
 C      0.87945410    -11.46856460      9.00370636
 C      1.27261149    -11.51787579      7.51555459
 C      2.17351471    -10.35230974      7.06674599
 C      2.31654481    -10.22360743      5.53881337
 C      2.63544759     -8.79590340      5.05760424
 C      2.53251464     -8.61142122      3.53216295
 C      2.92259418     -7.20399796      3.04369830
 C      3.09222644     -7.09552434      1.51691790
 C      3.52209038     -5.69845406      1.03213793
 C      3.85082664     -5.63067520     -0.47083862
 C      4.55098825     -4.32816251     -0.90076235
 C      4.88331233     -4.26207667     -2.40302510
 C      5.50167037     -2.92420417     -2.84948956
 C      5.67350555     -2.79139867     -4.37409947
 C      6.36780110     -1.48946128     -4.81513542
 C      6.92227425     -1.53073403     -6.25126079
 C      7.72744183     -0.27938503     -6.64803634
 C      8.55321839     -0.44852139     -7.93686758
 C      9.06219226      0.87699354     -8.53315255
 C      9.87570850      0.70900105     -9.82990613
 C     10.56730805      1.99957503    -10.30709464
 C     12.06281628      2.07831324     -9.94813025
 C     12.71065984      3.44045547    -10.25872205
 C     14.24747294      3.39736933    -10.34787960
 C     14.93655813      4.70719703     -9.92230589
 C     16.41588746      4.80106011    -10.33988755
 C     17.02609458      6.20507384    -10.17257723
 C     17.79726373      6.39980925     -8.85387474
 C     18.59657967      7.71426795     -8.78392934
 C     19.72619312      7.70551114     -7.73726953
 C     20.63626427      8.94682113     -7.78746930
 C     21.68155187      9.00323866     -6.65796016
 C     22.81066732     10.02217401     -6.89976393
 C     23.73442145     10.23330796     -5.68580316
 C     24.99591893     11.06071487     -5.99503109
 C     26.06772607     11.00518287     -4.89061013
 C     27.39280531     11.69286969     -5.26856758
 C     28.60187763     11.22161199     -4.43931473
 C     29.95356563     11.37104081     -5.16195612
 C     31.14923964     10.79766902     -4.37887985
 C     32.45611282     10.73162309     -5.19086534
 C     33.64944968     10.14931525     -4.41082384
 C     34.91892019      9.95566214     -5.26084918
 C     36.05839568      9.22419150     -4.52726462
 C     37.25261004      8.86115234     -5.42929268
 C     38.62629848      9.15583157     -4.79862301
 C     39.81108514      8.52892682     -5.55682549
 C     41.15201753      8.61440427     -4.80436689
 C     42.36266166      8.13240735     -5.62511031
 C     43.64728898      7.94657959     -4.79637591
 C     44.66933625      6.98591944     -5.43210498
 C     45.82999759      6.59797404     -4.49724475
 C     46.68072325      5.42112893     -5.00998388
 C     48.12596833      5.41450970     -4.47817295
 C     49.00120660      6.55578347     -5.02867466
 C     50.42239244      6.59652828     -4.43692246
 C     50.47769432      7.06874009     -2.97215023
 C     51.87799444      6.97903206     -2.33755424
 C     52.00894442      7.73119839     -1.00013212
 C     53.37456703      7.55131417     -0.31142569
 C     53.69442144      8.63264091      0.73739538
 C     55.05963954      8.45223192      1.42676621
 C     55.07033865      7.36903439      2.52137510
 C     56.44063696      6.69581906      2.72302746
 C     56.49765285      5.74039719      3.92947607
 C     57.86377130      5.05630686      4.12271373
 C     58.01967432      4.34015596      5.47712213
 C     59.45693361      3.87659289      5.77877593
 C     59.53706406      2.54615133      6.55020602
 C     60.97422916      2.05188559      6.79891845
 C     61.40856597      0.89852105      5.87549993
 C     62.75461000      0.25864708      6.26321991
 H     -0.36333333      0.00000000      1.02766186
 H     -0.36333333     -0.88998127     -0.51383093
 H     -0.36333333      0.88998127     -0.51383093
 H      1.88274777      0.87414612     -0.55361767
 H      1.88274777      0.58007999     -0.85681455
 H      3.21283637      1.14733246     -0.70753787
 H      3.19172573      1.13334606     -0.77633237
 H      3.98759682      1.55546456     -1.57908496
 H      4.05532220      2.30935612     -0.75489982
 H      5.19443198      2.84210942     -0.60776496
 H      5.39134137      2.40435902     -1.29251435
 H      6.22662504      2.43733715     -2.16747038
 H      6.22629440      2.45578067     -2.17025210
 H      7.09718875      1.80618034     -2.72163720
 H      7.60611099      1.51492960     -1.78045186
 H      8.45357498      0.64749021     -2.44201322
 H      8.20877700      1.55371253     -3.20896251
 H      9.20608303      1.03225570     -3.84048757
 H      9.72500417      0.73247846     -3.12947694
 H     10.68928573     -0.14069427     -3.23517121
 H     10.28673912      0.55021814     -4.44371198
 H     10.98529509      0.25956076     -5.29209412
 H     11.79265739     -0.37814260     -4.10893073
 H     11.93263208      0.66384478     -5.89581924
 H     12.22922550      1.23649651     -4.79916954
 H     13.13269930      1.99369484     -5.39814773
 H     13.08063130      2.04953376     -5.26554061
 H     14.16248246      2.24566644     -5.75954688
 H     14.07505660      1.06264308     -6.28048096
 H     15.38662301      1.17927603     -6.21729475
 H     15.43981958      2.39218173     -6.19301406
 H     15.72022281      2.95965451     -7.14457378
 H     16.82914850      1.93687881     -5.91561359
 H     18.04507972      1.98001498     -6.12722053
 H     17.49863939      3.49746891     -6.07511289
 H     18.00270341      3.58223436     -7.39947919
 H     19.29652014      2.66074636     -6.09033257
 H     19.70809380      3.01367811     -4.92080581
 H     19.22251712      4.60622713     -5.55030526
 H     20.38132924      4.42894871     -7.61141709
 H     21.28006647      3.04719813     -6.93962590
 H     22.05542754      4.02822810     -4.99417215
 H     22.52210002      5.16688616     -6.60870042
 H     23.33374060      6.03392636     -6.63324111
 H     23.64668067      4.05961638     -7.04819012
 H     24.38342202      5.24484440     -5.06577056
 H     23.88100136      6.75843918     -5.85625839
 H     24.70402590      6.93110292     -7.74502924
 H     25.90096033      5.66972587     -7.36484168
 H     26.74799025      6.44753560     -5.40555144
 H     26.01108021      8.03447831     -5.73242006
 H     27.69326482      7.03450073     -7.89812656
 H     28.09995223      5.88038986     -6.60549354
 H     28.73671307      6.75184739     -4.90045302
 H     29.05264885      8.27595704     -5.76390019
 H     30.40786561      6.53887565     -7.31620826
 H     30.15064571      5.40922268     -5.96491675
 H     30.90974079      6.39262517     -4.19195028
 H     31.78506346      7.56529251     -5.20532494
 H     32.90701356      6.07582144     -6.58227156
 H     32.51138770      4.76560516     -5.44425567
 H     33.10987523      5.37342772     -3.49386926
 H     34.11845052      6.66502381     -4.18872326
 H     35.35823195      5.69925569     -5.69766362
 H     34.96604263      4.10507048     -5.00989351
 H     35.35021850      4.18722037     -2.90881666
 H     36.20080081      5.66100116     -3.04820380
 H     37.06607673      6.59629525     -3.71397880
 H     37.93793032      5.16802333     -4.32075497
 H     38.15915633      4.08839035     -2.22473323
 H     37.70613649      5.61780542     -1.43484133
 H     39.69283612      6.55353831     -2.90406052
 H     40.09475174      4.84137397     -3.17833009
 H     40.26256274      4.03115694     -1.10043257
 H     40.34936888      5.69166056     -0.46524829
 H     42.16882150      6.30552065     -1.96153440
 H     42.38838151      4.57259068     -2.30360718
 H     42.55843393      4.46322194      0.34139230
 H     42.69596259      6.23542342      0.24836302
 H     44.42980540      6.47834274     -1.18674226
 H     44.84785817      4.76389593     -0.95399624
 H     44.96662776      4.54118285      1.24804077
 H     45.03331350      6.31126905      1.42301087
 H     46.70862421      6.85888504      0.01969490
 H     47.34993104      5.07648079      0.82589364
 H     47.39405681      4.61714104      2.12973300
 H     47.37528820      6.34515906      2.55619300
 H     49.55419619      6.42938030      2.20400426
 H     49.42192290      4.88302524      0.88889571
 H     49.64933939      4.61956053      3.21969679
 H     50.71787968      6.33202952      2.77983028
 H     51.62949591      6.64417491      1.84867035
 H     51.88645508      4.88299534      1.82664419
 H     52.06551301      5.09182248      4.39806978
 H     52.18990735      6.84409114      4.12242002
 H     53.95994920      4.80947096      4.68994760
 H     52.30474420      3.90214977      4.57030919
 H     52.98297193      5.10629514      6.20520939
 H     54.60215693      5.21221371      5.47357569
 H     55.15235048      3.12231383      5.04560504
 H     54.60003281      3.32478581      6.98829884
 H     54.49168589      3.86521918      7.99468885
 H     56.05437367      4.16444236      7.19672953
 H     56.81946326      2.18375465      6.66788893
 H     55.64646191      1.42945207      7.77394594
 H     56.00709248      2.56182736      9.68679712
 H     56.48569925      3.28268311      9.46936060
 H     56.67266295      3.70509381     10.65240631
 H     57.72531728      4.30618245      9.10597051
 H     58.54728740      3.21670646     10.85659820
 H     56.99456411      3.41074865     11.70492873
 H     56.81197996      5.74408809     11.42878714
 H     58.52908521      5.78588578     10.96180834
 H     59.04427839      4.55977459     13.12311209
 H     57.38285931      4.95684313     13.62340187
 H     58.16932543      7.41359711     13.07761900
 H     59.80736050      6.71876302     13.02952139
 H     60.67706083      5.71861900     14.02335213
 H     59.64009078      6.18918154     15.39139112
 H     60.21511741      8.62107241     14.58489441
 H     60.41629263      8.53328729     13.88796158
 H     60.15462982      8.49499097     12.61700587
 H     61.82128440      7.87148857     12.57488780
 H     62.95991408      9.32246545     13.80580896
 H     61.60828573     10.47540726     13.69584242
 H     61.02646702     10.74109534     11.71662109
 H     62.55440226     10.02667365     11.14804197
 H     64.02130889      9.91418097     11.34086761
 H     63.96561443     11.55396454     12.03099413
 H     62.76390033     12.64558004     10.43011983
 H     63.04388579     11.28659513      9.31520510
 H     65.52896174     11.55402578      9.80607363
 H     65.10479783     13.11608340     10.54656509
 H     64.08211322     14.39558553      9.73476803
 H     64.39874251     13.67398881      8.13873835
 H     66.72188556     13.54054254      8.29375306
 H     66.66223152     14.64217774      9.69057371
 H     65.36516727     16.30538601      8.44362349
 H     65.78284610     15.41715876      6.95874524
 H     68.01146294     15.28014518      7.06974535
 H     68.02164305     16.54032426      8.32677030
 H     66.64521900     17.96194222      6.70563876
 H     67.08748741     16.76915673      5.46067769
 H     69.48865616     17.06565186      5.95028298
 H     69.04433370     18.52575518      6.86622102
 H     67.82613915     19.58654362      5.16074969
 H     67.80875743     18.73835775      4.32945092
 H     66.86011281     18.12923108      4.15057817
 H     68.30539332     17.81949487      3.15886531
 H     67.96228424     20.51544752      2.88462686
 H     66.38266754     20.18816067      3.63693070
 H     65.45280120     18.64737114      2.40619764
 H     66.62346287     18.97059561      1.10491218
 H     66.32043505     21.27897547      0.95824091
 H     64.82700721     21.11343397      1.91246100
 H     63.60016088     20.07069313      0.40584634
 H     65.25601230     19.89787785     -0.78030647
 H     62.82069604     20.72733271      1.10779179
 H     63.09754269     18.97986603      0.91290008
 H     62.87813651     19.35252675     -1.62833010
 H     62.04958350     20.53558074     -1.33331072
 H     62.80388920     17.54165174     -0.74276220
 H     63.51786668     18.47329112     -2.08087687
 H     61.54765260     18.86893537     -3.27718115
 H     60.74185466     17.61612403     -2.30279925
 H     62.43338117     15.94552787     -2.79290306
 H     63.02276867     17.01069358     -4.09148346
 H     60.86832565     17.22091176     -5.14592175
 H     60.31188274     15.84665006     -4.16101428
 H     61.79656842     14.26421490     -4.52341832
 H     62.39723594     15.14942824     -5.94604354
 H     59.55477991     14.76273216     -6.09807877
 H     59.44289156     14.52816974     -5.14163529
 H     59.28462137     14.67165977     -3.85070762
 H     59.93055312     13.01303475     -3.85208919
 H     58.25312168     12.38277923     -5.59964939
 H     57.42593231     13.91522022     -5.23134379
 H     57.06709072     14.04593427     -3.16538900
 H     57.35892874     12.29943902     -2.98413902
 H     55.99697612     11.43544684     -4.56187845
 H     55.15358087     12.99872960     -4.67632556
 H     54.53830391     13.99335239     -3.34617980
 H     54.78142659     13.13265811     -2.27385360
 H     55.60928928     13.26633336     -1.49673023
 H     54.50890681     11.86932471     -1.42062560
 H     52.47756931     13.05156806     -1.78389752
 H     52.91743183     14.03554316     -1.12030118
 H     52.65061831     11.05863663     -1.69556929
 H     51.83535531     12.40930321     -2.51977357
 H     50.70592288     12.82759473     -0.22439329
 H     51.32751555     11.22280548      0.23007418
 H     50.27659684     10.14827866     -1.69542653
 H     49.31776338     11.63151479     -1.91659530
 H     48.38560229     12.01457750      0.02241311
 H     48.76065259     10.35262171      0.53768674
 H     47.58982288      9.61513433     -1.63402988
 H     46.98785997     11.28713711     -1.73558777
 H     46.06559584     10.87769159      0.64331976
 H     46.40613290      9.15630116      0.34479650
 H     45.41340543      8.65372640     -1.51534253
 H     44.43959992     10.13980235     -1.40788214
 H     43.52720172     10.42329228      0.34854585
 H     43.75539669      8.71082389      0.77708492
 H     42.64065346      8.31925323     -1.57722942
 H     42.22306848     10.04789675     -1.50185680
 H     41.11506506      9.99923461      0.56668553
 H     41.05046189      8.22416429      0.45171399
 H     40.02843421      8.24835938     -1.74297023
 H     39.68039612      9.97667514     -1.49789717
 H     38.59883640      9.92292688      0.50081652
 H     38.38731620      8.16449232      0.32352075
 H     37.48636062      7.91085050     -1.66811651
 H     37.07818660      9.64293950     -1.70721055
 H     35.94944178      9.49389199      0.47755164
 H     35.99603580      7.72360660      0.29814899
 H     35.33799844      6.93684713     -1.33085893
 H     34.45163733      8.42788575     -1.73015140
 H     33.32536030      9.14821851     -0.22763195
 H     33.40089839      7.58358672      0.61764198
 H     32.67160361      6.35687939     -1.36818864
 H     32.19218350      7.91863608     -2.07482792
 H     30.90668605      8.87425994     -0.60971917
 H     30.70273433      7.32177553      0.23672192
 H     30.08768973      5.92365335     -1.37530609
 H     29.72284525      7.30714999     -2.43412251
 H     28.36341785      8.53657057     -1.08926434
 H     28.16471631      7.12519197     -0.02305853
 H     27.52630373      5.55402131     -1.57776339
 H     27.21096824      6.86379127     -2.74109174
 H     25.89172700      8.25755895     -1.66022583
 H     25.55711789      7.00162524     -0.44411156
 H     24.93414300      5.25986895     -1.73701555
 H     24.72666450      6.36864361     -3.11390992
 H     23.32536165      7.91800573     -2.05052865
 H     23.05634133      6.73231289     -0.75051818
 H     22.38933693      5.18447789     -2.78586478
 H     22.38468740      6.69141270     -3.73317282
 H     20.90687701      7.91121319     -2.40530557
 H     20.43042326      6.39839445     -1.59744548
 H     19.90151321      4.97616245     -3.07967546
 H     19.76675550      6.26873522     -4.29596599
 H     18.41157341      7.74449674     -3.27513859
 H     17.95441874      6.49504655     -2.09270445
 H     17.43807943      5.19851232     -4.39543535
 H     17.63351354      6.80541079     -5.13567147
 H     15.87069060      7.69096056     -3.57993350
 H     15.47561874      5.99494722     -3.21152660
 H     15.13044418      5.01122755     -5.10086797
 H     14.97133095      6.59042862     -5.90651902
 H     13.21831000      7.06318332     -4.03124691
 H     13.30377193      5.31637612     -3.70014641
 H     12.82650497      4.57322953     -5.87371298
 H     12.27097425      6.21553285     -6.27681607
 H     10.73697261      5.99103599     -4.21646070
 H     11.14234015      4.25827442     -4.25494645
 H     10.44517971      4.02158020     -6.57811222
 H      9.65028588      5.60770053     -6.43447109
 H      8.45546095      4.55232140     -4.38364101
 H      9.07419341      2.99670856     -4.98821152
 H      8.12908643      3.25629191     -7.18297732
 H      7.13197792      4.58304702     -6.53973385
 H      6.11656007      3.85692779     -4.80527271
 H      6.47908447      2.17948134     -5.27751858
 H      5.61992665      2.38155485     -7.49546232
 H      4.83258571      3.89975661     -7.00208181
 H      3.69389216      3.49724165     -5.23556701
 H      3.95546467      2.15878898     -5.09120008
 H      4.66307076      1.69102226     -4.32696431
 H      3.80130888      0.65245516     -5.48757255
 H      1.96719817      0.79784332     -5.78145604
 H      1.75827840      1.65917985     -4.23785033
 H      3.01050185     -0.13130888     -3.05070648
 H      2.82197477     -1.12167916     -4.51763897
 H      0.61636127     -1.06129890     -4.87944112
 H      0.36653298     -0.45264591     -3.22553846
 H      1.56603890     -2.09460034     -2.08517559
 H      1.55070959     -3.08921554     -3.56124208
 H     -0.78736407     -3.01826938     -3.90676758
 H     -0.97449136     -2.40661310     -2.24570568
 H      0.35873489     -4.37978417     -1.42696931
 H      0.12528252     -5.08723911     -3.04353177
 H     -1.93810231     -5.08471182     -3.50404836
 H     -2.43443114     -4.56134976     -2.24876253
 H     -2.81557674     -3.53076522     -1.94412245
 H     -2.70472827     -4.78942657     -0.69042756
 H     -3.64083115     -6.54043747     -1.33569593
 H     -4.48269431     -5.64218338     -2.62125911
 H     -5.28689944     -4.01149688     -0.87802221
 H     -4.76064525     -5.19946776      0.33855018
 H     -6.30239006     -6.82993980     -1.00535595
 H     -6.92569953     -5.36389316     -1.79937057
 H     -7.52142523     -4.20428029      0.15874663
 H     -7.36236986     -5.72723987      1.06624990
 H     -8.70979548     -7.08978226     -0.18491973
 H     -9.39656676     -5.65221081     -0.97864525
 H    -10.00398563     -4.41418447      0.83496884
 H     -9.82480726     -5.85735869      1.86132646
 H    -11.36868892     -7.07676786      0.26727448
 H    -11.76666897     -5.47927435     -0.40940348
 H    -12.26614745     -5.31641062      2.33736116
 H    -12.06449390     -7.08190076      2.23417643
 H    -13.19120282     -8.00974251      0.90140940
 H    -14.28039421     -6.60564165      0.79928414
 H    -14.70989479     -6.27179569      3.02756504
 H    -14.05200336     -7.88836795      3.37704986
 H    -15.74611701     -8.69927814      1.58226193
 H    -16.47098176     -7.07969383      1.72291902
 H    -16.78383022     -7.18821997      4.09065573
 H    -16.48753493     -8.94107106      4.00127564
 H    -18.56041487     -8.29323026      2.18616415
 H    -18.48652287     -6.74639861      3.06372808
 H    -18.84554807     -7.78230122      5.22478882
 H    -19.34757047     -9.25926283      4.36756973
 H    -21.02040276     -7.76679660      3.11897952
 H    -20.65763403     -6.53091218      4.34749701
 H    -21.20001420     -8.05862442      6.18364893
 H    -21.95498642     -9.12949707      4.97886041
 H    -23.37947880     -7.36530291      4.10356461
 H    -22.96899666     -6.40361642      5.54402640
 H    -23.41483842     -7.71313370      7.24637435
 H    -24.36468272     -8.77891383      6.18327738
 H    -25.66404417     -6.74494700      5.43220452
 H    -24.93170244     -5.89064957      6.81137752
 H    -25.84712345     -7.76285297      8.28520706
 H    -26.82951348     -8.23980158      6.87961234
 H    -27.71639632     -5.86549325      6.81228833
 H    -27.00647378     -5.66339748      8.43199014
 H    -27.96464592     -7.43802851      9.51760505
 H    -29.13471624     -7.59765054      8.18579315
 H    -29.60444074     -5.07881215      8.62717596
 H    -28.68868334     -5.30773081     10.13623239
 H    -30.33088823     -7.20931803     10.65238314
 H    -31.32086721     -6.56007612      9.32321301
 H    -31.55502304     -4.40197064      9.91847291
 H    -31.00111616     -4.80368323     11.56166518
 H    -32.79356554     -6.60608777     11.60658804
 H    -33.46947552     -5.82183471     10.15870700
 H    -33.61220686     -3.64733738     11.22084743
 H    -33.35377460     -4.45949576     12.78349845
 H    -34.73448347     -6.03301314     12.99420806
 H    -35.73139578     -5.35976351     11.68227535
 H    -35.76355234     -3.14669342     12.80127180
 H    -35.14009589     -3.96213759     14.25544494
 H    -36.85134966     -5.61586847     14.34812438
 H    -37.78981068     -4.64536475     13.18808986
 H    -37.73656914     -2.61908013     14.35330548
 H    -37.19133374     -3.50140053     15.79985161
 H    -37.98527385     -5.00474807     16.45513968
 H    -39.48029104     -4.63579784     15.56235414
 H    -39.88056342     -2.50827622     16.10508419
 H    -38.72519575     -2.63872670     17.45281372
 H    -39.72006672     -4.58981677     18.40681536
 H    -41.14891224     -4.30332127     17.38476474
 H    -41.17466403     -1.93940041     18.40107077
 H    -40.01597310     -2.56977492     19.59619836
 H    -41.22275833     -4.39112258     20.35093172
 H    -42.67857012     -3.71516078     19.58154603
 H    -42.74826226     -1.63226392     20.39300217
 H    -41.57889033     -2.08983748     21.65453393
 H    -43.18912840     -4.01599617     22.20292617
 H    -44.37251464     -3.16019180     21.18534937
 H    -44.12359363     -1.09230167     22.48196276
 H    -43.28598389     -2.05414312     23.72354950
 H    -44.67238217     -3.71352817     24.15874541
 H    -45.98835994     -2.82837657     23.35067622
 H    -45.49729496     -0.83873080     24.79491083
 H    -44.50667546     -1.92524702     25.79811678
 H    -46.28331111     -3.52158935     26.13206610
 H    -47.42271505     -2.29897907     25.51949002
 H    -46.55752760     -0.67093959     27.21075904
 H    -45.76946207     -2.05353926     28.00802784
 H    -46.80180876     -3.61230499     28.42409872
 H    -48.31603143     -2.68994707     28.26708839
 H    -47.56779874     -0.92696669     29.75538820
 H    -46.24623452     -2.00313285     30.26880916
 H    -46.96090966     -3.85290185     30.84910403
 H    -48.60929291     -3.19718449     30.99447964
 H    -48.84454393     -1.55130111     32.00421606
 H    -47.25906863     -1.76607418     32.78422072
 H    -47.08131287     -3.68952583     33.56374181
 H    -48.84251947     -3.92157360     33.45161770
 H    -49.85444232     -2.33048739     34.32509337
 H    -48.37178684     -1.82057909     35.16770416
 H    -47.84560638     -3.89674934     36.12952961
 H    -49.49079516     -4.45462595     35.74172266
 H    -50.30848970     -2.36336182     36.98915145
 H    -48.64153396     -2.21665473     37.59578334
 H    -48.42758147     -4.35660767     38.49492542
 H    -50.19304422     -4.55055558     38.37748545
 H    -50.52167402     -2.43068354     39.63893954
 H    -48.79744455     -2.51848137     40.07205727
 H    -48.84505638     -4.69977054     40.96689426
 H    -50.62199015     -4.60407857     41.00709505
 H    -51.12355077     -2.78157189     42.04886348
 H    -49.46425976     -2.67527691     42.68425421
 H    -49.71530066     -5.04660470     43.52319082
 H    -51.45826390     -4.86760343     43.20965552
 H    -51.37776178     -2.78539740     44.68033912
 H    -49.76902547     -3.34533382     45.19677436
 H    -50.18943609     -5.44285768     45.88451134
 H    -51.93075874     -5.07540844     45.91680933
 H    -51.95055686     -3.18628838     47.18328181
 H    -50.28652816     -3.53773259     47.70841239
 H    -50.08945593     -5.45539452     48.41678350
 H    -51.85474111     -5.59811257     48.59473426
 H    -52.28924106     -3.69346697     49.79664542
 H    -50.55251590     -3.54854929     50.15865543
 H    -49.96073933     -5.49011945     50.96373965
 H    -51.67074958     -5.91096119     51.22262925
 H    -52.05522644     -3.81894052     52.47400950
 H    -50.28698259     -3.63493878     52.56189409
 H    -49.94755252     -5.83314149     53.51530386
 H    -51.69546603     -5.89642775     53.84554601
 H    -52.30595715     -4.19545973     54.88229801
 H    -50.61883492     -3.82488194     55.31189938
 H    -49.95718731     -5.82537041     56.18482104
 H    -51.66250229     -6.32323069     56.29573832
 H    -52.34471071     -4.35952046     57.51219214
 H    -50.62476358     -4.01518132     57.81464723
 H    -49.91449078     -5.96929469     58.69867940
 H    -51.60702520     -6.45469411     58.95941168
 H    -52.89050715     -5.46680519     59.72300973
 H    -51.66534265     -4.43402459     60.49799544
 H    -50.47965400     -6.40364338     61.38931345
 H    -51.91864699     -7.36525710     60.97354320
 H    -53.25772499     -5.67753111     62.35760891
 H    -51.68767509     -5.10843952     62.97351859
 H    -51.07890892     -7.39209271     63.68815345
 H    -52.78595844     -7.83880987     63.45428947
 H    -53.62071822     -6.07272958     64.87089288
 H    -51.96228750     -5.85141024     65.47825767
 H    -51.91046276     -8.31154149     66.03833641
 H    -53.67280299     -8.30592113     65.78855254
 H    -54.38646909     -6.67244611     67.10991354
 H    -52.82280314     -6.67852516     67.96031256
 H    -53.22216193     -9.20821223     68.26531747
 H    -54.89453710     -8.88260570     67.75013947
 H    -55.55228551     -7.26958135     69.13964439
 H    -54.16965171     -7.62561204     70.20258023
 H    -53.75415713     -9.34968048     70.75834037
 H    -55.39748231     -9.90552271     70.35985771
 H    -56.70852800     -8.41827228     71.36289461
 H    -55.32613635     -7.85659552     72.33334771
 H    -54.56790315     -9.81709530     73.19250845
 H    -56.09696196    -10.59862384     72.72404397
 H    -57.23217213     -8.67682013     74.02909601
 H    -55.61290249     -8.33116607     74.68236146
 H    -55.42968265    -10.69412081     75.46551917
 H    -57.17820722    -10.83844612     75.16535476
 H    -57.41660201     -8.77736573     76.69321001
 H    -55.72354123     -9.07441271     77.15535171
 H    -56.62819810    -11.46541927     77.74777486
 H    -58.24051113    -10.74947635     77.57110105
 H    -59.16629777    -10.47143807     76.95990392
 H    -59.01319765     -9.61414004     78.51227859
 H    -58.71238535    -11.95061914     79.55530894
 H    -59.28450024    -12.58836961     77.99510845
 H    -61.26626990    -11.42524446     77.81490735
 H    -61.14852685    -11.00098364     79.53955398
 H    -60.83731482    -12.84244788     80.61699596
 H    -61.36064962    -13.77616382     79.19482793
 H    -63.45512497    -12.37317016     79.12300705
 H    -63.01849741    -11.81116029     80.75449960
 H    -62.66323426    -13.37223787     82.04005878
 H    -63.48640883    -14.50108397     80.93717312
 H    -65.45801182    -12.91031802     80.92383317
 H    -64.69121442    -12.10944051     82.31627118
 H    -64.33514741    -13.72866374     83.76288295
 H    -65.45471504    -14.78129059     82.86465598
 H    -67.08486289    -14.37428008     82.28861178
 H    -67.18668570    -13.03762575     83.45961732
 H    -66.49035778    -14.69938635     85.25248028
 H    -66.82937048    -15.97247791     84.05557806
 H    -68.80712851    -15.67697401     83.31685862
 H    -69.17384175    -14.59975765     84.68557808
 H    -68.64727546    -15.53553498     86.48788578
 H    -68.57396735    -17.11473962     85.66995834
 H    -70.35330790    -17.41114226     84.57437630
 H    -71.15318054    -16.10787437     85.48539947
 H    -70.80638254    -16.58546541     87.59390115
 H    -70.33869361    -18.24362636     87.14664732
 H    -71.83082415    -19.07344009     85.90562893
 H    -72.97566430    -17.80416027     86.40215328
 H    -73.02605670    -17.67819940     88.49855193
 H    -72.24425192    -19.27162518     88.63287326
 H    -73.32015191    -20.64738491     87.41658659
 H    -74.69588605    -19.52112391     87.33197913
 H    -74.48078567    -19.54409419     89.94618387
 H    -73.40910560    -20.94432752     89.70304789
 H    -74.79901044    -22.28164203     88.44946756
 H    -76.17556775    -21.25565595     88.91926453
 H    -75.44311592    -21.65785298     91.34254765
 H    -74.40112410    -22.94645770     90.69291885
 H    -76.74712345    -23.74480458     89.69432374
 H    -77.44105294    -22.54832637     90.81466673
 H    -76.42341439    -23.39137766     92.77378825
 H    -76.02491994    -24.87821380     91.88003933
 H    -78.46633387    -25.06797508     91.25560597
 H    -78.77806699    -23.83173336     92.49769918
 H    -77.71447549    -24.92116765     94.28243317
 H    -77.70549251    -26.41793139     93.31916567
 H    -80.08366703    -26.33518577     92.87855563
 H    -80.21976158    -25.10739492     94.16006824
 H    -79.06778290    -26.63641293     95.75467799
 H    -79.33920108    -27.93802628     94.57129237
 H    -81.84866775    -27.12092707     94.81005953
 H    -81.25527129    -26.21601047     96.22330871
 H    -80.30258879    -28.10791966     97.32003632
 H    -81.21106747    -29.15479948     96.20335561
 H    -83.20780288    -27.63726788     97.18665035
 H    -81.99248836    -27.13214488     98.38503595
 H    -81.94513552    -29.82142021     98.68932394
 H    -83.42540139    -29.77192001     97.70209076
 H    -84.74858047    -28.36810991     98.77806506
 H    -83.71687384    -28.50092475    100.22243631
 H    -83.26916676    -30.30680841    100.83465767
 H    -84.60892007    -30.99447046     99.88573795
 H    -86.27923976    -29.52491584    100.71999816
 H    -85.15488804    -29.05242415    102.01647472
 H    -84.94231143    -31.55013602    102.53554055
 H    -86.36264160    -31.77356648    101.48625141
 H    -87.74985781    -30.21689056    102.63912253
 H    -86.58107129    -30.23840050    103.98141238
 H    -86.79979530    -32.75855474    104.02401163
 H    -88.22892303    -32.55194673    102.98325530
 H    -89.46845291    -31.08917041    104.15365518
 H    -88.47039226    -31.40606071    105.59300299
 H    -88.79722470    -33.82039728    105.42578207
 H    -90.11352895    -33.49616191    104.27231719
 H    -91.11029960    -31.97149375    106.07096308
 H    -89.95155754    -32.72570038    107.19201431
 H    -90.91737721    -34.97430041    106.47838887
 H    -92.24437225    -34.04706039    105.73840456
 H    -92.78895181    -32.85165749    107.74995299
 H    -91.79686575    -34.02197208    108.65239173
 H    -91.79379135    -35.75490693    108.59009019
 H    -93.43595776    -35.74547341    107.90345556
 H    -94.33826925    -34.28292690    109.58223962
 H    -92.87714430    -34.58157123    110.55393510
 H    -92.36158535    -36.44003064    110.85424338
 H    -93.99111915    -36.99760436    110.40480172
 H    -94.26354504    -34.99798664    112.38235315
 H    -92.50719939    -35.25534803    112.51381313
 H    -91.79051165    -36.97576139    112.77704884
 H    -93.36675253    -37.57917133    113.34240519
 H    -93.98640974    -36.11364326    114.87738323
 H    -92.32305152    -35.48403547    114.94879846
 H    -91.34462992    -37.66821014    115.30975537
 H    -92.97787175    -38.27597986    115.67225196
 H    -93.11993376    -36.38729309    117.40172974
 H    -91.36383139    -36.20451045    117.17598289
 H    -91.19730904    -38.70162836    117.73984701
 H    -92.88224352    -38.56960582    118.29826667
 H    -92.99151257    -36.97002859    119.70263423
 H    -91.22082952    -36.98731797    119.88332533
 H    -90.94172521    -39.24999505    120.32992874
 H    -92.69039407    -39.37735057    120.63685622
 H    -93.44270872    -38.05028348    121.90328156
 H    -91.81769082    -37.68002468    122.52817509
 H    -90.82626190    -39.46565721    123.02098010
 H    -92.36946382    -40.35234304    122.99683986
 H    -93.47385723    -38.80894590    124.48933006
 H    -91.87424385    -38.13900816    124.89018802
 H    -90.76475140    -40.05002317    125.47918575
 H    -92.32467852    -40.89941229    125.59508302
 H    -93.50497681    -39.55209289    126.95153550
 H    -92.00138008    -38.72787119    127.42915683
 H    -90.71077797    -40.49742022    128.03832901
 H    -92.16427571    -41.52378040    128.08518798
 H    -93.24084883    -39.83771075    129.61374294
 H    -91.62148507    -39.12647161    129.81390930
 H    -90.37507346    -40.86748957    130.43643509
 H    -91.85266741    -41.79118554    130.79943443
 H    -92.62492165    -39.87703246    132.24456289
 H    -90.96206331    -39.25113752    132.13767822
 H    -89.58407528    -40.70413885    132.67908496
 H    -90.86763179    -41.66741608    133.44905010
 H    -91.87658614    -40.19106569    134.78360319
 H    -90.49067279    -39.08844912    134.60542477
 H    -88.80311406    -40.59607646    135.18275660
 H    -90.04603576    -41.68952562    135.83680648
 H    -91.04876540    -40.03965901    137.25399858
 H    -89.61292367    -39.01911181    136.99883470
 H    -88.05047441    -40.82510237    137.53080115
 H    -89.23464830    -41.56680609    138.33390855
 H    -87.63514502    -38.90265769    137.68163829
 H    -87.08872835    -40.45896344    137.01260325
 H    -86.75881304    -41.16678803    139.47442240
 H    -86.95197918    -39.44151402    139.86733857
 H    -85.07046326    -38.97151274    138.22185379
 H    -84.74592200    -40.72203029    138.25697933
 H    -84.92406546    -41.72154717    137.73753626
 H    -84.18333336    -41.72318353    139.35604790
 H    -82.49024562    -40.04795758    138.40032731
 H    -83.12415783    -40.49787006    136.79907757
 H    -82.67781668    -42.89248246    137.25829447
 H    -81.68997919    -42.36140767    138.64046788
 H    -80.33971906    -40.88448631    137.22168579
 H    -81.03259831    -41.72094212    135.81153449
 H    -80.52651010    -43.90228354    136.40774170
 H    -79.40056448    -43.27811947    137.63694157
 H    -78.11836213    -41.87516517    136.41936856
 H    -78.73771939    -42.62050063    134.92633865
 H    -77.91768837    -44.82724792    136.16487840
 H    -77.09477436    -43.70481590    137.27448443
 H    -75.88550201    -42.51969378    135.63872463
 H    -76.26327439    -43.81242362    134.47493588
 H    -75.16120161    -45.21999649    136.51767382
 H    -74.67218318    -43.61349946    137.10783899
 H    -73.55161286    -42.84585255    135.25015521
 H    -73.51333019    -44.50730877    134.61268811
 H    -72.48131206    -45.21464749    136.82624814
 H    -72.22200976    -43.48154994    137.13834083
 H    -71.00728089    -43.25610160    134.98153375
 H    -70.93477647    -45.03386217    134.93076810
 H    -69.83437506    -44.48078965    137.36171282
 H    -69.80249350    -42.81061509    136.74708515
 H    -68.64297351    -43.13403927    134.79001198
 H    -68.13651478    -44.73087975    135.37657315
 H    -68.69475677    -41.61097987    135.45134566
 H    -68.99290673    -42.55118819    133.96966365
 H    -66.96380585    -43.34677676    133.46861465
 H    -66.23231852    -42.17356012    134.58966579
 H    -67.53835471    -40.37477820    133.32000946
 H    -67.83157716    -41.62097260    132.08336611
 H    -66.09633931    -42.51238324    131.45250582
 H    -65.13314788    -41.18261132    132.13969981
 H    -66.28789758    -39.41014761    131.13816533
 H    -67.05257837    -40.57594535    130.03161864
 H    -64.67523147    -41.35451713    129.46802420
 H    -64.11958248    -39.88168086    130.29885161
 H    -65.16556813    -38.22483214    129.39247788
 H    -65.62007413    -39.25279427    128.01226601
 H    -63.86700660    -40.19783062    127.27171721
 H    -62.84786170    -39.03782992    128.15715989
 H    -63.59201212    -37.06405155    127.62697880
 H    -64.47601486    -37.75928935    126.24732296
 H    -62.85977584    -38.93426469    125.20246874
 H    -61.62816381    -38.06029994    126.14458556
 H    -62.80247410    -35.92253794    125.26929249
 H    -63.63916718    -37.00304342    124.12880169
 H    -61.69908255    -37.99098511    123.21480042
 H    -60.73483106    -36.69094054    123.95532041
 H    -61.76539736    -34.83986430    123.22616650
 H    -62.61534506    -35.80488011    121.99547561
 H    -60.65796001    -36.81652804    121.09494913
 H    -59.68607144    -35.60204111    121.96023566
 H    -61.21477850    -33.88357216    120.74154082
 H    -61.73364975    -35.25822263    119.73686406
 H    -59.34872617    -35.72465128    119.15887161
 H    -58.96349565    -34.12119527    119.82879170
 H    -60.73229518    -33.20446066    118.21109874
 H    -60.66896175    -34.79858571    117.42178204
 H    -58.27183851    -34.71517872    117.09501388
 H    -58.33912505    -32.97721297    117.47345042
 H    -60.13678099    -32.93601039    115.56801062
 H    -59.55887620    -34.57438332    115.18067761
 H    -57.34242901    -34.23457410    114.92441835
 H    -57.63352634    -32.48193653    114.81583399
 H    -59.31577533    -32.88577090    113.01173186
 H    -58.67066065    -34.54105769    112.90164395
 H    -56.40270213    -33.89434107    112.59198186
 H    -56.96680022    -32.24131397    112.24910956
 H    -58.51373344    -33.00684779    110.52191578
 H    -57.66973487    -34.57368591    110.55276015
 H    -55.51908623    -33.22677647    110.15072313
 H    -56.58856602    -31.85796649    109.76234333
 H    -57.77686262    -33.20788786    108.06521358
 H    -56.44603353    -34.38422123    108.18097374
 H    -54.88025336    -32.41182256    107.68932811
 H    -56.34587843    -31.51351705    107.22753050
 H    -57.18699553    -33.02000017    105.66580839
 H    -55.60525842    -33.83600106    105.64307228
 H    -54.33045995    -31.87821733    105.19959461
 H    -55.84251995    -31.04448733    104.76734988
 H    -56.27064827    -32.96874194    103.13973060
 H    -54.56987441    -33.42264291    103.40356548
 H    -53.26241049    -31.91677599    103.12017410
 H    -54.48676504    -30.98367100    102.22656476
 H    -55.18611312    -32.52845993    100.71069444
 H    -53.75638217    -33.52099010    101.08354821
 H    -52.34312176    -31.45775285    100.61851870
 H    -53.80796912    -30.74662758     99.89963782
 H    -54.52080511    -32.16460008     98.42906006
 H    -52.95003277    -33.00125757     98.45980410
 H    -51.82846164    -30.78403010     98.03597289
 H    -53.44229000    -30.15508580     97.62578541
 H    -54.44283875    -31.22667335     96.26614468
 H    -52.94148480    -32.03440255     95.75450365
 H    -51.64794830    -30.11767466     95.41481860
 H    -53.13656534    -29.14288835     95.46039936
 H    -54.30626476    -30.38182713     93.81388856
 H    -52.76618425    -31.14673611     93.35417892
 H    -51.69811807    -28.94008474     93.05576919
 H    -53.32899748    -28.22868735     93.10488902
 H    -54.08808900    -29.73716723     91.29635143
 H    -52.37447044    -30.11541751     90.99851792
 H    -51.31083985    -28.29994412     90.74572416
 H    -52.83737107    -27.42137174     90.48866451
 H    -54.10216941    -28.14478366     89.20784754
 H    -52.82960559    -29.14646723     88.46928271
 H    -51.15273816    -27.91858703     88.05398185
 H    -52.15492677    -26.45886341     88.23589288
 H    -53.58018021    -27.92566043     86.43063868
 H    -52.09679363    -28.90659798     86.35585613
 H    -50.48609601    -27.52520522     85.89044305
 H    -51.67289467    -26.29811409     85.38643614
 H    -53.03230238    -27.08623174     84.03440402
 H    -51.95633598    -28.46964937     83.72340784
 H    -50.01340397    -27.22185192     83.26115161
 H    -51.02870773    -25.76853939     83.10206789
 H    -52.40368114    -27.12347610     81.40801150
 H    -51.05559000    -28.28570430     81.41995016
 H    -49.35773316    -26.71822917     80.89921402
 H    -50.62632003    -25.56260799     80.42646279
 H    -51.46864820    -27.46753729     78.88429728
 H    -49.90871442    -28.25626391     79.22012995
 H    -48.41966825    -26.68604101     78.67946176
 H    -49.68738074    -25.78801215     77.81071790
 H    -50.36373589    -27.68306133     76.48159888
 H    -48.86516797    -28.50124549     76.98472464
 H    -47.36418730    -26.81861796     76.35794191
 H    -48.66338049    -26.05791237     75.40836795
 H    -49.27930141    -27.92891247     74.15178997
 H    -47.76863929    -28.72503864     74.65413422
 H    -46.28765385    -27.03369855     74.01997039
 H    -47.59424201    -26.28898955     73.06786612
 H    -48.39199250    -27.84070945     71.79302434
 H    -46.95300012    -28.84367549     72.09572339
 H    -45.35691366    -27.18920594     71.53164008
 H    -46.66387538    -26.24126408     70.78229104
 H    -47.64276682    -27.64565239     69.39737115
 H    -46.24419363    -28.74039306     69.51485545
 H    -44.76534739    -26.77401270     68.91448555
 H    -46.25752486    -25.92547290     68.44368487
 H    -46.75861542    -27.90772285     66.92316509
 H    -44.97440998    -27.07180235     66.57135618
 H    -44.15499406    -26.28220049     66.49919836
 H    -45.74729985    -25.88277671     65.81123793
 H    -45.52554476    -28.11635130     64.53320276
 H    -43.81738751    -28.09041878     65.03299567
 H    -42.99104057    -26.21093469     64.43698626
 H    -44.36806414    -25.93614474     63.34311093
 H    -43.77512259    -28.28695727     62.40584497
 H    -42.25533682    -28.12266963     63.31772623
 H    -41.57370291    -26.07109066     62.41695015
 H    -42.78321583    -26.27282890     61.12673822
 H    -41.88816444    -28.50501332     60.56428167
 H    -40.46384778    -28.09891208     61.55153568
 H    -39.97252012    -26.05748076     60.43220241
 H    -41.07679355    -26.55767175     59.12887749
 H    -40.03467899    -28.67679813     58.76198120
 H    -38.64692741    -28.10671133     59.71979812
 H    -38.59535347    -26.09688787     58.11582587
 H    -39.70441585    -27.03816592     57.09003693
 H    -38.30223892    -28.96805426     56.96383128
 H    -36.96552346    -27.98022221     57.60073496
 H    -37.43788560    -26.33828768     55.71247475
 H    -38.44391102    -27.61914556     54.99443394
 H    -36.97935738    -29.35023446     54.93244248
 H    -35.64022824    -28.21089972     55.20978009
 H    -36.20701316    -26.74048759     53.42615486
 H    -37.28880525    -28.00216190     52.78883982
 H    -35.17275892    -29.51453607     52.90683082
 H    -34.26782358    -28.00098311     53.14873192
 H    -34.95014837    -26.79154667     51.35091946
 H    -35.58895903    -28.27848788     50.60984360
 H    -33.56146710    -29.52208660     50.82841487
 H    -32.71572878    -27.99324052     51.16844873
 H    -33.18598455    -26.61522070     49.61210498
 H    -33.77843733    -27.94719314     48.59077458
 H    -31.77913441    -29.26711901     48.83780443
 H    -30.97059064    -27.82230345     49.49128101
 H    -31.48001021    -26.36675196     47.72208392
 H    -31.93456832    -27.77791147     46.73705984
 H    -30.13929964    -29.10097534     46.90555624
 H    -29.19329281    -27.72935592     47.53165359
 H    -30.01698529    -26.48992977     45.40856255
 H    -30.53395018    -28.09182246     44.82981062
 H    -28.35541125    -29.08914775     45.12270205
 H    -27.68806183    -27.44766903     45.29140005
 H    -28.79896642    -26.89993696     43.06483542
 H    -29.03114467    -28.65413339     42.87207963
 H    -26.71981418    -29.20145085     43.19667048
 H    -26.33197704    -27.47898079     42.97095851
 H    -27.38889214    -27.10779972     40.96015078
 H    -27.51389753    -28.86774821     40.72515796
 H    -25.08355974    -29.13519713     41.10085380
 H    -24.93884838    -27.37116075     40.91243685
 H    -25.87893754    -26.83225444     39.06929858
 H    -25.84541334    -28.53104673     38.53897080
 H    -23.70277476    -29.10227523     38.85256315
 H    -23.27077083    -27.38146882     38.99561757
 H    -24.40777067    -26.92181892     36.82074839
 H    -24.43156755    -28.68242406     36.56003798
 H    -22.10834806    -29.02095055     36.88508113
 H    -21.87252182    -27.26348944     36.73021640
 H    -22.37060739    -26.08211936     35.74201076
 H    -22.65875284    -27.29498060     34.47149650
 H    -20.77550457    -28.46803941     34.42739663
 H    -19.95843765    -27.18932292     35.35774734
 H    -20.07262851    -25.38511952     34.85667429
 H    -20.57928696    -25.84241937     33.21276409
 H    -19.28402593    -27.28534597     32.43287356
 H    -18.07261173    -26.90233294     33.67948630
 H    -17.90345095    -24.66184927     33.49299909
 H    -18.73399248    -24.73917965     31.92058456
 H    -17.78204131    -26.16473809     30.69652764
 H    -16.35361872    -26.15075123     31.75845040
 H    -16.13335246    -23.73826717     31.68060040
 H    -17.26246966    -23.73874524     30.30460593
 H    -16.19030040    -25.26431850     28.94397302
 H    -14.72993067    -25.09887210     29.94807183
 H    -14.50174191    -22.80581958     29.90954505
 H    -15.64887664    -22.73652494     28.55030011
 H    -14.48156938    -24.32283885     27.19773175
 H    -13.07932517    -24.14183769     28.27903486
 H    -12.61475492    -22.09145097     28.47256638
 H    -13.59894739    -21.71422452     27.03822610
 H    -12.81354323    -23.14537927     25.50804619
 H    -11.38802775    -23.44788383     26.53013390
 H    -10.81196267    -21.14361133     26.78949814
 H    -11.92265268    -20.76430011     25.45130631
 H    -11.10680017    -22.21908345     23.85982951
 H     -9.63960583    -22.43751013     24.84364719
 H     -9.31006864    -19.97286185     24.92354801
 H    -10.51565059    -19.85282153     23.61954297
 H     -9.48790935    -21.34856215     22.12758969
 H     -8.00300566    -21.24757847     23.10387345
 H     -8.16709962    -18.71152919     22.83549516
 H     -9.37776097    -19.03522906     21.57146028
 H     -7.73392551    -20.51430840     20.40094745
 H     -6.48568547    -19.81640210     21.46070698
 H     -6.77284314    -17.60468164     21.12288413
 H     -7.74499174    -17.96158314     19.67519111
 H     -6.40673740    -19.34016803     18.51812358
 H     -5.03222797    -18.85164940     19.53809418
 H     -5.21123632    -16.55543882     19.30915762
 H     -6.30464179    -16.80332757     17.92666628
 H     -5.30252339    -18.15207767     16.57329108
 H     -3.75645533    -17.85382613     17.40334302
 H     -3.30787786    -15.91357730     17.65509672
 H     -4.50179796    -15.44724375     16.42004429
 H     -4.04685883    -16.70379672     14.68328368
 H     -2.45882241    -17.10223245     15.38160736
 H     -1.70742672    -14.94721684     15.79738050
 H     -3.00077579    -14.32162296     14.74659645
 H     -2.54138635    -15.63431804     12.86574615
 H     -0.96212076    -16.04441521     13.57708796
 H     -0.67134820    -13.45934853     13.75629344
 H     -2.08742943    -13.36139888     12.68233511
 H     -1.24328704    -14.72818656     10.96378825
 H      0.37694180    -14.57167386     11.68394723
 H      0.59837338    -12.33666106     11.86052824
 H     -0.77858391    -12.12152520     10.75329210
 H     -0.65112801    -13.16663956      9.04787137
 H      1.09518296    -13.40907747      9.29259263
 H      1.70114057    -11.19761813      9.66666892
 H      0.12222262    -10.68481337      9.02455051
 H      0.45492081    -11.97711724      6.96005550
 H      2.16807164    -12.13162688      7.41777559
 H      2.94622154    -10.20608525      7.82149268
 H      1.56093962     -9.45358164      6.99505514
 H      1.32995049    -10.34265709      5.09097542
 H      2.97333699    -11.01954188      5.18779716
 H      3.40676473     -8.37999961      5.70582789
 H      1.72916136     -8.19595449      5.14010624
 H      1.62260171     -9.10311663      3.18807853
 H      3.39858068     -9.08552509      3.07036739
 H      3.83346734     -6.90201343      3.56062715
 H      2.11557749     -6.51695096      3.29823805
 H      2.26160681     -7.61750512      1.04183151
 H      4.02993631     -7.57794638      1.24111152
 H      4.31481323     -5.33722299      1.68727349
 H      2.66214608     -5.03221206      1.10082121
 H      3.07838932     -6.17365012     -1.01546584
 H      4.81559403     -6.11143209     -0.63269257
 H      5.32730117     -4.09924278     -0.17067056
 H      3.81129760     -3.52759424     -0.90770367
 H      4.01649431     -4.61512787     -2.96166755
 H      5.73174290     -4.91872494     -2.59558317
 H      6.25768033     -2.63542883     -2.11931304
 H      4.71262063     -2.17254872     -2.87217370
 H      4.76226367     -3.14824891     -4.85409546
 H      6.51347400     -3.41509663     -4.67996522
 H      7.22338707     -1.31894823     -4.16168463
 H      5.65847780     -0.66899164     -4.70655349
 H      6.16898905     -1.98254546     -6.89665046
 H      7.82070344     -2.14791831     -6.25418797
 H      8.39244369     -0.02388072     -5.82305751
 H      7.02766272      0.53896964     -6.81746137
 H      7.92947727     -0.94371238     -8.68106708
 H      9.41625261     -1.07491348     -7.71124646
 H      9.45374083      1.49003162     -7.72138039
 H      8.22062419      1.38791611     -9.00093597
 H      9.35600268     -0.00330689    -10.47070506
 H     10.85784514      0.31430354     -9.56967260
 H     11.02650983      2.48160312     -9.44402880
 H      9.80909597      2.65833615    -10.73047181
 H     12.51897463      1.11270054    -10.16633125
 H     12.14880696      2.28815308     -8.88198165
 H     12.03534652      4.22629743     -9.92033716
 H     12.84620693      3.51750660    -11.33751310
 H     14.53253819      2.52191892    -10.93133858
 H     14.64698738      3.30665218     -9.33780108
 H     14.46171669      5.06289100     -9.00791680
 H     14.79505797      5.44209517    -10.71477193
 H     16.50328762      4.45907668    -11.37115306
 H     16.99765186      4.14754088     -9.68983925
 H     16.69814812      6.60943341     -9.21495285
 H     16.64053606      6.84332904    -10.96760863
 H     18.41991273      5.52068284     -8.68790789
 H     17.07360539      6.49068081     -8.04383711
 H     17.96586703      8.51941419     -9.16081273
 H     19.47667483      7.61444870     -9.41919985
 H     20.25815586      6.75731829     -7.81502530
 H     19.27717908      7.79012127     -6.74765975
 H     20.00581637      9.83013530     -7.88940813
 H     21.28518136      8.86103904     -8.65904720
 H     22.12794565      8.01424954     -6.55435940
 H     21.17185164      9.27058692     -5.73230872
 H     22.36501011     10.94728399     -7.26536095
 H     23.48105055      9.61739833     -7.65794792
 H     23.97350724      9.25742425     -5.26320527
 H     23.19809803     10.82796144     -4.94631386
 H     24.70363262     11.91725289     -6.60249411
 H     25.68700546     10.43423248     -6.55896302
 H     26.17118576      9.97006813     -4.56513574
 H     25.72998265     11.61703488     -4.05414943
 H     27.16092462     12.64588753     -5.74405507
 H     27.92146452     11.05329857     -5.97536898
 H     28.56344706     10.13487200     -4.36435290
 H     28.52512229     11.65746020     -3.44319980
 H     29.97984922     12.34987132     -5.64080893
 H     30.02382473     10.59279161     -5.92188496
 H     30.86085910      9.82714271     -3.97512828
 H     31.38017912     11.47808658     -3.55924646
 H     32.57021928     11.66998879     -5.73358950
 H     32.37718864      9.90845998     -5.90098749
 H     33.30786297      9.26626591     -3.87078459
 H     33.99297150     10.90011249     -3.69920859
 H     35.06089483     10.84647840     -5.87272303
 H     34.76991261      9.09080199     -5.90731160
 H     35.63304912      8.37270838     -3.99608028
 H     36.50313109      9.91437308     -3.81035472
 H     37.48354462      9.72288751     -6.05553681
 H     36.96267602      8.02084706     -6.06010589
 H     38.61000279      8.81058289     -3.76487362
 H     38.78885389     10.23344449     -4.81926625
 H     40.61364309      9.26476176     -5.60730017
 H     39.81856551      7.45769371     -5.35557027
 H     40.97828403      8.34470162     -3.76264853
 H     41.51056497      9.64231519     -4.85861508
 H     42.28332935      8.54833560     -6.62950569
 H     42.32904408      7.04424814     -5.67877032
 H     43.38696287      7.43232724     -3.87124087
 H     44.05031996      8.93212604     -4.56321456
 H     44.74479020      7.21953591     -6.49409841
 H     44.30379431      5.96639438     -5.30943575
 H     45.41695545      6.36889534     -3.51489087
 H     46.50544954      7.44976426     -4.41775834
 H     46.87503692      5.57550996     -6.07135502
 H     47.14325814      4.93317848     -4.15204108
 H     48.09931774      5.63245821     -3.41051749
 H     48.37160439      6.42141043     -4.14066172
 H     48.42160837      7.47834667     -4.99637854
 H     49.25705041      6.32343047     -6.06243287
 H     50.81521862      5.57994393     -4.41837908
 H     50.37533496      6.24139465     -3.40747324
 H     50.94435867      6.28418926     -2.37649564
 H     51.47669375      7.45755585     -2.77486248
 H     52.17857710      7.97986476     -2.02758010
 H     51.75966129      6.77222932     -1.27391432
 H     51.13007707      7.50946913     -0.39471631
 H     52.97291386      8.23978452     -0.98588201
 H     53.85768618      8.52635892     -0.24830985
 H     53.22019315      7.57518094      0.76732316
 H     54.12537344      8.14511575      1.61186642
 H     54.77408191      8.65828244      0.88496157
 H     54.91710062      8.55749627      2.50226706
 H     54.89031179      8.33527018      2.49716243
 H     55.79360209      6.60388767      2.23934583
 H     56.00263157      7.45499170      3.07953391
 H     56.65547154      6.66904866      3.79131087
 H     56.33363057      5.92151703      3.48270239
 H     57.17632558      4.92257573      3.68725433
 H     57.41693220      5.93868725      4.48057181
 H     57.73464739      4.22142526      4.81148054
 H     57.71494139      4.15584546      4.71863228
 H     58.55617924      3.40596820      5.31112303
 H     58.86725317      4.78063779      6.00218009
 H     59.50908419      3.58162988      6.82681083
 H     59.52706131      2.81154598      5.55773928
 H     60.29430256      1.92081601      6.07729420
 H     60.41153065      2.57890125      7.20007957
 H     60.97953552      0.96415220      6.72886200
 H     61.31821274      1.53373272      5.90376880
 H     62.41584661      1.10829451      5.51566551
 H     62.22679047      0.36327256      6.35728591
 H     62.69427298     -0.12577780      7.28139325
 H     63.54369501      1.00827608      6.20404898
 H     62.97858148     -0.55945486      5.57864266
1502
Final Conformation Chain 3 (Simulation Frame 4)
 C      0.00000000      0.00000000      0.00000000
 C      1.54000000      0.00000000      0.00000000
 C      2.16637443      0.31087968      1.37208196
 C      3.70628727      0.29490889      1.37574033
 C      4.33360496      0.69153264      2.72509652
 C      5.86534302      0.53946122      2.77256017
 C      6.52564446      1.22501432      3.98318767
 C      8.03850551      0.96330987      4.10303014
 C      8.73432319      1.79910195      5.19339218
 C     10.15175167      1.31183225      5.54703709
 C     10.69814640      1.88135758      6.86941892
 C     12.03939048      1.26590976      7.30974640
 C     12.02615697     -0.27186833      7.39137615
 C     13.29070411     -0.87614977      8.02962725
 C     14.60682286     -0.38380757      7.39952361
 C     15.86862175     -0.80351881      8.17625139
 C     17.18455290     -0.54936439      7.41774580
 C     18.44133167     -1.03469255      8.16377776
 C     19.74769136     -0.86571151      7.36598720
 C     21.00110278     -1.37543637      8.10133772
 C     22.27852693     -1.36745759      7.24126569
 C     23.55183789     -1.77206190      8.00714724
 C     24.70850570     -2.23222811      7.10052348
 C     25.77981729     -3.06668190      7.82686937
 C     26.83270541     -3.68677693      6.88958139
 C     28.23363805     -3.81169468      7.51678413
 C     29.35739800     -4.06392539      6.49446166
 C     30.72609071     -3.49745825      6.91564481
 C     31.74100599     -3.38938932      5.76244575
 C     33.12458778     -2.86755434      6.19255002
 C     34.09235489     -2.61908517      5.02067550
 C     35.49844266     -2.16528829      5.45493991
 C     36.29973157     -1.46012218      4.34486025
 C     37.62697798     -2.15664493      3.99148648
 C     38.45123285     -1.42515840      2.91578608
 C     39.92189293     -1.87566286      2.83959773
 C     40.80114353     -0.99340809      1.93397922
 C     42.29467228     -1.36835731      1.95359971
 C     43.12915277     -0.67421003      0.86117038
 C     44.61295492     -1.08627957      0.84977411
 C     45.42837508     -0.45928124     -0.29633368
 C     46.87952269     -0.96738791     -0.38350144
 C     47.73181031     -0.24937825     -1.44635981
 C     49.24999150     -0.41667976     -1.24954497
 C     50.10316820      0.35795771     -2.27112527
 C     51.61746308      0.11172489     -2.13740762
 C     52.44515848      0.64022809     -3.32366421
 C     53.05576137      2.03449548     -3.08960746
 C     53.61563107      2.69494526     -4.36316626
 C     54.42578851      3.97773995     -4.09919144
 C     55.05271257      4.59396648     -5.36364037
 C     56.01631279      5.76125180     -5.07988061
 C     56.55244570      6.45307176     -6.34698228
 C     56.65113537      5.52597346     -7.57268579
 C     57.34998384      6.16528692     -8.78697123
 C     57.50992807      5.21607896     -9.98906195
 C     57.94218254      5.91920255    -11.28920552
 C     58.54659208      4.97206930    -12.34240431
 C     59.72512225      5.57804857    -13.12691419
 C     60.49140009      4.55997024    -13.99174642
 C     60.67828622      3.18527530    -13.32325005
 C     61.57723627      2.21954832    -14.11751714
 C     61.48918160      0.75469051    -13.65057178
 C     62.85784672      0.08674907    -13.42207663
 C     62.77178325     -1.40124347    -13.03468627
 C     64.11238731     -2.15269400    -13.13318929
 C     63.96576143     -3.66519470    -13.38307420
 C     65.30659193     -4.41245681    -13.50706172
 C     65.16659776     -5.94500896    -13.56438148
 C     66.50993175     -6.69781835    -13.54616621
 C     66.37974518     -8.20443874    -13.25505378
 C     67.69833831     -8.98665924    -13.40011667
 C     67.58194451    -10.48134068    -13.04800890
 C     66.76153477    -10.76306089    -11.77554610
 C     66.09795888    -12.15257746    -11.75294615
 C     65.10029675    -12.35154101    -10.59679573
 C     64.43157672    -13.73864896    -10.57822025
 C     63.62178958    -14.02655638     -9.30034932
 C     62.17093657    -13.51250255     -9.34907535
 C     61.33224120    -13.88592856     -8.11265185
 C     61.80914237    -13.22082992     -6.80811780
 C     60.96427372    -13.58626583     -5.57351116
 C     61.54483928    -13.07256708     -4.24285071
 C     60.63463341    -13.31961927     -3.02543932
 C     61.13576426    -12.66375689     -1.72531916
 C     60.01484589    -12.07711795     -0.84725495
 C     59.14932708    -11.02091859     -1.55923816
 C     57.84879506    -10.67018209     -0.81277960
 C     56.84897583     -9.84921093     -1.64822431
 C     55.61572855     -9.37258847     -0.85858376
 C     54.32261384     -9.31260628     -1.69276388
 C     54.43005357     -8.43325818     -2.95244781
 C     53.07123148     -7.97790821     -3.51623763
 C     52.10507680     -7.42502615     -2.45206351
 C     50.92416466     -6.62543196     -3.03317937
 C     49.88194222     -6.19579017     -1.98399858
 C     48.57991994     -5.63656074     -2.58699147
 C     47.39484266     -5.61074988     -1.60387111
 C     46.22091440     -4.72502983     -2.06102802
 C     45.15184003     -4.49340719     -0.97703958
 C     43.78356157     -4.05399100     -1.53050817
 C     42.60208939     -4.35117260     -0.58848557
 C     41.25237122     -3.79859847     -1.08297794
 C     40.04667798     -4.23442351     -0.22977202
 C     38.68363095     -3.81570540     -0.81147466
 C     37.50087278     -4.02250146      0.15284816
 C     36.18654795     -3.37383432     -0.31978402
 C     35.13817295     -3.19897908      0.79463758
 C     33.68969432     -3.09732730      0.28163020
 C     32.62896263     -3.08851439      1.39803990
 C     31.18287159     -3.23536974      0.88926274
 C     30.13002479     -3.31923586      2.01001253
 C     28.69132011     -3.53128918      1.50329543
 C     27.61499810     -3.38702630      2.59522910
 C     26.18568006     -3.69248382      2.11010472
 C     25.08693912     -3.31397771      3.12060037
 C     23.65754282     -3.40370313      2.55458309
 C     22.56784442     -3.57439550      3.62930237
 C     21.17608049     -3.91067300      3.06228331
 C     20.03281395     -3.77128638      4.08459099
 C     18.63114778     -4.01062939      3.49328153
 C     17.54385434     -4.28260924      4.54941597
 C     16.11478571     -4.33537013      3.97794495
 C     15.01289803     -4.40270501      5.05168120
 C     13.60161016     -4.08846847      4.52147184
 C     12.52892645     -3.98081884      5.62118145
 C     11.20128545     -3.36415628      5.14295906
 C     10.08924943     -3.36787907      6.20830502
 C      8.90435194     -2.44054750      5.88016768
 C      7.72521104     -2.55898807      6.86363022
 C      6.42109033     -1.91421559      6.35851872
 C      5.23034410     -2.07150274      7.32235697
 C      3.88078156     -1.62708359      6.72841036
 C      3.85387216     -0.15904631      6.26392952
 C      2.45182813      0.47780054      6.28120999
 C      2.44884385      1.99332630      6.00776394
 C      1.06226307      2.65060026      6.13808926
 C      1.05860800      4.16544859      5.86092290
 C     -0.33319796      4.81705553      5.96034409
 C     -0.29855821      6.35063027      6.09653725
 C     -1.65073432      6.97545531      6.48745087
 C     -2.71802982      6.90262093      5.37967135
 C     -3.93865571      7.80888818      5.62533799
 C     -4.90013588      7.90337204      4.42607627
 C     -6.31103385      8.40039564      4.79204685
 C     -7.27139914      8.49848862      3.59218174
 C     -8.66756909      9.04091049      3.95007556
 C     -9.67680085      8.98824931      2.78806091
 C    -11.13457829      9.24603618      3.21236134
 C    -12.00729238      9.87064703      2.10790156
 C    -13.27354364     10.57296711      2.63226237
 C    -14.17068261     11.15592665      1.52460727
 C    -15.60075986     11.49024279      1.98797732
 C    -16.45907525     12.18858301      0.91689579
 C    -17.94878167     11.80028719      0.95691025
 C    -18.83470890     12.61602375     -0.00293703
 C    -20.22965713     12.00726689     -0.23774441
 C    -21.17548553     12.90571264     -1.05615988
 C    -22.49915480     12.22536984     -1.45192920
 C    -23.35885451     13.04858619     -2.42908387
 C    -24.55150355     12.27376880     -3.01971597
 C    -25.59395158     13.16618871     -3.71863572
 C    -26.61019789     12.38879387     -4.57566588
 C    -27.61959796     13.28488591     -5.31710404
 C    -28.35392569     12.57866181     -6.47192450
 C    -29.60275225     13.32851138     -6.97168226
 C    -30.43706876     12.54083653     -7.99885523
 C    -31.83990864     13.12569983     -8.24699870
 C    -32.64669599     12.38154027     -9.32723976
 C    -33.89862105     13.13917199     -9.80711247
 C    -34.56241637     12.52575286    -11.05398566
 C    -35.85555559     13.23926392    -11.49021141
 C    -36.53488507     12.60824817    -12.71981728
 C    -37.34020107     13.60681024    -13.57183836
 C    -38.13705692     12.95360507    -14.71636611
 C    -39.01019965     13.93988758    -15.51415591
 C    -39.50705326     13.38707535    -16.86290909
 C    -40.35578419     14.38378998    -17.67396751
 C    -40.96338421     13.78926769    -18.95808802
 C    -42.09148532     14.64069429    -19.56969297
 C    -42.58290581     14.13822362    -20.93995905
 C    -43.57592516     15.08752803    -21.63589993
 C    -43.86409593     14.72541605    -23.10472004
 C    -44.94606266     15.60017336    -23.76483188
 C    -45.04674278     15.42619246    -25.29165674
 C    -45.65976042     16.63616346    -26.02088890
 C    -45.62777294     16.52411720    -27.55647427
 C    -45.88324225     17.85546963    -28.28711518
 C    -46.37827899     17.68990191    -29.73595126
 C    -46.30113033     18.97870387    -30.57537820
 C    -47.10750913     18.92170245    -31.88614289
 C    -47.04921806     20.21874266    -32.71432696
 C    -47.52876911     20.05541082    -34.16861493
 C    -47.46170835     21.35032854    -34.99945243
 C    -47.70744551     21.14177634    -36.50534725
 C    -47.67983801     22.44179137    -37.33045256
 C    -48.17339924     22.27452123    -38.77959645
 C    -48.43071463     23.60500188    -39.51117694
 C    -48.59628821     23.45990386    -41.03535933
 C    -48.73790487     24.80020061    -41.78044277
 C    -48.98686950     24.65274582    -43.29301465
 C    -48.74834201     25.94500808    -44.09598594
 C    -49.05158931     25.81286540    -45.60004026
 C    -48.61064095     27.02801224    -46.43704844
 C    -48.71880502     26.81332272    -47.95816939
 C    -48.40000443     28.06813077    -48.79208962
 C    -48.83883862     27.96952886    -50.26494475
 C    -48.45242894     29.19282791    -51.11689956
 C    -48.78889331     29.04604328    -52.61250847
 C    -48.30868784     30.22358218    -53.48107328
 C    -49.19783507     30.50070645    -54.70753949
 C    -48.84464272     31.79899512    -55.45674018
 C    -49.47123546     31.90286542    -56.85966302
 C    -49.28193784     33.27628464    -57.53010023
 C    -49.80123109     33.34323530    -58.97835854
 C    -49.89088539     34.77190462    -59.54621952
 C    -50.55065342     34.85354798    -60.93533453
 C    -51.00429514     36.27103804    -61.33097467
 C    -51.79441694     36.33010503    -62.65151193
 C    -51.69517616     37.68280802    -63.38085813
 C    -52.61656581     37.80126203    -64.60911289
 C    -52.45250072     39.11809261    -65.39054739
 C    -53.05564127     39.08513201    -66.80714016
 C    -53.12709915     40.46373989    -67.48973380
 C    -53.35083077     40.39813187    -69.01198205
 C    -53.87414962     41.71022271    -69.62529682
 C    -55.40207942     41.74777255    -69.81403081
 C    -55.96717584     43.15734053    -70.06973406
 C    -57.49856940     43.19924168    -70.22682666
 C    -58.03987405     44.55029189    -70.73006875
 C    -59.51659523     44.51054385    -71.16517180
 C    -59.94853190     45.71224017    -72.02596020
 C    -61.31571324     45.53241520    -72.71158267
 C    -61.67104478     46.65481935    -73.70433058
 C    -63.18004789     46.94383225    -73.80912148
 C    -63.51718242     48.25516698    -74.54283909
 C    -64.98966774     48.68627956    -74.41044222
 C    -65.40866899     49.79472271    -75.39400297
 C    -66.76654358     50.44286521    -75.06584464
 C    -67.28195811     51.40250132    -76.15444300
 C    -68.46292710     52.28293238    -75.70527331
 C    -69.18608436     52.99839217    -76.86145706
 C    -70.16839677     54.09272212    -76.40417784
 C    -70.53422875     55.10574738    -77.50488071
 C    -71.47607349     56.22948520    -77.03398605
 C    -71.56222022     57.42227119    -78.00426453
 C    -72.84088533     58.26610643    -77.84755586
 C    -72.90426010     59.48709891    -78.78391103
 C    -74.29330602     60.14785031    -78.85847000
 C    -74.35112820     61.38251733    -79.77708522
 C    -75.76506825     61.96693238    -79.95267729
 C    -75.79452885     63.33251230    -80.66396032
 C    -77.15823632     63.68524159    -81.28644242
 C    -77.20682089     65.07886306    -81.93993972
 C    -78.28234076     65.22100289    -83.03294168
 C    -78.76725525     66.66640589    -83.25035402
 C    -79.96042618     66.78818174    -84.21633217
 C    -80.11922804     68.18612511    -84.84254004
 C    -81.27213914     68.29022051    -85.85819754
 C    -81.67457107     69.73618314    -86.20293020
 C    -82.76876842     69.84163151    -87.28145364
 C    -83.39081116     71.24475549    -87.40757234
 C    -84.56583468     71.32210902    -88.40001184
 C    -85.29407970     72.67903325    -88.40399063
 C    -86.22227972     72.88821342    -89.61489458
 C    -87.20233794     74.06554737    -89.45687349
 C    -88.05560094     74.34258573    -90.70858912
 C    -88.38527620     75.83123406    -90.92501546
 C    -89.14744049     76.12047661    -92.23155452
 C    -89.02533555     77.57625120    -92.71880264
 C    -89.00263177     77.72395504    -94.25153488
 C    -88.28312469     78.99178254    -94.74804568
 C    -88.40504034     79.22775086    -96.26496872
 C    -87.80304759     80.56267789    -96.74159704
 C    -87.59243763     80.64644035    -98.26482627
 C    -87.34096401     82.07401264    -98.78482470
 C    -87.41084222     82.20364639   -100.31776701
 C    -87.14721010     83.62874469   -100.83852890
 C    -87.67887688     83.88413829   -102.26109859
 C    -87.13852119     85.17202488   -102.90991587
 C    -87.57135443     85.36439963   -104.37526476
 C    -86.97780779     86.61808038   -105.04428415
 C    -87.50285239     86.87585861   -106.46888183
 C    -86.85148080     88.08386475   -107.16747772
 C    -87.15720353     88.17599770   -108.67401186
 C    -86.39130487     89.29681172   -109.40118114
 C    -86.47057748     89.21521950   -110.93697363
 C    -85.43479098     90.09190243   -111.66510367
 C    -85.60337683     90.12024283   -113.19558582
 C    -84.57134051     91.00175242   -113.92321339
 C    -84.67894819     90.95455140   -115.45872394
 C    -83.63394365     91.82029175   -116.18677557
 C    -82.20914914     91.23643242   -116.16091268
 C    -81.25626909     91.86378958   -117.19534131
 C    -79.77110817     91.52965977   -116.96241575
 C    -79.01786129     92.57703413   -116.12144839
 C    -77.66048108     92.08884475   -115.58219885
 C    -76.81355595     93.19419944   -114.92454480
 C    -75.54313159     92.67695840   -114.22448506
 C    -74.70955461     93.77919612   -113.54491062
 C    -73.38567293     93.27883707   -112.93780427
 C    -72.33440333     94.38481615   -112.72985603
 C    -71.02382793     93.89086155   -112.08954283
 C    -69.79454464     94.75173395   -112.43502988
 C    -68.47679485     94.23356560   -111.82952428
 C    -67.21471509     94.88161923   -112.42850774
 C    -65.91737724     94.54421840   -111.67043440
 C    -64.64869289     94.60723810   -112.54110572
 C    -63.35785510     94.21944926   -111.79615095
 C    -63.23976565     92.71500800   -111.48904939
 C    -62.02223349     92.34658929   -110.62101534
 C    -62.08683517     90.93002722   -110.02036693
 C    -61.09921204     90.69504823   -108.86235767
 C    -61.17310540     89.28269622   -108.25293044
 C    -59.96910399     88.92042037   -107.36369661
 C    -59.90723463     87.43326076   -106.96856564
 C    -58.88901679     87.12266063   -105.85574940
 C    -58.66934756     85.61838501   -105.60978132
 C    -57.73161689     85.30722739   -104.42849298
 C    -57.82411101     83.85631083   -103.92066823
 C    -56.85505362     83.53304540   -102.76826759
 C    -56.86175185     82.05364056   -102.34058026
 C    -55.84199220     81.71600620   -101.23708885
 C    -56.11034591     80.37741536   -100.52451544
 C    -54.96519941     79.91768508    -99.60316449
 C    -55.36364039     78.80447839    -98.61644485
 C    -54.18875099     78.25097643    -97.78887582
 C    -54.61959701     77.47921668    -96.52778161
 C    -53.44560461     77.01560433    -95.64550874
 C    -53.87221419     76.47886503    -94.26655435
 C    -52.70551349     75.94913887    -93.41227122
 C    -53.10795179     75.55184416    -91.97986055
 C    -52.05845297     74.69335367    -91.24969187
 C    -52.35898049     74.47325650    -89.75542267
 C    -51.53773626     73.34076048    -89.11151998
 C    -51.85024271     73.10962905    -87.62137973
 C    -51.08503101     71.92810830    -86.99683205
 C    -51.12988510     71.89615690    -85.45781704
 C    -50.03681931     71.02058566    -84.81736237
 C    -50.12040551     70.93770604    -83.28186755
 C    -49.25537786     69.82190571    -82.66679293
 C    -49.51119274     69.58603534    -81.16661830
 C    -48.87365883     68.29613188    -80.61771068
 C    -49.49518371     67.80275495    -79.29790538
 C    -48.86400965     66.50764033    -78.75394082
 C    -49.44610122     66.04567419    -77.40510551
 C    -48.97181406     64.64857796    -76.96377363
 C    -49.37563710     64.27545778    -75.52526458
 C    -48.66186040     63.02513096    -74.97863339
 C    -49.41386237     62.32616896    -73.83078969
 C    -48.57655970     61.27097129    -73.08441035
 C    -49.01126098     61.04452938    -71.62449294
 C    -48.04446103     60.16256165    -70.81268582
 C    -48.63104027     59.64787768    -69.48504687
 C    -47.67716785     58.73684872    -68.69021754
 C    -48.04563176     58.59052706    -67.20212335
 C    -47.12487678     57.63565049    -66.41980562
 C    -47.22056369     57.78637680    -64.89018946
 C    -46.20021325     56.93509974    -64.11184998
 C    -46.19768655     57.19313250    -62.59362315
 C    -45.18336744     56.33564513    -61.81421815
 C    -45.23869020     56.53262917    -60.28787066
 C    -44.22832372     55.67085839    -59.50805612
 C    -44.46472670     55.65126116    -57.98643541
 C    -43.48627610     54.74868330    -57.21210497
 C    -43.81766299     54.60503505    -55.71505858
 C    -43.04463495     53.47634077    -55.00789745
 C    -43.15393334     53.50905832    -53.47212942
 C    -42.48080755     52.31470926    -52.77067950
 C    -42.23076154     52.53132036    -51.26663275
 C    -41.31133961     51.47497800    -50.62600484
 C    -40.74960251     51.88417367    -49.25173764
 C    -39.84339985     50.82097224    -48.60366397
 C    -39.12701578     51.30183786    -47.32806132
 C    -38.27903819     50.21661441    -46.63898653
 C    -37.52867560     50.70875245    -45.38744502
 C    -36.99057993     49.57583641    -44.49382637
 C    -36.16845379     50.06635476    -43.28755096
 C    -35.90946527     48.98318634    -42.22393866
 C    -35.16248664     49.49457997    -40.97810581
 C    -34.96076143     48.42709768    -39.88659835
 C    -33.87541445     48.78428949    -38.85410819
 C    -33.61084180     47.67851929    -37.81541980
 C    -32.47019477     48.00219966    -36.83269126
 C    -32.02006229     46.80251271    -35.97844776
 C    -30.80821109     47.09658369    -35.07482233
 C    -30.37598973     45.90561294    -34.19939479
 C    -29.26421334     46.24231467    -33.18836304
 C    -29.12903082     45.22174032    -32.04304487
 C    -27.93767277     45.48795327    -31.10421759
 C    -27.97938168     44.67903323    -29.79444329
 C    -26.74038934     44.87068774    -28.90014661
 C    -26.76466240     44.03273699    -27.60830708
 C    -25.44084138     44.05573488    -26.82181551
 C    -25.36650136     43.01406457    -25.69000433
 C    -24.10055545     43.12370446    -24.81996982
 C    -24.13658019     42.25440333    -23.54929371
 C    -22.85174557     42.32785932    -22.70347799
 C    -22.40360425     40.97237192    -22.12604984
 C    -21.19723200     41.06541297    -21.17336450
 C    -20.35180185     39.77999819    -21.10586111
 C    -19.37523031     39.73435348    -19.91597683
 C    -18.45589471     38.49890002    -19.90721319
 C    -17.72047951     38.27482906    -18.57283817
 C    -16.89135189     36.97797630    -18.52466842
 C    -16.19843665     36.72739879    -17.17238170
 C    -15.34562285     35.44568108    -17.13354429
 C    -14.57956486     35.24280581    -15.81309104
 C    -13.50152599     34.14490365    -15.87667593
 C    -12.82791323     33.84937291    -14.52371346
 C    -11.82184431     32.68420182    -14.56615966
 C    -11.16747922     32.37184566    -13.20754273
 C    -10.35057840     31.06647098    -13.19111174
 C     -9.66636424     30.77266077    -11.84310338
 C     -9.14502900     29.33003571    -11.70656587
 C     -8.21447691     29.11195074    -10.49904289
 C     -7.61763664     27.69473423    -10.41610282
 C     -6.79853484     27.43382239     -9.13837153
 C     -6.22679252     26.00718963     -9.04126497
 C     -5.58351425     25.68146640     -7.68049407
 C     -4.62688475     24.47505527     -7.71262180
 C     -4.10295664     24.05403200     -6.32703934
 C     -3.12257358     22.86693173     -6.36228117
 C     -2.52431700     22.50767267     -4.98946582
 C     -1.90138543     21.10069417     -4.92647560
 C     -1.33096084     20.72949965     -3.54501607
 C     -0.59836811     19.37528731     -3.51312840
 C     -0.42787915     18.78849464     -2.09954859
 C      0.28476501     17.42363351     -2.06967540
 C      0.58584134     16.90513274     -0.65118677
 C      1.54390038     15.69997074     -0.61502835
 C      1.64453562     15.02092819      0.76351209
 C      2.07197796     13.54264005      0.70386953
 C      1.92423155     12.79344109      2.04120715
 C      2.40723475     11.33181294      1.99703604
 C      2.57055472     10.68389201      3.38452480
 C      3.06615604      9.22647284      3.34083626
 C      3.34277483      8.61709459      4.72782588
 C      4.09374299      7.27334948      4.68315048
 C      4.33756970      6.64571122      6.06814822
 C      5.03806376      5.27508837      6.02017854
 C      5.12235639      4.56662412      7.38493976
 C      5.89277440      3.23358930      7.35216373
 C      6.35348711      2.74217998      8.73703220
 C      7.21662560      1.46752280      8.69412511
 C      7.97197032      1.17812925     10.00458523
 C      8.55844100     -0.24333907     10.08872769
 C      9.23171627     -0.56441230     11.43602587
 C     10.00746431     -1.89470838     11.44730933
 C     11.52773277     -1.73487734     11.26066031
 C     12.28504076     -3.06830725     11.11906481
 C     13.79999977     -2.95825696     11.37281298
 C     14.64996495     -3.91274303     10.51367647
 C     16.11507882     -4.03196997     10.97283471
 C     16.88010300     -5.20294995     10.32851810
 C     17.76155191     -4.79354527      9.13393214
 C     18.61620429     -5.94080635      8.56387834
 C     19.83867345     -5.46894009      7.75485955
 C     20.82343996     -6.59628821      7.39302931
 C     21.96777337     -6.15362936      6.46235526
 C     23.19155572     -7.08818401      6.48611170
 C     24.17503386     -6.86207535      5.32282084
 C     25.45143736     -7.71967169      5.40602305
 C     26.49775472     -7.39209534      4.32458246
 C     27.88084961     -8.01895079      4.58090404
 C     29.05241057     -7.21651349      3.98496839
 C     30.41898027     -7.54037168      4.61679362
 C     31.62071678     -6.99075781      3.82600039
 C     32.98716125     -7.31212548      4.45936627
 C     34.17665164     -6.62187829      3.76635008
 C     35.46999670     -6.61388892      4.60228950
 C     36.72997916     -6.23252411      3.80316180
 C     38.05132903     -6.58601260      4.51074954
 C     39.30575479     -6.35093720      3.64891686
 C     40.59376259     -6.13181627      4.46416034
 C     41.82948192     -5.80191398      3.60639451
 C     43.00811618     -5.21536906      4.40538533
 C     44.21019100     -4.80206140      3.53602183
 C     45.33381462     -4.09482049      4.31632964
 C     46.45629850     -3.53116551      3.42530607
 C     47.70344826     -3.07275848      4.20381779
 C     48.78546419     -2.41884636      3.32447687
 C     49.21745972     -3.27699240      2.12091332
 C     50.53173499     -2.81694372      1.46316280
 C     51.05049885     -3.76758442      0.36828093
 C     52.40803615     -3.35328186     -0.22925221
 C     52.72420056     -4.01442884     -1.58369849
 C     54.11985788     -3.67194753     -2.13727522
 C     54.40239256     -4.26093100     -3.53186213
 C     53.26556312     -4.04034005     -4.54702638
 C     53.20945034     -2.61377795     -5.12441008
 C     51.90192957     -2.29137471     -5.87143456
 C     50.64067760     -2.37654466     -4.99189516
 C     49.34546680     -1.95748477     -5.71190752
 C     48.07956829     -2.07499449     -4.84283191
 C     46.76500992     -2.05321623     -5.64474337
 C     45.50589167     -1.86409745     -4.77845512
 C     44.18386303     -2.05743143     -5.54426335
 C     42.95614275     -2.25230138     -4.63523716
 C     41.64256578     -2.49748142     -5.40074502
 H     -0.36333333      0.00000000      1.02766186
 H     -0.36333333     -0.88998127     -0.51383093
 H     -0.36333333      0.88998127     -0.51383093
 H      1.88274777      0.45240313      0.93056723
 H      1.88274777      0.78657973      0.67224720
 H      3.23200478      0.49042529      1.22962026
 H      3.21631762      0.56147465      1.22068364
 H      4.05792242      1.24311360      1.78238581
 H      4.04682795      0.31735814      2.41093504
 H      5.16097647      0.01250932      2.93121226
 H      5.41544673      0.73694359      2.59997167
 H      6.14605716      0.20803625      3.77228866
 H      6.14447131      0.19031366      3.76668460
 H      7.11446671      0.48082766      4.51944747
 H      7.60608372      1.20660506      3.84031672
 H      8.49716483      1.82219210      4.59298213
 H      8.27095962      0.76971702      5.15021060
 H      9.17615985      1.11618317      5.91899696
 H      9.76463750      1.45502122      5.28372970
 H     10.76467724      2.18202826      5.78194378
 H     10.19884606      1.14680353      6.62344206
 H     10.90685286      1.04857766      7.54099856
 H     11.75969301      2.09181183      6.73931207
 H     11.83384235      0.48129745      8.03791774
 H     12.15020528      0.29883719      6.81924592
 H     12.99683383     -0.64103817      7.06031714
 H     12.93454840     -0.64791232      6.92072137
 H     14.09186056     -0.85336195      7.29089247
 H     13.95825079     -0.06019192      8.30656447
 H     15.20633696      0.08462070      8.18007329
 H     15.41447690     -1.02952100      7.74426863
 H     15.76641428     -1.85226617      8.45514675
 H     16.70817398     -0.21152488      7.81184058
 H     17.88489507     -0.06594398      8.09886661
 H     17.73160543     -1.49010204      7.35572815
 H     18.23808908     -2.02604529      8.56876193
 H     19.23399833     -0.30193034      8.01265161
 H     19.74393623      0.12325509      6.90769584
 H     19.77426598     -1.62724049      6.58658525
 H     20.76675861     -2.34117069      8.54915468
 H     21.25169386     -0.66208735      8.88647292
 H     22.32111620     -0.42254278      6.69958114
 H     23.01820767     -2.00899834      7.72022065
 H     23.87664564     -2.74624385      7.64167568
 H     23.84156635     -0.94292615      8.65266357
 H     24.78359942     -1.53933960      6.26245042
 H     24.47572239     -3.22964183      6.72759211
 H     25.27494643     -3.79339819      8.46333528
 H     26.37662208     -2.39546389      8.44443751
 H     27.14006129     -2.92813602      6.16979230
 H     26.37254637     -4.52252458      6.36243861
 H     28.12241645     -4.19860349      8.52971618
 H     28.68215595     -2.81895705      7.55425010
 H     29.20636084     -3.39511846      5.64712166
 H     29.28854993     -5.09830388      6.15768119
 H     30.89019637     -3.74240491      7.96501151
 H     30.70062686     -2.41445219      6.79502364
 H     31.23079636     -2.97081312      4.89493201
 H     32.09832753     -4.39147896      5.52530090
 H     33.41098756     -3.37477177      7.11385651
 H     33.04461430     -1.79630921      6.37731508
 H     33.54717973     -2.10512926      4.22901057
 H     34.44144107     -3.58433330      4.65388551
 H     35.81661305     -2.78807301      6.29100618
 H     35.43860101     -1.12603612      5.77816414
 H     35.63947510     -0.75398172      3.84134556
 H     36.51820172     -2.18877718      3.56419856
 H     37.44362343     -3.22890351      3.92261965
 H     38.34056548     -1.96072343      4.79180369
 H     38.44911337     -0.36012035      3.14771165
 H     37.97424291     -1.58747645      1.94922856
 H     39.94993712     -2.96416716      2.88931607
 H     40.45276440     -1.45905501      3.69558452
 H     40.56985785      0.05087540      2.14392905
 H     40.55722641     -1.21790952      0.89561341
 H     42.37654982     -2.45334646      1.88883374
 H     42.72127292     -1.02746398      2.89694674
 H     42.83985445      0.37605269      0.82436401
 H     42.90353812     -1.14693572     -0.09472107
 H     44.66881317     -2.16914739      0.96102668
 H     45.10795103     -0.60817653      1.69505297
 H     45.16371839      0.59566639     -0.36804383
 H     45.16054405     -0.96494043     -1.22405956
 H     46.87143787     -2.05039719     -0.26051546
 H     47.54694411     -0.10641362     -0.34646199
 H     47.54154716      0.82132496     -1.37223446
 H     47.42499325     -0.60570241     -2.42971956
 H     49.68866641     -0.71211174     -2.20263692
 H     49.55803039      0.20906807     -0.41189844
 H     49.68306624      1.35778167     -2.38051624
 H     50.82680815     -0.33138059     -2.70616312
 H     51.78028876     -0.95765287     -2.00317274
 H     51.97539984      0.64696390     -1.25791886
 H     52.08069234      1.63507050     -3.57969744
 H     52.29362934     -0.02744488     -4.17181026
 H     53.93521255      2.13470559     -3.72570773
 H     52.25915432      2.77462882     -3.16523718
 H     52.89460991      2.55299869     -5.16820020
 H     54.55178031      2.20050096     -4.62249123
 H     55.08832291      3.79661514     -3.25282155
 H     54.44967335      4.56325400     -5.01826859
 H     54.30455937      4.58521072     -6.15628791
 H     55.90262721      3.97893779     -5.65941872
 H     56.65808421      5.48063263     -4.24472654
 H     55.42498964      6.63502256     -4.80608948
 H     55.72041474      6.59923107     -7.03579426
 H     56.22625246      5.87962909     -7.21465819
 H     56.38279869      6.10033820     -8.45936531
 H     57.50467713      4.86263665     -7.43286191
 H     58.24036426      6.68624516     -8.43494110
 H     56.66439023      6.88216389     -9.23879952
 H     56.57094601      4.68090976    -10.13050673
 H     58.30302417      4.50414918     -9.76046939
 H     58.74067580      6.62151380    -11.04989938
 H     57.08539766      6.46436074    -11.68521338
 H     57.92493531      4.07836788    -12.39663198
 H     59.55084277      4.69708825    -12.01996677
 H     60.38259727      6.08487720    -12.42054931
 H     59.32743400      6.30273416    -13.83738927
 H     59.76444408      3.93625413    -14.51195136
 H     59.97853482      3.60035754    -13.92684131
 H     59.73283181      2.89586934    -12.86449069
 H     61.44240629      3.28035323    -12.55177049
 H     62.45119805      2.77128100    -14.46375674
 H     61.01387583      1.85506574    -14.97651508
 H     60.43901693      0.50653116    -13.49671759
 H     62.02627045      0.66300570    -12.70652228
 H     63.49404214      0.78582059    -12.87925586
 H     63.30102604     -0.12802493    -14.39447790
 H     62.04127540     -1.88293019    -13.68463718
 H     62.43644585     -1.46710818    -11.99964488
 H     64.88896853     -1.52741710    -12.69267776
 H     64.33490699     -2.31998841    -14.18703822
 H     63.20940955     -3.81351577    -14.15380937
 H     63.63714807     -4.13543915    -12.45626061
 H     65.96933401     -4.06083441    -12.71634393
 H     65.74209959     -4.17627444    -14.47796386
 H     64.35095582     -6.18946445    -14.24487375
 H     64.92546842     -6.30480683    -12.56413045
 H     67.14629292     -6.24502919    -12.78581994
 H     66.97792897     -6.58752953    -14.52438653
 H     65.55220841     -8.59739926    -13.84570167
 H     66.16156744     -8.33103253    -12.19464231
 H     68.49139135     -8.41370183    -12.91960997
 H     67.91899434     -9.09250461    -14.46228788
 H     66.67314477    -10.87162772    -13.50611266
 H     66.75349387    -10.60568832    -12.35065159
 H     65.86299064    -10.14667500    -11.80359755
 H     67.36473205    -10.48689195    -10.91068556
 H     66.82784458    -12.88656248    -12.09446166
 H     65.24951778    -12.13839125    -12.43708536
 H     64.47923749    -11.45886326    -10.52255401
 H     65.66610953    -12.47829845     -9.67381770
 H     65.19849353    -14.49135025    -10.76092050
 H     63.69115385    -13.77292260    -11.37740688
 H     62.61094210    -13.64405077     -9.44168874
 H     64.32158328    -14.22438881     -8.48840653
 H     61.74905276    -13.76853785    -10.32096010
 H     62.18727575    -12.42869617     -9.23419814
 H     62.01280823    -14.16780617     -7.30923817
 H     61.08211569    -14.94499206     -8.17527554
 H     62.02154671    -12.17209834     -7.01583508
 H     62.72255779    -13.71913734     -6.48336869
 H     60.77769154    -14.66002737     -5.59149008
 H     60.01644781    -13.05168639     -5.63636706
 H     61.86882250    -12.04165430     -4.38551711
 H     62.40401832    -13.69069623     -3.98241314
 H     60.25027555    -14.33781279     -3.08586273
 H     59.80445503    -12.61466363     -3.06950071
 H     61.45972299    -11.64893146     -1.95614396
 H     61.98344070    -13.24041302     -1.35516736
 H     59.19952372    -12.79928063     -0.80446682
 H     59.09999163    -12.04019579     -1.43867565
 H     58.91229928    -11.38844307     -2.55765871
 H     59.72793900    -10.10059734     -1.63871806
 H     58.08285738    -10.54809381      0.24476911
 H     57.14883024    -11.49645699     -0.93695304
 H     56.79440503    -10.28702242     -2.64494048
 H     57.22054541     -8.82703103     -1.72022638
 H     55.95260101     -8.98910073      0.10451234
 H     54.95901907    -10.22788529     -0.69952398
 H     54.25842148    -10.22127337     -2.29134842
 H     54.57058745     -8.92867248     -2.68231121
 H     55.37684907     -8.65447248     -3.44513687
 H     54.41695046     -7.38817580     -2.64304334
 H     52.28306614     -8.39274116     -2.88789932
 H     52.60189265     -8.82939004     -4.00898477
 H     52.66392372     -6.75885216     -1.79479467
 H     51.71574601     -8.26315872     -1.87408830
 H     50.52573202     -7.17401714     -3.88664626
 H     51.29685626     -5.65665150     -3.36584344
 H     50.41153753     -5.81327716     -1.11146629
 H     49.29978240     -7.07251237     -1.70018855
 H     48.27756414     -6.28409902     -3.41001951
 H     48.78089615     -4.63511774     -2.96754433
 H     47.75116926     -5.22801410     -0.64750054
 H     47.03400535     -6.63120410     -1.47514806
 H     46.03736339     -4.91792232     -3.11800556
 H     46.50603130     -3.68164692     -1.92626725
 H     45.65849921     -4.27047704     -0.03805150
 H     44.57053591     -5.40896571     -0.86777799
 H     43.54693374     -4.67648402     -2.39341588
 H     43.85882128     -3.01259504     -1.84344653
 H     42.88942249     -4.06368563      0.42289513
 H     42.40076525     -5.42199883     -0.61848184
 H     41.16004865     -4.02033477     -2.14618514
 H     41.24939666     -2.71863078     -0.93546208
 H     40.31583822     -4.13209213      0.82150389
 H     39.83133598     -5.28008936     -0.44956912
 H     38.68829069     -4.02581314     -1.88102270
 H     38.55733793     -2.74483981     -0.65211044
 H     37.79624797     -3.66478596      1.13920161
 H     37.28247295     -5.08919116      0.20358859
 H     36.05889015     -3.59141110     -1.38019141
 H     36.26547312     -2.29612076     -0.17694036
 H     35.64080401     -2.80972189      1.68004193
 H     34.71080771     -4.17615337      1.01955835
 H     33.54117047     -3.86315020     -0.47965553
 H     33.55187511     -2.11164560     -0.16282163
 H     32.96732738     -2.41686154      2.18702136
 H     32.54064333     -4.09985002      1.79490253
 H     31.16285318     -4.02301267      0.13605767
 H     30.88156402     -2.29114192      0.43566870
 H     30.36202428     -2.55893408      2.75581240
 H     30.19318984     -4.30707540      2.46639309
 H     28.71065565     -4.29590503      0.72670754
 H     28.33519064     -2.59219262      1.07977513
 H     27.84915301     -2.50618769      3.19305418
 H     27.64713033     -4.27431260      3.22751903
 H     26.21592319     -4.59685019      1.50239851
 H     25.84469497     -2.85603121      1.50004228
 H     25.31751778     -2.32813531      3.52439270
 H     25.09504434     -4.04772719      3.92660658
 H     23.57034883     -4.33159871      1.98933359
 H     23.49900120     -2.55595379      1.88803556
 H     22.77971670     -2.88318229      4.44504401
 H     22.60997854     -4.59836715      4.00052572
 H     21.29471150     -4.67306376      2.29235669
 H     20.75964490     -3.00686080      2.61753066
 H     20.17757434     -2.84233925      4.63613579
 H     20.08419239     -4.61454758      4.77333681
 H     18.67487694     -4.89227469      2.85383698
 H     18.35842639     -3.14115579      2.89516892
 H     17.66858010     -3.56681554      5.36193235
 H     17.68262956     -5.29392424      4.93162455
 H     16.13342121     -4.92638240      3.06227185
 H     15.80015210     -3.31760971      3.74714324
 H     15.25195366     -3.68209665      5.83377838
 H     15.00624565     -5.40779297      5.47340852
 H     13.46452833     -4.61656564      3.57785012
 H     13.53109769     -3.01431106      4.35025897
 H     12.93750139     -3.39137734      6.44198912
 H     12.29870731     -4.98577374      5.97496781
 H     10.94254247     -3.81004494      4.18257612
 H     11.34712047     -2.29122064      5.01789406
 H     10.52091751     -3.04441766      7.15547733
 H      9.71435411     -4.38642658      6.30887576
 H      8.64283108     -2.57682534      4.83081779
 H      9.21951859     -1.41024367      6.04522520
 H      8.12522573     -2.58053116      7.87734820
 H      7.20138292     -3.49288450      6.65981277
 H      6.28046618     -2.19723305      5.31533802
 H      6.52377367     -0.83145712      6.43056188
 H      5.57750898     -1.85916184      8.33353840
 H      4.87893859     -3.10185636      7.26771646
 H      3.80630654     -2.02046219      5.71460232
 H      4.04186727     -0.71212278      6.15832429
 H      4.77422991      0.04414710      5.71643152
 H      3.80776095      0.47890923      7.14653163
 H      1.96111320      0.20097308      7.21430453
 H      1.88416803      0.07971598      5.44014478
 H      3.11829537      2.19191534      5.17080691
 H      2.81855852      2.50288527      6.89757331
 H      0.58442367      2.26688318      7.03949411
 H      0.46875914      2.37441984      5.26655185
 H      1.65980475      4.35254306      4.97117118
 H      1.50747948      4.67136747      6.71570971
 H     -0.82832685      4.43341730      6.85240300
 H     -0.90698821      4.53626428      5.07715610
 H      0.42752199      6.74170838      5.38382030
 H      0.01772003      6.59766980      7.10996685
 H     -2.08757417      6.37543219      7.28572601
 H     -2.41552537      6.58528615      5.81591333
 H     -2.69407528      5.90296237      4.94584079
 H     -2.46801748      7.63705203      4.61403123
 H     -3.58093600      8.78160777      5.96290755
 H     -4.55035335      7.35593276      6.40556704
 H     -5.04816378      6.90046899      4.02561003
 H     -4.43890077      8.53375424      3.66582601
 H     -6.21065871      9.24978282      5.46774371
 H     -6.83804113      7.59254717      5.29973196
 H     -7.15937991      7.59755902      2.98895910
 H     -6.99173959      9.36957740      2.99964914
 H     -8.54289547      9.89987906      4.60941575
 H     -9.21575884      8.25760590      4.47354660
 H     -9.58691904      8.01791055      2.29973320
 H     -9.42445785      9.77663696      2.07892910
 H    -11.14749823     10.09451827      3.89647480
 H    -11.50380207      8.35885262      3.72683110
 H    -11.80480561      9.34678888      1.17373255
 H    -11.72967766     10.91954985      2.00382013
 H    -12.99901198     11.17041258      3.50162494
 H    -13.99160494      9.80843506      2.92887444
 H    -14.25779073     10.41584602      0.72912450
 H    -13.69303038     12.05452712      1.13413890
 H    -15.53933876     11.99687384      2.95112447
 H    -16.15086925     10.55631615      2.10313233
 H    -16.30890587     11.67363719     -0.03198774
 H    -16.12192835     13.22124381      0.82720946
 H    -18.27702319     11.80734911      1.99628874
 H    -18.05180668     10.79427684      0.55018059
 H    -18.32423607     12.68737909     -0.96336709
 H    -18.96391972     13.61442532      0.41491328
 H    -20.63146159     11.68978334      0.72447042
 H    -20.12008190     11.14052743     -0.88955419
 H    -20.61782860     13.31130372     -1.90032492
 H    -21.51142124     13.72202903     -0.41672674
 H    -22.88389202     11.69230929     -0.58249046
 H    -22.29327888     11.51450374     -2.25216947
 H    -22.70717675     13.44777481     -3.20629976
 H    -23.81223016     13.87176380     -1.87687997
 H    -25.03480687     11.72190807     -2.21351027
 H    -24.17080676     11.57279684     -3.76255395
 H    -25.06494248     13.89069303     -4.33778260
 H    -26.16466855     13.69100011     -2.95250575
 H    -26.94198669     11.51880668     -4.00897505
 H    -26.10987480     12.05990739     -5.48649544
 H    -27.07694289     14.12230284     -5.75569082
 H    -28.34212479     13.65982445     -4.59220676
 H    -28.66355699     11.59160930     -6.12847755
 H    -27.65955849     12.47208062     -7.30534795
 H    -29.35481338     14.38622345     -7.06040379
 H    -30.39620857     13.20186259     -6.23514499
 H    -30.53270523     11.51353775     -7.64727185
 H    -29.90691289     12.55106542     -8.95118402
 H    -31.74765920     14.20721708     -8.34655006
 H    -32.46586672     12.89218465     -7.38575126
 H    -32.53334295     11.31005651     -9.16239551
 H    -32.23735098     12.64439198    -10.30266051
 H    -33.62838329     14.18354211     -9.96319772
 H    -34.65868757     13.07298210     -9.02864104
 H    -34.60706634     11.44473002    -10.92171320
 H    -33.94535427     12.76049346    -11.92129830
 H    -35.68463804     14.31493098    -11.44746153
 H    -36.64812293     12.96928785    -10.79232177
 H    -36.53578882     11.52564950    -12.59301307
 H    -35.95409245     12.86998399    -13.60427999
 H    -36.74516694     14.51200897    -13.69287403
 H    -38.26138169     13.84589217    -13.04045705
 H    -38.62840240     12.06208956    -14.32664861
 H    -37.43737011     12.66872998    -15.50210433
 H    -38.42150041     14.83544518    -15.71292660
 H    -39.87548697     14.20163468    -14.90516797
 H    -39.85573007     12.36613058    -16.70735763
 H    -38.66984519     13.38271456    -17.56088017
 H    -39.86662240     15.35728270    -17.64031255
 H    -41.33889324     14.45487935    -17.20862581
 H    -41.37018443     12.80609847    -18.72146204
 H    -40.16884485     13.68548249    -19.69703040
 H    -41.77806520     15.68459151    -19.55759248
 H    -42.98296158     14.52183342    -18.95386655
 H    -42.69586387     13.05535894    -20.88757062
 H    -41.83010622     14.38927238    -21.68719884
 H    -43.20006575     16.10626686    -21.54102689
 H    -44.53849825     15.00688480    -21.13087546
 H    -44.01691829     13.64806827    -23.16849374
 H    -42.99720961     15.00547495    -23.70319738
 H    -44.75821074     16.63944153    -23.49514070
 H    -45.91777990     15.29416603    -23.37724301
 H    -45.00553738     14.36089513    -25.51868915
 H    -44.19540079     15.92872383    -25.75076351
 H    -45.21551827     17.54376539    -25.61222319
 H    -46.73356582     16.64114717    -25.83376024
 H    -45.93865182     15.51669934    -27.83317552
 H    -44.60435303     16.69336503    -27.89123816
 H    -45.30198733     18.63433603    -27.79354671
 H    -46.94482320     18.09046494    -28.21015349
 H    -47.14409801     16.91438630    -29.74997815
 H    -45.53510340     17.37909772    -30.35284321
 H    -45.33746277     19.45244547    -30.38825865
 H    -47.10192969     19.64503975    -30.25472751
 H    -48.07986873     18.47843443    -31.67136330
 H    -46.56864994     18.29064545    -32.59289450
 H    -46.01639756     20.56657305    -32.73422272
 H    -47.67483229     20.96575583    -32.22577997
 H    -48.44343740     19.46257492    -34.16337006
 H    -46.75625399     19.52661368    -34.72691054
 H    -46.50637297     21.83603232    -34.80064053
 H    -48.27445662     22.00365140    -34.68210485
 H    -48.55861225     20.47132073    -36.62410938
 H    -46.81895801     20.68096952    -36.93702659
 H    -46.82773104     23.03748522    -37.00309563
 H    -48.60198457     22.98993925    -37.13737325
 H    -49.07816973     21.66682672    -38.76553489
 H    -47.39886199     21.75988605    -39.34822874
 H    -47.59908656     24.27775959    -39.30167320
 H    -49.35358675     24.03640987    -39.12349900
 H    -49.24539836     22.60613573    -41.22987411
 H    -47.61409949     23.27624650    -41.47087660
 H    -47.99476972     25.49250317    -41.38475690
 H    -49.73706045     25.19308458    -41.59221334
 H    -49.73429221     23.87366801    -43.44300487
 H    -48.05152785     24.35497900    -43.76690380
 H    -47.82139067     26.39959157    -43.74639323
 H    -49.57978078     26.62414425    -43.90734971
 H    -49.99352621     25.27631638    -45.71392625
 H    -48.24842561     25.23914778    -46.06250773
 H    -47.61174947     27.32195658    -46.11469374
 H    -49.30791031     27.84456512    -46.24954692
 H    -49.67484439     26.33437628    -48.16959089
 H    -47.90662879     26.15676278    -48.27025721
 H    -47.50717667     28.53691898    -48.37833100
 H    -49.24182311     28.75589716    -48.71197292
 H    -49.84236163     27.54516739    -50.29591080
 H    -48.14763847     27.30617341    -50.78485041
 H    -47.42353680     29.46402109    -50.88039327
 H    -49.11516679     30.01712931    -50.85344986
 H    -49.79139055     28.62692637    -52.69876567
 H    -48.06891545     28.36096265    -53.06016504
 H    -47.29174381     30.47763798    -53.18210756
 H    -48.96463239     31.07458782    -53.29769892
 H    -50.24027616     30.45647441    -54.39216653
 H    -49.00953826     29.72492750    -55.44970613
 H    -47.76056379     31.85308168    -55.55647742
 H    -49.19760332     32.64329959    -54.86456724
 H    -50.51247670     31.58721775    -56.79421663
 H    -48.92972032     31.23277116    -57.52737181
 H    -48.24985442     33.59237222    -57.37846763
 H    -49.95403105     33.98757789    -57.05004541
 H    -50.77635357     32.85759409    -59.01562471
 H    -49.10236737     32.80457434    -59.61830687
 H    -48.97899094     35.30528216    -59.27778532
 H    -50.74887982     35.26789533    -59.09241475
 H    -51.43835617     34.22104197    -60.93086664
 H    -49.84173161     34.47951393    -61.67400117
 H    -50.20886856     36.97007713    -61.07263207
 H    -51.90143805     36.51508849    -60.76205115
 H    -52.51758148     35.51455562    -62.65500712
 H    -51.09400433     36.19817215    -63.47620332
 H    -50.65440287     38.00619343    -63.36317105
 H    -52.30970839     38.40667762    -62.84563582
 H    -53.59665919     37.40627172    -64.34171874
 H    -52.19152079     37.20343294    -65.41536168
 H    -51.38724795     39.32309034    -65.49690754
 H    -52.92087715     39.91777773    -64.81676413
 H    -54.03640090     38.61281956    -66.75118050
 H    -52.40157695     38.48996206    -67.44437842
 H    -52.18171782     40.97929170    -67.32073533
 H    -53.93733365     41.03126354    -67.03198173
 H    -54.12621952     39.65887337    -69.21290282
 H    -52.41891717     40.08417827    -69.48216307
 H    -53.30489399     42.53759268    -69.20161421
 H    -54.92238105     41.82366215    -69.34881472
 H    -55.86873389     41.35365715    -68.91125363
 H    -55.65835520     41.11303793    -70.66228471
 H    -55.32444686     43.65813290    -70.79375510
 H    -55.95301110     43.70809689    -69.12921995
 H    -57.94012204     42.57702107    -69.44838413
 H    -57.75398335     42.79271565    -71.20539719
 H    -57.40672211     44.88922762    -71.55003289
 H    -57.98778682     45.26709306    -69.91056707
 H    -60.07933336     43.95181927    -70.41733985
 H    -59.57753637     43.99669221    -72.12451671
 H    -59.17427805     45.89624540    -72.77079109
 H    -60.04239038     46.58277303    -71.37675828
 H    -62.01193616     45.11562562    -71.98380518
 H    -61.19461947     44.83418183    -73.53977738
 H    -60.79049141     46.86774660    -74.31045577
 H    -61.94321334     47.54311840    -73.13428752
 H    -63.59535826     46.96703172    -72.80161015
 H    -63.64508152     46.13681865    -74.37531295
 H    -62.89538374     48.31786339    -75.43588756
 H    -63.28538675     49.08843377    -73.87948606
 H    -65.29160406     48.56004850    -73.37073064
 H    -65.59467521     48.03925581    -75.04560064
 H    -65.00740004     49.54994982    -76.37745071
 H    -64.98081987     50.73681583    -75.05121195
 H    -66.80473890     50.63426681    -73.99346106
 H    -67.55563390     49.74194715    -75.33815023
 H    -67.13315428     50.93067608    -77.12569907
 H    -66.69933630     52.32235772    -76.10428298
 H    -68.24360244     52.66872960    -74.70970453
 H    -69.35772708     51.66178006    -75.66523870
 H    -69.32744158     52.28344235    -77.67199077
 H    -68.55501778     53.81777027    -77.20565830
 H    -69.68532974     54.68343944    -75.62584674
 H    -71.05498366     53.60826993    -75.99506934
 H    -70.73372917     54.55558250    -78.42445571
 H    -69.68318719     55.76979005    -77.65612750
 H    -71.12277368     56.59056933    -76.06811986
 H    -72.47724100     55.81323396    -76.92218932
 H    -71.65565784     57.03326109    -79.01818788
 H    -70.64161600     57.99976558    -77.92007364
 H    -73.01813327     58.42551367    -76.78394292
 H    -73.67410769     57.70845201    -78.27517959
 H    -72.58677285     59.17329105    -79.77830858
 H    -72.21818084     60.24499443    -78.40577135
 H    -74.69024953     60.22642824    -77.84636261
 H    -74.94473065     59.50985332    -79.45571851
 H    -73.81744298     61.14948271    -80.69848359
 H    -73.85597289     62.21057482    -79.26989490
 H    -76.24508590     62.00258843    -78.97471425
 H    -76.32968311     61.30637335    -80.61068324
 H    -75.12222299     63.28727913    -81.52073263
 H    -75.44171792     64.09076340    -79.96490401
 H    -77.93801837     63.43839138    -80.56595304
 H    -77.29056221     63.08339055    -82.18553373
 H    -76.29800009     65.21435062    -82.52627399
 H    -77.24358566     65.82744889    -81.14850583
 H    -79.20364841     64.76671486    -82.66836714
 H    -77.94123850     64.68851992    -83.92075424
 H    -77.89618651     67.32145783    -83.26604480
 H    -79.41296359     66.94045112    -82.41605195
 H    -80.68332072     66.01116714    -83.96779283
 H    -79.59620372     66.63411794    -85.23206163
 H    -79.13560983     68.53416437    -85.15791898
 H    -80.51627586     68.85904850    -84.08252218
 H    -82.14398410     67.78732406    -85.43977010
 H    -80.96742841     67.78629646    -86.77542811
 H    -80.76556190     70.31641572    -86.36146248
 H    -82.22644876     70.14895891    -85.35844978
 H    -83.54304527     69.10798234    -87.05705611
 H    -82.32036710     69.61252617    -88.24817336
 H    -82.58610611     71.97965126    -87.38570897
 H    -84.05191223     71.40441751    -86.55577811
 H    -85.21300533     70.46112726    -88.23273797
 H    -84.16288663     71.28258878    -89.41202519
 H    -84.54449115     73.47034039    -88.39691822
 H    -85.90069150     72.74511148    -87.50079863
 H    -86.79243572     71.97259063    -89.77192015
 H    -85.60402768     73.08592971    -90.49055016
 H    -86.65504062     74.91447006    -89.04712248
 H    -87.98602353     73.76799363    -88.76016791
 H    -88.41891273     73.38972607    -91.09350860
 H    -87.42198680     74.81886516    -91.45678095
 H    -87.47843838     76.41143752    -90.75440149
 H    -89.14505896     76.12295800    -90.19994491
 H    -89.93493175     75.37487023    -92.34122973
 H    -88.44758380     76.03473158    -93.06278758
 H    -87.98332251     77.88241647    -92.62621941
 H    -89.64670660     78.20454030    -92.08064057
 H    -89.77760502     77.08132300    -94.66931535
 H    -88.02706251     77.39861565    -94.61280889
 H    -87.35692135     79.10325866    -94.18429001
 H    -88.92920932     79.84897262    -94.55857319
 H    -89.43952769     79.04821184    -96.55771718
 H    -87.75447247     78.51778057    -96.77565809
 H    -86.83784081     80.69714309    -96.25333996
 H    -88.47564691     81.36739367    -96.44470873
 H    -88.48249317     80.25322828    -98.75603437
 H    -86.73146159     80.03118689    -98.52613728
 H    -86.63081162     82.56185945    -98.11715033
 H    -88.28639934     82.61621891    -98.76856495
 H    -88.28148781     81.64997451   -100.66922640
 H    -86.50669874     81.76542847   -100.74036565
 H    -86.28881750     84.03564937   -100.30402845
 H    -88.02685946     84.23787497   -100.63049688
 H    -88.68186249     83.46345197   -102.33281250
 H    -87.02146764     83.37876566   -102.96856703
 H    -86.06678720     85.22822381   -102.71931698
 H    -87.63525764     86.02407517   -102.44584346
 H    -88.63275363     85.12880187   -104.45288843
 H    -86.99959036     84.67369890   -104.99503759
 H    -85.92084189     86.67725650   -104.78462808
 H    -87.49734095     87.49327655   -104.65413422
 H    -88.58281187     86.72825478   -106.46807720
 H    -87.03807550     86.15468612   -107.14118583
 H    -85.77667225     88.04350239   -106.99067991
 H    -87.25811644     88.99447930   -106.72755888
 H    -88.21923275     87.97946385   -108.82087367
 H    -86.57208075     87.41454034   -109.18968037
 H    -85.35494951     89.27835620   -109.06394687
 H    -86.84387614     90.25132287   -109.13250343
 H    -87.50238990     89.00173894   -111.21606000
 H    -85.82795321     88.40044036   -111.27054371
 H    -84.47175000     89.96738999   -111.16997871
 H    -85.75126944     91.13207989   -111.58782332
 H    -86.66279640     90.24141250   -113.42152405
 H    -85.25277590     89.16930030   -113.59669341
 H    -83.58874657     90.80358794   -113.49503119
 H    -84.83567075     92.04625338   -113.75814592
 H    -85.73206836     91.02518502   -115.73084302
 H    -84.27838737     90.00042848   -115.80121550
 H    -82.75010044     91.89580275   -115.55335686
 H    -83.92264084     92.86617582   -116.08246620
 H    -82.27132505     90.17087730   -116.38187976
 H    -81.79933650     91.37676773   -115.16068291
 H    -81.39372635     92.94492422   -117.17654280
 H    -81.52048574     91.48102462   -118.18113061
 H    -79.69065581     90.46696096   -116.73372674
 H    -79.41757963     92.11368011   -116.11268767
 H    -79.64556759     92.85177672   -115.27374483
 H    -78.84297909     93.45477403   -116.74361306
 H    -77.13869655     91.57010864   -116.38640887
 H    -77.84683066     91.39457342   -114.76283253
 H    -77.46402220     93.78807152   -114.28243141
 H    -76.40454138     93.82696927   -115.71220552
 H    -75.06232494     91.95059848   -114.87971496
 H    -75.83821576     92.18892689   -113.29558755
 H    -75.38885455     94.43911680   -113.00532162
 H    -74.19258438     94.34497070   -114.31998540
 H    -72.90947358     92.61188208   -113.65648725
 H    -73.61371083     92.72710910   -112.02583115
 H    -72.83077484     95.25198831   -112.29427851
 H    -71.92186949     94.65282512   -113.70252608
 H    -70.73414988     92.95967756   -112.57645453
 H    -71.20795215     93.70553969   -111.03131125
 H    -70.07440558     95.80121366   -112.34354110
 H    -69.50696421     94.54085213   -113.46504268
 H    -68.43404069     93.15411035   -111.97460512
 H    -68.47860382     94.45698926   -110.76266975
 H    -67.38439808     95.95558907   -112.50529613
 H    -67.05589244     94.46678657   -113.42389170
 H    -65.91849854     93.47734977   -111.44707355
 H    -65.90749061     95.11040942   -110.73907519
 H    -64.69528358     95.51019518   -113.14987318
 H    -64.63464520     93.73172391   -113.19024175
 H    -63.56009208     93.32922036   -111.20059012
 H    -63.08461170     95.04068965   -111.13357849
 H    -63.53303648     92.15932491   -112.37972807
 H    -63.92094445     92.47748878   -110.67193247
 H    -61.95091585     93.06781552   -109.80686147
 H    -61.12787164     92.40886886   -111.24096544
 H    -62.41906266     90.24267921   -110.79836283
 H    -62.81194675     90.93555049   -109.20655940
 H    -61.13443234     91.56066055   -108.20086326
 H    -60.09737204     90.59797121   -109.28067891
 H    -61.22691422     88.56033431   -109.06742285
 H    -62.07791657     89.21703851   -107.64869058
 H    -59.75008378     89.77211140   -106.71968377
 H    -59.11319667     88.72345204   -108.00923990
 H    -60.12008064     86.83422971   -107.85397988
 H    -60.66990196     87.24754384   -106.21229337
 H    -58.98841549     87.88075363   -105.07888719
 H    -57.88786378     87.17050076   -106.28412304
 H    -58.57596613     85.12310293   -106.57625717
 H    -59.53958848     85.22650728   -105.08327152
 H    -58.00531768     85.95316306   -103.59425382
 H    -56.70886289     85.52490532   -104.73621133
 H    -57.83855846     83.19122808   -104.78412420
 H    -58.75391026     83.74718869   -103.36239794
 H    -56.88658229     84.35505531   -102.05314127
 H    -55.84934012     83.44788669   -103.17983575
 H    -56.85166426     81.43698740   -103.23932223
 H    -57.77665493     81.86319419   -101.77952542
 H    -55.88992727     82.49494495   -100.47613114
 H    -54.84702944     81.70350054   -101.68205258
 H    -56.35131498     79.62935088   -101.27978589
 H    -56.96291569     80.50871881    -99.85819407
 H    -54.62637856     80.77606240    -99.02308793
 H    -54.14802570     79.55520255   -100.22680985
 H    -55.94913190     78.06076157    -99.15698622
 H    -55.97501877     79.24648827    -97.82971507
 H    -53.59142299     79.09193935    -97.43662502
 H    -53.58070875     77.61949231    -98.43665081
 H    -55.44558938     76.82003440    -96.79483090
 H    -54.95639264     78.20030947    -95.78300387
 H    -52.73855498     77.84019419    -95.55477636
 H    -52.95962660     76.17268355    -96.13684359
 H    -54.73139987     75.82257093    -94.40503907
 H    -54.15861290     77.32562191    -93.64279273
 H    -51.88100024     76.65881292    -93.48039350
 H    -52.39189230     74.98768514    -93.81890186
 H    -54.03739541     74.98462428    -92.02982221
 H    -53.26894063     76.46310452    -91.40385088
 H    -51.07499381     75.12737109    -91.43007188
 H    -52.09220719     73.68544944    -91.66332179
 H    -53.41679839     74.23221841    -89.65043732
 H    -52.14263745     75.39904676    -89.22231096
 H    -50.50365344     73.43629098    -89.44264932
 H    -51.94189475     72.38765900    -89.45262624
 H    -52.93225381     73.12896496    -87.49107974
 H    -51.40060687     73.91972963    -87.04721540
 H    -50.04716520     71.97960073    -87.32589600
 H    -51.53404017     71.00151474    -87.35448433
 H    -52.15223587     72.10142605    -85.14038440
 H    -50.46851945     72.67557390    -85.07939319
 H    -49.09316525     71.22617602    -85.32268367
 H    -50.30654262     69.97456114    -84.96290288
 H    -51.16292214     70.78415809    -83.00315247
 H    -49.76908075     71.88288429    -82.86797265
 H    -48.27900386     69.83884737    -83.15105195
 H    -49.74075465     68.86547144    -82.86106816
 H    -50.58817428     69.58449192    -80.99866479
 H    -49.05762432     70.40519756    -80.60863179
 H    -47.85816973     68.22316887    -81.00701556
 H    -49.45972139     67.44732483    -80.97007023
 H    -50.57968711     67.87132128    -79.38305827
 H    -49.15206927     68.45309958    -78.49327855
 H    -47.78060701     66.59266684    -78.83825697
 H    -49.21166099     65.67424536    -79.36442534
 H    -50.53140320     66.13556466    -77.45135816
 H    -49.06033178     66.69987216    -76.62324429
 H    -47.89766549     64.58095526    -77.13620334
 H    -49.48509132     63.90422317    -77.57252843
 H    -50.41720612     64.56040919    -75.37681705
 H    -48.74393046     64.83546653    -74.83574523
 H    -47.60562616     63.09194060    -75.23941240
 H    -49.09838673     62.14630281    -75.45319196
 H    -50.46911891     62.26821704    -74.09757655
 H    -49.29951948     62.92826246    -72.92939681
 H    -47.58529873     61.68611672    -72.90232252
 H    -48.49024056     60.38967471    -73.71999302
 H    -50.09924325     60.98457993    -71.59619736
 H    -48.67879612     61.89672959    -71.03176879
 H    -47.02534659     60.48549199    -71.02533991
 H    -48.17237726     59.12868886    -71.13337957
 H    -49.64707869     59.29990755    -69.67127983
 H    -48.65472282     60.47612828    -68.77685193
 H    -46.68502940     59.18815218    -68.69951693
 H    -47.63935067     57.76599884    -69.18430293
 H    -49.12194127     58.43448312    -67.12926657
 H    -47.77696961     59.51448471    -66.69004630
 H    -46.09306155     57.84925404    -66.69878744
 H    -47.37312802     56.61244875    -66.70181540
 H    -48.27354412     57.85952082    -64.61819286
 H    -46.70663843     58.70382734    -64.60337009
 H    -45.23072634     57.02990896    -64.60093723
 H    -46.52438162     55.89499054    -64.14631336
 H    -47.23174109     57.23729260    -62.25174436
 H    -45.71294795     58.15193849    -62.40972216
 H    -44.24030701     56.33884263    -62.36077719
 H    -45.56728385     55.31704361    -61.75801199
 H    -46.28450837     56.53866638    -59.98074218
 H    -44.78451819     57.49445791    -60.04972521
 H    -43.26790117     55.72009404    -60.02114907
 H    -44.58631387     54.64132730    -59.50509003
 H    -45.53199947     55.52147761    -57.80703347
 H    -44.14119375     56.60821189    -57.57695801
 H    -42.48148686     54.92293989    -57.59698578
 H    -43.76704464     53.70998556    -57.38639217
 H    -44.89090861     54.44268479    -55.61562899
 H    -43.54237170     55.53229611    -55.21256318
 H    -42.00281984     53.52361048    -55.32489405
 H    -43.47457653     52.52257309    -55.31380177
 H    -44.19455452     53.69514391    -53.20646099
 H    -42.37977649     52.86209107    -53.05955875
 H    -41.50964778     52.14669603    -53.23621174
 H    -43.10889668     51.43528287    -52.91285290
 H    -43.12594704     52.97488439    -50.83074987
 H    -41.39272624     53.21916333    -51.15407657
 H    -40.46497462     51.30792167    -51.29223190
 H    -41.87648135     50.54927934    -50.51739176
 H    -41.56004900     52.31696184    -48.66524734
 H    -39.97374974     52.63367243    -49.40795571
 H    -39.16720065     50.43568358    -49.36682011
 H    -40.47389392     50.01190165    -48.23490658
 H    -39.84765199     51.84026737    -46.71253138
 H    -38.32276693     51.97696444    -47.62044444
 H    -37.71316909     49.68613028    -47.40480553
 H    -38.95301904     49.52148528    -46.13834164
 H    -38.21367941     51.31290151    -44.79257218
 H    -36.68900521     51.32386537    -45.71100293
 H    -36.53047162     48.82332467    -45.13423751
 H    -37.83061547     49.13306167    -43.95867142
 H    -36.69501876     50.90507265    -42.83215921
 H    -35.19597021     50.40084795    -43.64878493
 H    -35.61875141     48.06471016    -42.73382781
 H    -36.83492692     48.81559463    -41.67299969
 H    -35.60453021     50.44514786    -40.67957916
 H    -34.11669676     49.64790745    -41.24440303
 H    -34.63556230     47.50381770    -40.36607682
 H    -35.91615298     48.26103973    -39.38885169
 H    -34.00568150     49.82767247    -38.56691062
 H    -32.90014740     48.65571629    -39.32360060
 H    -33.56150064     46.72281668    -38.33724158
 H    -34.44176631     47.66489816    -37.11009795
 H    -32.58630115     49.03387210    -36.50062006
 H    -31.52244148     47.89479855    -37.36025993
 H    -31.93791153     45.93094902    -36.62785363
 H    -32.77936011     46.61892914    -35.21827416
 H    -30.96162133     48.06585144    -34.60039075
 H    -29.91599784     47.13510834    -35.69977942
 H    -30.37978015     45.00727990    -34.81671431
 H    -31.09883933     45.79414505    -33.39120956
 H    -29.50648383     47.19484537    -32.71709848
 H    -28.32357604     46.33442523    -33.73133368
 H    -29.18186508     44.21973135    -32.46882247
 H    -29.96066032     45.36793458    -31.35375567
 H    -27.91022785     46.55410808    -30.87913825
 H    -27.02233059     45.20236144    -31.62256689
 H    -28.25454498     43.65201873    -30.03449824
 H    -28.73823196     45.11629439    -29.14556045
 H    -26.50277126     45.93395574    -28.86699825
 H    -25.90816841     44.32614246    -29.34621695
 H    -27.09436944     43.02469216    -27.85978054
 H    -27.47657428     44.48644860    -26.91879476
 H    -25.08002097     45.08372852    -26.78808566
 H    -24.71771906     43.43399356    -27.34967141
 H    -25.74840446     42.06670248    -26.07047125
 H    -25.99560607     43.35558681    -24.86800079
 H    -23.93089367     44.17617938    -24.59278837
 H    -23.25748581     42.73476870    -25.39098869
 H    -24.51941303     41.26992543    -23.81825890
 H    -24.81081867     42.72301809    -22.83242366
 H    -22.54843683     43.37228850    -22.63087304
 H    -22.07380514     41.75808209    -23.21167342
 H    -22.48713955     40.22089672    -22.91116567
 H    -23.06957427     40.71343614    -21.30292396
 H    -21.35525766     41.90914136    -20.50161284
 H    -20.30177820     41.23889394    -21.77016165
 H    -20.20661698     39.41152730    -22.12136619
 H    -20.90096411     39.03866038    -20.52539658
 H    -19.90310530     40.07695743    -19.02599339
 H    -18.54502104     40.40810235    -20.12790846
 H    -18.07786347     38.34579638    -20.91803051
 H    -19.04678413     37.63410629    -19.60541608
 H    -18.43262033     38.41972784    -17.76045908
 H    -16.92284419     39.01339545    -18.49285338
 H    -16.34237957     36.88713209    -19.46193930
 H    -17.57668363     36.13662169    -18.42199013
 H    -16.91339450     36.93723219    -16.37682830
 H    -15.35206718     37.40921441    -17.08939862
 H    -14.76267522     35.39387633    -18.05310307
 H    -16.01708527     34.58871045    -17.08025672
 H    -15.25600512     35.46266143    -14.98714185
 H    -13.74195803     35.93999826    -15.79217454
 H    -12.94580498     34.26367594    -16.80681962
 H    -13.99922815     33.17517613    -15.87208199
 H    -13.60300917     33.79690359    -13.75913956
 H    -12.14602305     34.66819005    -14.29422648
 H    -11.20673958     32.79483963    -15.45919126
 H    -12.38111506     31.75038315    -14.62359592
 H    -11.94384055     32.38304404    -12.44253445
 H    -10.43479615     33.14983834    -12.99305980
 H     -9.74805812     31.02775144    -14.09861938
 H    -11.04590294     30.22711872    -13.18054926
 H    -10.38308728     30.96740157    -11.04530384
 H     -8.81414413     31.44402269    -11.73777504
 H     -8.64179167     29.05819369    -12.63444200
 H     -9.99856594     28.67057119    -11.54946317
 H     -8.65394784     29.60801721     -9.63366242
 H     -7.24840744     29.56340634    -10.72486942
 H     -7.28156050     27.40555069    -11.41185666
 H     -8.40002863     27.01222086    -10.08423196
 H     -7.35206472     27.83368329     -8.28877402
 H     -5.84588614     27.95561705     -9.22942534
 H     -5.80823618     25.73892109    -10.01128692
 H     -7.04261275     25.32688979     -8.79686880
 H     -6.24081309     26.05102007     -6.89341827
 H     -4.62380366     26.19507116     -7.62334735
 H     -3.99633280     24.56109875     -8.59755160
 H     -5.22416013     23.56569101     -7.77909565
 H     -4.93989509     24.05694797     -5.62873746
 H     -3.35917546     24.78319505     -6.00577496
 H     -2.41634290     23.02971256     -7.17643142
 H     -3.69240684     21.95732024     -6.55200992
 H     -3.32702779     22.51916669     -4.25215769
 H     -1.78237692     23.26306990     -4.73062232
 H     -1.30712698     20.94831008     -5.82743952
 H     -2.70902229     20.36933338     -4.89591273
 H     -2.05053575     21.03245935     -2.78440620
 H     -0.39863951     21.27556471     -3.40117624
 H      0.04173862     19.31107856     -4.39303783
 H     -1.34424644     18.58120279     -3.54770154
 H     -1.37148501     18.90098724     -1.56564469
 H      0.34996579     19.35317897     -1.58555553
 H      1.14420879     17.47101464     -2.73841408
 H     -0.41202773     16.66526905     -2.42669531
 H     -0.29859713     17.06247097     -0.03384305
 H      1.41874776     17.47965511     -0.24585856
 H      2.36800562     15.89655250     -1.30081707
 H      0.99726239     14.81746604     -0.94740219
 H      0.63817639     14.91897208      1.16964761
 H      2.23741526     15.65996613      1.41790053
 H      2.89925738     13.45319536     -0.00019609
 H      1.22594897     12.95536026      0.34688578
 H      0.96016329     13.05627173      2.47662928
 H      2.72412736     13.11861609      2.70643487
 H      3.35920693     11.30128907      1.46701977
 H      1.66905809     10.74321506      1.45229046
 H      1.70138452     10.94394037      3.98869200
 H      3.46985282     11.08915621      3.84833928
 H      3.88089379      9.16298116      2.61953798
 H      2.24119064      8.59357573      3.01376849
 H      2.51929504      8.88437764      5.39005002
 H      4.27000250      9.04337880      5.11074965
 H      4.90713201      7.35907054      3.96262970
 H      3.39707106      6.50212364      4.35457944
 H      3.41846511      6.72791086      6.64831195
 H      5.13104533      7.20550866      6.56324744
 H      5.85916275      5.33463238      5.30579003
 H      4.31538129      4.53247355      5.68201692
 H      4.15501127      4.65802671      7.87889217
 H      5.88455927      5.06542805      7.98355600
 H      6.79965379      3.37620033      6.76451430
 H      5.26250343      2.48517700      6.87181226
 H      5.52782150      2.86785428      9.43744798
 H      7.19650549      3.35545179      9.05533662
 H      7.94719987      1.57512462      7.89238757
 H      6.56554252      0.61971635      8.48101704
 H      7.28601036      1.33408450     10.83719372
 H      8.80346483      1.87855982     10.08277659
 H      9.03062249     -0.47634833      9.13434238
 H      7.74094153     -0.94124422     10.26962274
 H      8.58696082     -0.20153823     12.23647126
 H     10.18768489     -0.04216600     11.47453319
 H     10.58884929     -1.96025798     10.52763833
 H      9.28655989     -2.71159275     11.48042636
 H     11.86554534     -0.91119123     11.88956719
 H     11.72147698     -1.49661095     10.21481505
 H     11.72521801     -3.70983124     10.43851689
 H     12.33764227     -3.53854890     12.10100465
 H     13.95521208     -2.34442243     12.26006509
 H     14.25756407     -2.47299790     10.51068854
 H     14.27327426     -3.88096624      9.49132900
 H     14.53898337     -4.92182700     10.91058028
 H     16.12705764     -4.13219226     12.05815126
 H     16.63932341     -3.12027569     10.68633666
 H     16.66718845     -5.20460736      9.25951640
 H     16.53858963     -6.13009679     10.78880863
 H     18.29874087     -3.88331465      9.40040584
 H     17.11245427     -4.59582839      8.28089035
 H     17.99030186     -6.83006100      8.48923046
 H     19.43789747     -6.13174499      9.25414116
 H     20.32223504     -4.66119391      8.30423584
 H     19.48926485     -5.09540216      6.79231966
 H     20.24883815     -7.45494043      7.04568349
 H     21.37724399     -6.86905845      8.29135970
 H     22.35284927     -5.19961133      6.82244714
 H     21.56319862     -6.02644949      5.45824144
 H     22.83700242     -8.11821825      6.44840974
 H     23.73060067     -6.92339381      7.41905046
 H     24.32156770     -5.78879629      5.20157770
 H     23.73284713     -7.27321250      4.41533137
 H     25.16457621     -8.73585322      5.67655177
 H     26.09338032     -7.30434437      6.18288368
 H     26.58342997     -6.30818975      4.24771627
 H     26.14768504     -7.79713361      3.37511144
 H     27.73595174     -9.05362152      4.89164686
 H     28.36569588     -7.46306963      5.38341275
 H     28.89223712     -6.16113120      4.20545123
 H     29.05587714     -7.36566669      2.90522707
 H     30.50398916     -8.62273630      4.71354244
 H     30.45643326     -7.08315184      5.60555410
 H     31.39596040     -5.96638804      3.52892946
 H     31.75573424     -7.60577172      2.93626550
 H     32.98280875     -8.35620948      4.77236730
 H     33.11975925     -6.67190949      5.33151377
 H     33.90546213     -5.58401856      3.57295040
 H     34.36468142     -7.13052721      2.82082320
 H     35.60322781     -7.60451197      5.03704854
 H     35.35819152     -5.87919252      5.39967322
 H     36.49107039     -5.37380319      3.17576959
 H     37.00482461     -7.07800760      3.17251320
 H     37.96107004     -7.59089957      4.92324862
 H     38.20769764     -5.87348730      5.32066099
 H     39.20437041     -5.38606935      3.15207558
 H     39.36022218     -7.14121282      2.90018610
 H     41.37231147     -6.77539099      4.05455906
 H     40.56034983     -5.13135024      4.89549701
 H     41.53882880     -5.06825636      2.85448544
 H     42.15859756     -6.71662971      3.11336506
 H     43.12841193     -5.79978206      5.31757522
 H     42.76764448     -4.18407507      4.66366051
 H     43.83449008     -4.26771610      2.66342576
 H     44.72705454     -5.70600963      3.21379569
 H     45.50474741     -4.64255839      5.24307943
 H     45.00486795     -3.08187372      4.54834887
 H     45.99808711     -3.03074445      2.57224038
 H     47.06563406     -4.36379467      3.07382513
 H     47.94011146     -3.83167642      4.94956177
 H     47.90699123     -2.03391643      3.94405355
 H     48.29726915     -1.72743022      2.63766589
 H     48.47050645     -2.49043607      2.28343099
 H     48.32230729     -3.68779776      1.65396463
 H     49.84246866     -4.09136090      2.48733901
 H     51.25136764     -2.59771792      2.25193964
 H     50.47217217     -3.02643619      0.39514353
 H     51.29303121     -3.17472774     -0.51364821
 H     52.13999139     -3.73481419      0.37394829
 H     52.92609309     -4.25352796     -0.55981834
 H     52.26600095     -3.14261477     -1.28922645
 H     51.82890554     -3.97042288     -2.20386808
 H     53.73032728     -4.43091558     -1.53524412
 H     54.54068041     -4.57156867     -2.58637456
 H     53.99873343     -3.24933780     -3.13468681
 H     53.49708151     -4.75446861     -3.88532008
 H     53.76444802     -3.75208274     -4.25449635
 H     52.67338956     -3.18632593     -4.21825540
 H     52.81256040     -3.06899092     -4.34860915
 H     52.61810916     -2.63750930     -6.03975287
 H     52.20242733     -2.22363574     -4.97678312
 H     51.13332943     -2.98598587     -5.53251101
 H     51.09931455     -2.21067073     -5.13836157
 H     49.95504901     -1.58658916     -5.29846286
 H     49.85454189     -2.86634450     -5.56651396
 H     48.63408084     -1.60967432     -4.96286953
 H     48.67750493     -1.50409783     -4.97953657
 H     47.39081406     -1.28097515     -5.13136423
 H     47.43797591     -2.84350225     -5.27394099
 H     46.05024854     -2.71014846     -5.14910618
 H     46.14986302     -1.23407548     -5.27231523
 H     44.78247022     -1.28066480     -5.34798803
 H     44.74599412     -2.56684392     -5.12021983
 H     43.60456036     -2.82986574     -5.03844357
 H     43.36023998     -1.81353849     -4.87324822
 H     42.18337090     -1.54996187     -4.94771578
 H     42.14162806     -2.65082562     -5.24008777
 H     41.74645756     -3.38431536     -6.02591065
 H     41.42132359     -1.63430168     -6.02849707
 H     40.83017665     -2.64736374     -4.68964785
1502
Final Conformation Chain 4 (Simulation Frame 5)
 C      0.00000000      0.00000000      0.00000000
 C      1.54000000      0.00000000      0.00000000
 C      2.16637443      1.40187836      0.11828839
 C      3.61630246      1.48534164     -0.39390550
 C      4.15360533      2.92287763     -0.52195204
 C      5.68290587      3.00804930     -0.68190720
 C      6.15503192      4.16433052     -1.58285712
 C      7.65720807      4.12288248     -1.91953034
 C      8.09586221      5.17325401     -2.95678740
 C      9.53761423      4.98748591     -3.46515864
 C     10.01925310      6.10752995     -4.40596965
 C     11.54363180      6.13048585     -4.62355318
 C     12.04450299      7.35025194     -5.41910250
 C     13.49361830      7.21732207     -5.92308114
 C     14.55183429      7.25764949     -4.80497890
 C     15.98455795      7.51522801     -5.30752860
 C     17.03584714      7.60171281     -4.18551638
 C     18.47637517      7.80384918     -4.69110503
 C     19.49443524      8.10856631     -3.57651938
 C     20.96409619      7.99389217     -4.02210499
 C     21.97876260      8.45273379     -2.95837738
 C     23.44671046      8.37159235     -3.41679332
 C     24.44846855      8.98696215     -2.42210707
 C     25.69548044      9.59903862     -3.08688053
 C     26.77453938     10.05988972     -2.08945981
 C     28.16452157     10.26379132     -2.72031132
 C     29.31428669     10.32145911     -1.69741612
 C     30.65440329      9.78131647     -2.23027018
 C     31.74942398      9.65171027     -1.15522045
 C     33.08027120      9.08344583     -1.68202325
 C     34.09093083      8.72748476     -0.57592253
 C     35.51560290      8.45498234     -1.09327341
 C     36.36925261      7.58720559     -0.14995708
 C     37.66923548      8.26573655      0.32040478
 C     38.42929990      7.47951214      1.40472634
 C     39.86765778      7.97448351      1.64499690
 C     40.57833161      7.28546496      2.82474100
 C     42.02978270      7.75256990      3.04084912
 C     42.74523321      7.05294798      4.21143006
 C     44.14911373      7.61071069      4.51079646
 C     44.90743715      6.84209321      5.60887331
 C     46.26741480      7.46115384      5.98146521
 C     47.09458468      6.61104020      6.96365501
 C     48.59044760      6.97516633      7.00115536
 C     49.40052371      6.18857877      8.04836915
 C     50.85694984      6.66519786      8.20087216
 C     51.60043643      6.03555994      9.39350948
 C     52.41752473      4.78156822      9.03091952
 C     52.90146883      3.97507336     10.25033092
 C     53.92078515      2.87269514      9.90775755
 C     54.47885055      2.13167896     11.13700855
 C     55.60943887      1.13855665     10.80978058
 C     56.10325508      0.32950632     12.02352813
 C     55.94103444      1.05860293     13.37026589
 C     56.59291188      0.32944794     14.55979891
 C     56.49770202      1.09540385     15.89240787
 C     56.87046771      0.25346548     17.12682495
 C     57.21905745      1.08880172     18.37273769
 C     58.38474724      0.51943959     19.20255338
 C     59.05680648      1.55041857     20.12830644
 C     59.17621379      2.95828017     19.51571556
 C     59.99325505      3.94568162     20.36957852
 C     59.83375032      5.41846759     19.94879387
 C     61.16609092      6.17845147     19.81134197
 C     61.00340419      7.67072571     19.46746609
 C     62.28669498      8.50070122     19.65695327
 C     62.03111382      9.98781308     19.96481133
 C     63.31393536     10.81301424     20.17697150
 C     63.07581032     12.33259153     20.25300655
 C     64.36887969     13.16758446     20.30157005
 C     64.15312820     14.67155040     20.05029782
 C     65.40662929     15.53304570     20.29146348
 C     65.22029830     17.02145197     19.94285549
 C     64.47596690     17.26582481     18.61701512
 C     63.76416116     18.62929838     18.54038346
 C     62.84752989     18.78927055     17.31327465
 C     62.13442706     20.15211578     17.23752998
 C     61.39986828     20.40161987     15.90720254
 C     59.97129603     19.82815759     15.86335805
 C     59.18913886     20.19205901     14.58765984
 C     59.79746183     19.61775246     13.29471160
 C     58.99607552     19.95242205     12.02295052
 C     59.69020332     19.52806402     10.71539292
 C     58.83862386     19.75392030      9.45230094
 C     59.45964708     19.17671901      8.16670037
 C     58.43671700     18.53781709      7.20908960
 C     57.60969823     17.40337557      7.84208438
 C     56.37921778     16.98823689      7.01432973
 C     55.38888188     16.08590433      7.77369182
 C     54.21082743     15.58794174      6.91589174
 C     52.87337569     15.50717401      7.67503561
 C     52.91493000     14.60582618      8.92301210
 C     51.52706771     14.16290177      9.42226776
 C     50.57801451     13.69678133      8.30261166
 C     49.36958269     12.88422587      8.80365673
 C     48.34207599     12.54878064      7.70670346
 C     47.00360782     12.01059870      8.24564981
 C     45.85708402     12.04049191      7.21793897
 C     44.62798607     11.20732497      7.62629060
 C     43.57113112     11.06415167      6.51536350
 C     42.17766986     10.65259477      7.02574241
 C     41.03561571     10.94782178      6.03571547
 C     39.65927945     10.43192555      6.49522559
 C     38.50813292     10.77476418      5.53141890
 C     37.10891240     10.44815831      6.08559446
 C     35.98464302     10.53101328      5.03642650
 C     34.65054681      9.91560341      5.49800857
 C     33.67043795      9.61159971      4.34971925
 C     32.20317425      9.47708349      4.79765075
 C     31.19924371      9.38114337      3.63381272
 C     29.72766150      9.53196062      4.06194814
 C     28.72287159      9.42200631      2.90009303
 C     27.27841912      9.79328428      3.28390252
 C     26.23182689      9.42292883      2.21662489
 C     24.80571185      9.90258224      2.54484506
 C     23.76432875      9.55678274      1.46431558
 C     22.30991573      9.84346256      1.88156544
 C     21.31880961      9.89402176      0.70396091
 C     19.88384950     10.27921962      1.10906841
 C     18.84371204     10.08550377     -0.00994376
 C     17.40520106     10.44947325      0.40213923
 C     16.43860513     10.62260237     -0.78416538
 C     14.96667527     10.80774175     -0.37095127
 C     13.98427089     10.85251316     -1.55605765
 C     12.51975827     10.57881194     -1.16632639
 C     11.55214506     10.52756904     -2.36328037
 C     10.16846075      9.94195215     -2.02553697
 C      9.21525882      9.85135483     -3.23168713
 C      8.04041401      8.87638941     -3.02974132
 C      6.95830440      8.96473637     -4.12191054
 C      5.67492114      8.17791040     -3.79720714
 C      4.57253259      8.30962374     -4.86444239
 C      3.20956476      7.73870504     -4.43088672
 C      3.27558060      6.29455752     -3.90015150
 C      1.96403930      5.50503472     -4.06782131
 C      2.06226100      4.02910556     -3.63935239
 C      0.80054725      3.20190202     -3.94824188
 C      0.91369258      1.71688938     -3.55640570
 C     -0.36118240      0.89776628     -3.83087089
 C     -0.13857596     -0.62605976     -3.83163926
 C     -1.33269496     -1.43325065     -4.37397006
 C     -2.59744851     -1.34458304     -3.49982104
 C     -3.66423374     -2.40431128     -3.83230464
 C     -4.79422380     -2.50382465     -2.79075793
 C     -6.06781908     -3.19481188     -3.31238202
 C     -7.20404785     -3.27872885     -2.27626323
 C     -8.45713147     -4.01915883     -2.77939827
 C     -9.63153589     -4.01130812     -1.78324937
 C    -10.96288318     -4.50352318     -2.38060915
 C    -11.89985709     -5.17123849     -1.35697046
 C    -13.00266504     -6.03960195     -1.99049987
 C    -13.97364023     -6.66189549     -0.96993241
 C    -15.28641778     -7.17760945     -1.58819950
 C    -16.19202573     -7.93149055     -0.59666659
 C    -17.69685156     -7.68220742     -0.80869764
 C    -18.60703639     -8.55631806      0.07396547
 C    -20.06696224     -8.07094878      0.14203301
 C    -21.01632159     -9.04111555      0.86942098
 C    -22.43064509     -8.47759939      1.10123678
 C    -23.31757137     -9.36088209      1.99832845
 C    -24.63362672     -8.68974269      2.43326546
 C    -25.66190250     -9.66223580      3.04031247
 C    -26.82119199     -8.96751950      3.77856524
 C    -27.81947224     -9.94044768      4.43312409
 C    -28.72614245     -9.28827432      5.49341606
 C    -29.94500127    -10.14336200      5.88687282
 C    -30.95722672     -9.41341708      6.78919209
 C    -32.31426456    -10.13035397      6.91587987
 C    -33.23437289     -9.54232710      8.00180117
 C    -34.43628085    -10.43745836      8.35642386
 C    -35.20037077     -9.98996828      9.61639181
 C    -36.45047703    -10.83507223      9.92401763
 C    -37.20288374    -10.40065847     11.19553988
 C    -37.95328673    -11.54542330     11.90123730
 C    -38.81918178    -11.08782354     13.08969353
 C    -39.63072815    -12.22015759     13.74605630
 C    -40.19247373    -11.86428111     15.13508252
 C    -40.97896687    -13.00679192     15.80418458
 C    -41.66308607    -12.60683051     17.12464352
 C    -42.73289094    -13.60575078     17.60347108
 C    -43.30075751    -13.29358920     19.00049746
 C    -44.23128373    -14.38717233     19.55709148
 C    -44.58135552    -14.21323427     21.04665359
 C    -45.60736666    -15.23429106     21.57233808
 C    -45.75687930    -15.23966802     23.10505366
 C    -46.29790186    -16.56321913     23.67698640
 C    -46.31662923    -16.61940113     25.21584730
 C    -46.48981950    -18.03833024     25.78877429
 C    -47.03842232    -18.07031409     27.22738890
 C    -46.89268862    -19.43645323     27.92310834
 C    -47.74111113    -19.58279737     29.19996488
 C    -47.61263691    -20.95689417     29.88330401
 C    -48.15019893    -20.99169403     31.32601536
 C    -48.02251512    -22.36601358     32.00905460
 C    -48.32468811    -22.34553907     33.51897919
 C    -48.23146379    -23.72598374     34.19520530
 C    -48.76730370    -23.75382668     35.63870811
 C    -48.96452103    -25.17172444     36.20639751
 C    -49.16813056    -25.21277665     37.73232604
 C    -49.25154349    -26.63582297     38.31506222
 C    -49.54103784    -26.67755726     39.82703155
 C    -49.24451071    -28.03835057     40.48423259
 C    -49.58538566    -28.09674065     41.98489740
 C    -49.09564421    -29.37570596     42.68917082
 C    -49.24968959    -29.34531420     44.22114548
 C    -48.88443288    -30.67134902     44.91383531
 C    -49.36081157    -30.76662940     46.37519939
 C    -48.92199216    -32.05580403     47.09427262
 C    -49.29376804    -32.09734605     48.58814576
 C    -48.76675270    -33.33944056     49.33047726
 C    -49.66190981    -33.79915681     50.49621940
 C    -49.25254993    -35.15370443     51.10385847
 C    -49.89899987    -35.44826332     52.47021769
 C    -49.63816022    -36.87336323     52.99237947
 C    -50.18422361    -37.13111055     54.40905907
 C    -50.17945026    -38.61474266     54.82187011
 C    -50.86238893    -38.89081654     56.17426724
 C    -51.21155079    -40.37226303     56.40879289
 C    -52.02294475    -40.62897022     57.69228081
 C    -51.82617096    -42.03587237     58.28684487
 C    -52.76145453    -42.35294170     59.46850121
 C    -52.49933448    -43.72101820     60.12520492
 C    -53.13775531    -43.88005728     61.51758612
 C    -53.09014441    -45.31754467     62.06800704
 C    -53.36345510    -45.41861984     63.58018596
 C    -53.77766190    -46.82577690     64.04916541
 C    -55.30005420    -47.02152404     64.17408434
 C    -55.73580365    -48.49503096     64.27655286
 C    -57.26043596    -48.69255083     64.36645400
 C    -57.68612944    -50.13004488     64.71858457
 C    -59.17219732    -50.26799560     65.09828426
 C    -59.51435040    -51.58381115     65.82158275
 C    -60.91275392    -51.59880043     66.46644159
 C    -61.18477844    -52.83495399     67.34366849
 C    -62.65926116    -53.27905513     67.36024797
 C    -62.88646976    -54.67391181     67.97209033
 C    -64.29839671    -55.24037070     67.73295310
 C    -64.63741036    -56.46534170     68.60250230
 C    -65.90337230    -57.21974923     68.15550160
 C    -66.36006804    -58.31416071     69.13799461
 C    -67.41976770    -59.27119103     68.56116744
 C    -68.11238374    -60.14996257     69.61929957
 C    -68.98500129    -61.27243638     69.02753007
 C    -69.29998927    -62.40899591     70.01779014
 C    -70.13275090    -63.55430122     69.41249367
 C    -70.14868347    -64.83603873     70.26601292
 C    -71.35185297    -65.75700641     69.99069189
 C    -71.34287543    -67.06102240     70.80987545
 C    -72.67519189    -67.83253829     70.77387436
 C    -72.65917346    -69.14785534     71.57467676
 C    -74.02700195    -69.85126201     71.65125534
 C    -73.96909868    -71.27041084     72.24645599
 C    -75.31779993    -71.77697270     72.79051481
 C    -75.27858963    -73.22542772     73.31208991
 C    -76.36943795    -73.54700849     74.35047122
 C    -76.75106525    -75.03749299     74.41692848
 C    -77.95944814    -75.33482923     75.32412302
 C    -78.02726818    -76.79132990     75.81970979
 C    -79.19520749    -77.07124375     76.78364236
 C    -79.49259622    -78.56819160     76.98932916
 C    -80.60748700    -78.85036242     78.01353529
 C    -81.11931795    -80.30273633     77.99807305
 C    -82.31453165    -80.55567847     78.93566811
 C    -82.93354558    -81.95894022     78.79682209
 C    -83.88384958    -82.34093889     79.94686528
 C    -84.76309091    -83.57012008     79.65081074
 C    -85.63627058    -84.01630027     80.83827884
 C    -85.85683214    -85.53841508     80.91650349
 C    -86.63747738    -85.99497042     82.16299867
 C    -86.41475189    -87.47264417     82.53511915
 C    -86.42946965    -87.74601785     84.05058944
 C    -85.62937609    -88.99327240     84.46988215
 C    -85.78121903    -89.36420505     85.95680941
 C    -85.09349176    -90.68599787     86.34603292
 C    -84.92596716    -90.88151874     87.86435670
 C    -84.58176448    -92.32506842     88.27580394
 C    -84.69102387    -92.58797419     89.78925791
 C    -84.33359943    -94.02785126     90.20229763
 C    -84.89018305    -94.44150576     91.57732659
 C    -84.27211862    -95.73498874     92.13990827
 C    -84.73867170    -96.08362152     93.56552512
 C    -84.07119623    -97.34092093     94.15312590
 C    -84.62307798    -97.75810861     95.52898235
 C    -83.90010656    -98.96574577     96.15390221
 C    -84.24976859    -99.20793038     97.63399784
 C    -83.41951974   -100.32107806     98.29972231
 C    -83.55999753   -100.37583977     99.83232374
 C    -82.47886999   -101.22151854    100.53060067
 C    -82.69996619   -101.39454429    102.04479305
 C    -81.62044503   -102.24269861    102.74255254
 C    -81.78765117   -102.33571921    104.27061971
 C    -80.69705190   -103.16773955    104.97057356
 C    -79.32937639   -102.46473803    105.05335369
 C    -78.36274286   -103.09336664    106.07416009
 C    -76.90587242   -102.61412199    105.93468576
 C    -76.03174493   -103.51752065    105.04509486
 C    -74.70531485   -102.86973144    104.60628694
 C    -73.73584838   -103.84003758    103.90611500
 C    -72.49245394   -103.15836203    103.30537487
 C    -71.53337849   -104.12571710    102.58704455
 C    -70.23842212   -103.46333967    102.08113534
 C    -69.08105222   -104.45111069    101.84364149
 C    -67.79725767   -103.79368887    101.30394888
 C    -66.50850627   -104.56649113    101.64084128
 C    -65.22130722   -103.88796255    101.13654217
 C    -63.92976839   -104.46170690    101.74837945
 C    -62.63964345   -103.95243022    101.07918972
 C    -61.40795280   -103.96393454    102.00353045
 C    -60.13039586   -103.40303825    101.35173015
 C    -60.14336117   -101.87489926    101.16140645
 C    -58.93311290   -101.33073061    100.37988255
 C    -59.10775762    -99.88368994     99.88271807
 C    -58.10850070    -99.47361199     98.78502882
 C    -58.28778630    -98.02890012     98.28276963
 C    -57.09258546    -97.49487940     97.47164891
 C    -57.15051406    -95.98130609     97.19354798
 C    -56.12628677    -95.49639633     96.15075319
 C    -56.03440029    -93.96400494     96.02855040
 C    -55.08599713    -93.48011911     94.91590224
 C    -55.29928997    -92.01107027     94.50602217
 C    -54.32147311    -91.51407144     93.42506595
 C    -54.44043309    -90.00997098     93.11663391
 C    -53.41774080    -89.49938143     92.08464612
 C    -53.78050992    -88.13732504     91.46432285
 C    -52.64849869    -87.50655362     90.63229040
 C    -53.10829708    -86.35228250     89.72243127
 C    -51.95774910    -85.63019575     88.99687627
 C    -52.40915880    -84.78986639     87.78787839
 C    -51.24942649    -84.15450754     86.99861286
 C    -51.67293574    -83.53215282     85.65514179
 C    -50.52699001    -82.83441535     84.89911878
 C    -50.91944685    -82.32262734     83.50067298
 C    -49.91873542    -81.31969299     82.89710086
 C    -50.19375148    -80.97088586     81.42255016
 C    -49.44277987    -79.72239314     80.92364380
 C    -49.72762031    -79.36622654     79.45272189
 C    -49.03432739    -78.07679701     78.97489723
 C    -49.03556556    -77.89471101     77.44570033
 C    -47.99069862    -76.88563776     76.93420816
 C    -48.05554528    -76.63178229     75.41666004
 C    -47.25257249    -75.40245334     74.95234867
 C    -47.50004747    -75.01084910     73.48367503
 C    -46.93399437    -73.63117689     73.09937242
 C    -47.56016210    -73.02934615     71.82763592
 C    -46.99183350    -71.65111313     71.44153185
 C    -47.57033916    -71.07895653     70.13402734
 C    -47.16508970    -69.61955637     69.85559595
 C    -47.55448262    -69.11814216     68.45254323
 C    -46.89804915    -67.78132947     68.06059053
 C    -47.64757866    -67.01611056     66.95413423
 C    -46.84860671    -65.84632568     66.35010842
 C    -47.24904137    -65.49421558     64.90536950
 C    -46.30854395    -64.48328274     64.22340219
 C    -46.89922461    -63.83273302     62.95869613
 C    -45.97299081    -62.79557907     62.29687847
 C    -46.37450226    -62.42584277     60.85684944
 C    -45.48459444    -61.34432435     60.21655110
 C    -45.62652280    -61.24144187     58.68656040
 C    -44.63988910    -60.25755527     58.03072423
 C    -44.62517836    -60.31759394     56.49196533
 C    -43.64858235    -59.32405527     55.83565659
 C    -43.61511032    -59.40181680     54.29798538
 C    -42.63721977    -58.40949299     53.64176625
 C    -42.75632780    -58.33416033     52.10822843
 C    -41.81482944    -57.30427350     51.45668107
 C    -42.06032478    -57.09595816     49.95071402
 C    -41.34629287    -55.86398365     49.36420123
 C    -41.33242125    -55.82189167     47.82483907
 C    -40.73606652    -54.52856754     47.23894339
 C    -40.32915878    -54.64126115     45.75795513
 C    -39.48399718    -53.45883861     45.24885907
 C    -38.75348486    -53.73652148     43.92189111
 C    -37.92447932    -52.54717970     43.40245301
 C    -37.05812074    -52.87707538     42.17274100
 C    -36.28659155    -51.66983871     41.60800890
 C    -35.35279347    -52.01694447     40.43364152
 C    -34.87921838    -50.79344407     39.62718421
 C    -33.88994256    -51.13299453     38.49685734
 C    -33.66667079    -49.98563409     37.49420399
 C    -32.74559428    -50.35361876     36.31615248
 C    -32.58105912    -49.23069307     35.27520769
 C    -31.37368417    -49.41763389     34.33771163
 C    -31.15820725    -48.25255174     33.35396711
 C    -29.90822142    -48.40440648     32.46735808
 C    -29.53447686    -47.12984399     31.68799588
 C    -28.21750312    -47.24242488     30.89773913
 C    -27.85540359    -45.97582937     30.10010530
 C    -26.60981160    -46.13208331     29.20809337
 C    -26.48945753    -45.06187372     28.10729079
 C    -25.18645847    -45.14685019     27.29085191
 C    -25.19300539    -44.29197815     26.00993391
 C    -23.85572295    -44.29767494     25.24623028
 C    -23.85079647    -43.41373887     23.98518596
 C    -22.46134393    -43.24743374     23.34225186
 C    -22.40006465    -42.15716169     22.25636434
 C    -21.05056145    -42.08355009     21.51810799
 C    -21.06233415    -41.16582975     20.28147919
 C    -19.69726013    -41.04356658     19.57917965
 C    -19.35591451    -39.61446120     19.11794110
 C    -18.06167450    -39.51609855     18.28916635
 C    -17.37479163    -38.13965687     18.36127898
 C    -16.29978047    -37.91871323     17.28093879
 C    -15.54842291    -36.58059253     17.40937094
 C    -14.74929631    -36.18783351     16.15289292
 C    -14.08095383    -34.80334966     16.24301956
 C    -13.34292693    -34.37934249     14.95961229
 C    -12.65024846    -33.00755133     15.05954006
 C    -11.83279446    -32.62621657     13.81136028
 C    -10.90894155    -31.41102530     14.01484483
 C    -10.21270711    -30.93102667     12.72780989
 C     -9.37809062    -29.64938050     12.90780541
 C     -8.66795870    -29.17900052     11.62481853
 C     -8.04331599    -27.77555326     11.73324956
 C     -7.34498275    -27.29958151     10.44585624
 C     -7.04243400    -25.78983449     10.41887160
 C     -6.10191774    -25.35978049      9.27778321
 C     -5.72036300    -23.86812527      9.30909901
 C     -4.86826067    -23.41422325      8.10930962
 C     -4.46853295    -21.92760726      8.15162563
 C     -3.81784133    -21.41672724      6.85270222
 C     -2.98078191    -20.13669613      7.03284621
 C     -2.46993851    -19.53130524      5.71218694
 C     -1.61956904    -18.26022603      5.89337582
 C     -1.01569490    -17.71872347      4.58428797
 C     -0.52686515    -16.26123607      4.67580833
 C      0.12981188    -15.73856655      3.38461050
 C      0.73898601    -14.33041759      3.51736364
 C      0.99333620    -13.62844747      2.17046204
 C      1.57903076    -12.21043804      2.30392031
 C      1.99224360    -11.57469592      0.96351473
 C      2.79030276    -10.26586054      1.11065933
 C      2.89025064     -9.44382708     -0.18775178
 C      3.05774557     -7.93008676      0.04058064
 C      2.86501248     -7.08001699     -1.22900014
 C      3.05965101     -5.56867264     -1.00639262
 C      3.15014991     -4.75038264     -2.30785772
 C      3.37626062     -3.24334854     -2.08577179
 C      3.64564831     -2.45300163     -3.37975094
 C      4.22192025     -1.04433832     -3.14485022
 C      4.44914220     -0.23712868     -4.43650915
 C      4.97265346      1.19145756     -4.19843917
 C      5.01511558      2.06262965     -5.46763425
 C      5.66843297      3.44153584     -5.25932174
 C      6.09083978      4.13836616     -6.56607344
 C      6.83619264      5.46913237     -6.35368134
 C      7.52341766      6.01130085     -7.62071532
 C      7.93258157      7.49293344     -7.52611206
 C      8.57844390      8.04756286     -8.80940784
 C      9.25846579      9.41718322     -8.62689679
 C     10.78559026      9.33891410     -8.44423642
 C     11.43175517     10.66362622     -7.99790839
 C     12.94516478     10.74554067     -8.27082115
 C     13.71188167     11.64506655     -7.28360365
 C     15.14597134     11.98510095     -7.73010495
 C     15.90763601     12.89660700     -6.74999084
 C     16.79114983     12.13525105     -5.74433660
 C     17.58303941     13.04810025     -4.78975961
 C     18.78328551     12.35819923     -4.11518872
 C     19.75451148     13.32994471     -3.41946549
 C     20.83408150     12.63485485     -2.56918397
 C     21.98560805     13.56231027     -2.13858782
 C     22.93970602     12.93735671     -1.10382693
 C     24.07887360     13.87246745     -0.65721173
 C     25.06646405     13.22791722      0.33315189
 C     26.40647133     13.97649636      0.45809094
 C     27.58621615     13.08238691      0.88279134
 C     28.96963204     13.71525475      0.64354508
 C     30.12763994     12.96781451      1.33053182
 C     31.51905726     13.31994088      0.77235187
 C     32.67994280     12.60113515      1.48457592
 C     34.06651417     12.90853697      0.88915677
 C     35.23638093     12.63673335      1.85307303
 C     36.60743021     13.08944807      1.31746754
 C     37.80132776     12.34450516      1.94298227
 C     39.17256243     12.79964972      1.40991668
 C     40.36344018     12.34041779      2.27161049
 C     41.58928956     13.26914455      2.19186158
 C     42.77928245     12.81124629      3.05548539
 C     44.06710913     13.62484354      2.82929524
 C     45.03512111     13.61117788      4.02694546
 C     46.43471447     14.16857373      3.70749548
 C     47.13399826     13.46737232      2.52812329
 C     47.37534835     11.96239541      2.74811110
 C     47.01721494     11.08642308      1.53319837
 C     45.50381608     10.95392582      1.28087243
 C     45.11050697      9.70253583      0.47406945
 C     43.59348464      9.54672291      0.25967363
 C     43.19014286      8.22917146     -0.42805713
 C     42.55773408      8.41699317     -1.81959661
 C     41.63471089      9.64498774     -1.92756667
 C     40.86522823      9.73510676     -3.25849680
 C     40.13953454     11.07637741     -3.47288364
 C     38.97527568     11.32190474     -2.49522437
 C     38.68361835     12.81054709     -2.22974374
 C     38.46369185     13.64313133     -3.50647231
 C     38.32276319     15.15533937     -3.25158814
 C     37.99352964     15.97515203     -4.51298120
 C     39.18869968     16.16689756     -5.46503280
 C     38.94349840     17.20340994     -6.57729104
 C     38.73982719     18.63991157     -6.06097611
 H     -0.36333333      0.00000000      1.02766186
 H     -0.36333333     -0.88998127     -0.51383093
 H     -0.36333333      0.88998127     -0.51383093
 H      1.88274777      1.02377325     -0.15004101
 H      1.88274777      0.87851631     -0.54665626
 H      3.09162054      1.41359556     -0.45780390
 H      3.05245348      1.43597171     -0.51558980
 H      3.64788732      2.19679805     -1.21909164
 H      3.99271545      2.48883165     -0.19535812
 H      5.10781088      2.98005849      0.00180567
 H      5.20018767      2.87212787     -0.82226833
 H      5.99008506      4.03736120     -0.49681815
 H      5.99220246      4.03330808     -0.47873225
 H      7.03526408      4.61705416     -1.12642240
 H      7.13986957      3.91227085     -1.97612638
 H      7.80470701      4.60074132     -2.88803176
 H      8.05685784      5.13287850     -1.82849122
 H      9.08436791      5.53826434     -2.67799729
 H      9.07465744      4.88697340     -3.34162931
 H      9.53531935      5.09630396     -4.54971079
 H     10.01898535      5.96496451     -3.49544775
 H     10.79758785      6.67376931     -3.89443469
 H     10.73709696      5.68139511     -5.10683289
 H     11.73804435      6.41662875     -5.65720012
 H     11.87180440      7.16976988     -4.64062502
 H     13.04508755      7.60156999     -5.06729321
 H     12.97512366      7.69489528     -4.96825204
 H     14.15410287      7.68951894     -5.19583273
 H     13.97875511      6.41695888     -5.36436740
 H     15.38059693      6.61132078     -5.09396279
 H     15.41080769      7.82310452     -5.16626176
 H     15.95040528      8.31855651     -6.04346128
 H     16.68284263      7.12581044     -4.56668283
 H     17.84910878      6.91635974     -4.42425619
 H     17.61908528      8.51087835     -4.33163723
 H     18.46186888      8.56338771     -5.47276403
 H     19.15304173      7.27841497     -4.01720499
 H     19.30761278      7.42762724     -2.74614637
 H     19.34268406      9.13584047     -3.24518967
 H     21.06741519      8.48158954     -4.99142252
 H     21.21136387      6.93674640     -4.11906643
 H     21.67605023      8.04074969     -1.99570697
 H     22.90444157      8.72790299     -3.46384783
 H     23.89234870      9.36124876     -3.31636055
 H     23.74750280      7.32392053     -3.41957350
 H     24.18070789      8.65773029     -1.41810976
 H     24.36816399     10.07234539     -2.48206042
 H     25.37312770     10.17869936     -3.95185575
 H     26.34284836      8.78588849     -3.41521212
 H     26.89553569      9.28456772     -1.33293110
 H     26.43257275     10.97989912     -1.61539069
 H     28.03872426     10.80021935     -3.66080056
 H     28.59904475      9.28357294     -2.91642747
 H     29.16669454      9.52279018     -0.97047425
 H     29.27433568     11.28577375     -1.19085793
 H     30.80867380     10.17712570     -3.23408075
 H     30.59261736      8.69394770     -2.27399258
 H     31.30557912      9.20376285     -0.26615079
 H     32.11417920     10.65046968     -0.91535949
 H     33.31182864      9.57355632     -2.62768326
 H     32.95416611      8.01364978     -1.84855827
 H     33.55962262      8.20209517      0.21766260
 H     34.50842322      9.65410112     -0.18199076
 H     35.76788475      9.22369777     -1.82370510
 H     35.52374930      7.47797563     -1.57648301
 H     35.75677792      6.75584472      0.19906134
 H     36.56833812      8.15963309      0.75601849
 H     37.43780340      9.29373574      0.59925397
 H     38.37604068      8.26469175     -0.50936948
 H     38.44614663      6.42819608      1.11740992
 H     37.89327312      7.59000962      2.34736392
 H     39.85353816      9.06375038      1.68239107
 H     40.48667686      7.64761232      0.80949070
 H     40.38198740      6.21494899      2.76520512
 H     40.16356557      7.67989445      3.75236943
 H     42.05592269      8.83918376      2.95907494
 H     42.65079086      7.31436773      2.25955039
 H     42.52689457      5.98636094      4.15832343
 H     42.35300242      7.45810475      5.14422318
 H     44.09778137      8.69923260      4.48660919
 H     44.82941111      7.26170362      3.73395056
 H     44.78109461      5.77440826      5.42946761
 H     44.47117600      7.10260790      6.57319084
 H     46.13971755      8.53985980      6.07194646
 H     47.03828381      6.70282261      5.84437139
 H     47.04883223      5.57130878      6.63967155
 H     46.65012386      6.70268766      7.95469251
 H     48.86177553      7.20397291      8.03175164
 H     49.05903446      6.59316027      6.09418362
 H     49.10429272      5.14097946      7.99467680
 H     49.92977427      6.90262982      8.67934059
 H     50.85996134      7.75486372      8.22769126
 H     51.42252723      6.32150625      7.33479000
 H     51.34580259      4.97656117      9.43573742
 H     51.23113719      6.49646557     10.30963397
 H     53.21805194      4.67077244      9.76234312
 H     51.72502309      3.95416720      8.87616478
 H     52.07494980      3.89164044     10.95602578
 H     53.72358309      4.51835917     10.71623720
 H     54.65198960      3.28589836      9.21298913
 H     53.92329417      2.14423285     10.71858207
 H     53.64925127      1.90618012     11.80709459
 H     55.18551615      2.78993983     11.64239589
 H     56.29774131      1.61961885     10.11485691
 H     55.16869475      0.26144382     10.33594761
 H     55.23339307     -0.01309617     12.58394192
 H     55.61031036      0.71506906     12.91596686
 H     55.66581072      0.32380450     14.12685242
 H     56.70167998      1.83683481     13.43250351
 H     57.57999226     -0.01505137     14.25142810
 H     55.97253478     -0.52899663     14.81729682
 H     55.48483127      1.48567536     15.99181100
 H     57.20510760      1.92413471     15.86270092
 H     57.77327544     -0.31204171     16.89608739
 H     56.05176506     -0.43655712     17.33101794
 H     56.48091138      1.88501682     18.46908021
 H     58.20727262      1.52514222     18.22734938
 H     59.17831105      0.21957770     18.51812711
 H     58.02418576     -0.35403411     19.74582046
 H     58.27550155      2.12600178     20.62465972
 H     58.48587375      2.47768821     20.08027707
 H     58.22903093      3.20477057     19.03593736
 H     59.96866984      2.94043004     18.76752121
 H     60.89016610      3.43499168     20.72007295
 H     59.38647688      4.24259581     21.22500954
 H     58.77592604      5.61122204     19.77003843
 H     60.39238567      5.57364871     19.02578500
 H     61.87079914      5.54097352     19.27738674
 H     61.54798757      6.38432199     20.81127811
 H     60.21267889      8.08271343     20.09445861
 H     60.71525084      7.75149610     18.41935169
 H     63.12211946      7.94095634     19.23641597
 H     62.44704098      8.64480187     20.72542141
 H     61.23563614     10.05234765     20.70720647
 H     61.71075138     10.47800980     19.04547729
 H     64.02891899     10.54078393     19.40057659
 H     63.72559519     10.56141225     21.15438268
 H     62.21031468     12.51240900     20.89072355
 H     62.86815023     12.69773199     19.24719855
 H     65.06208162     12.76932354     19.56065215
 H     64.80370299     13.06851057     21.29616195
 H     63.28426608     14.99375136     20.62420126
 H     63.96088724     14.81733986     18.98733552
 H     66.26063727     15.03014457     19.83774460
 H     65.56342122     15.61654771     21.36689070
 H     64.25946968     17.34881832     20.34001998
 H     64.43719140     17.10145768     19.18890411
 H     63.61890471     16.59360801     18.57616194
 H     65.15543639     17.03858359     17.79556357
 H     64.44207202     19.39187614     18.92380493
 H     62.87343268     18.58664185     19.16718741
 H     62.26756846     17.87372441     17.19699916
 H     63.47457827     18.93630692     16.43390520
 H     62.85944026     20.93176424     17.47120527
 H     61.33674748     20.16331556     17.98028287
 H     60.39843539     19.97813461     15.98396443
 H     62.14368476     20.61723474     15.14016455
 H     59.47585357     20.07005278     16.80363646
 H     60.03967344     18.74554452     15.75671159
 H     59.89759895     20.55509986     13.84308906
 H     58.89190208     21.23860521     14.65467723
 H     60.07298353     18.57910303     13.47745501
 H     60.69061434     20.19311766     13.05112693
 H     58.71435827     21.00465046     12.06233027
 H     58.09730533     19.33582475     12.01200051
 H     60.08867818     18.52242950     10.84962028
 H     60.50934459     20.22061695     10.52180051
 H     58.37913122     20.73997927      9.52052283
 H     58.06014067     18.99155407      9.42294720
 H     59.83855218     18.17876925      8.38721613
 H     60.28595806     19.82087443      7.86607775
 H     57.57378791     19.19992759      7.13793427
 H     57.49414223     18.41966359      7.74359176
 H     57.28930546     17.72466345      8.83315580
 H     58.24751676     16.52422956      7.93368027
 H     56.67823570     16.91543202      5.96867791
 H     55.61758496     17.76059075      7.12149767
 H     55.24943162     16.49581117      8.77400677
 H     55.82128911     15.08802948      7.84697043
 H     54.60207760     15.26321489      5.95174664
 H     53.52037717     16.41810440      6.76686692
 H     52.76000558     16.41523522      8.26721131
 H     53.06764873     15.10664033      8.66998824
 H     53.83141935     14.82240267      9.47186717
 H     52.92491369     13.56642336      8.59492356
 H     50.77060842     14.63421323      8.79478481
 H     51.05054462     15.01355900      9.90951311
 H     51.13702974     13.04959190      7.62678046
 H     50.23074531     14.57578717      7.75960814
 H     48.95977291     13.38497946      9.68081224
 H     49.71725547     11.88949585      9.08246818
 H     48.88283445     12.21561670      6.82088064
 H     47.78326561     13.45471129      7.47192567
 H     46.70251509     12.62694581      9.09273860
 H     47.15627539     10.98418477      8.57921699
 H     46.23994741     11.67138923      6.26647755
 H     45.52822677     13.07312793      7.10125237
 H     44.41292385     11.40568880      8.67629061
 H     44.87099528     10.15251233      7.49816245
 H     44.08480136     10.84025566      5.58042315
 H     43.04217386     12.01254060      6.42122191
 H     41.94839485     11.24489945      7.91157994
 H     42.20872698      9.59631744      7.29297572
 H     41.35584666     10.63828780      5.04085826
 H     40.84788772     12.02152814      6.03930233
 H     39.53409580     10.68128158      7.54890990
 H     39.64109360      9.34889526      6.37351004
 H     38.84305558     10.57660334      4.51325434
 H     38.27611951     11.83445653      5.63782337
 H     37.06205542     10.78817969      7.12014262
 H     36.97049482      9.36751453      6.05168868
 H     36.32900825     10.04115322      4.12563030
 H     35.78507308     11.58256199      4.83022963
 H     34.45690925     10.24367072      6.51927070
 H     34.74847613      8.83020600      5.47745839
 H     34.22710873      9.14041653      3.53965503
 H     33.24864428     10.55408148      4.00055134
 H     31.98128300     10.28710123      5.49244248
 H     32.08640110      8.52004188      5.30611450
 H     31.59949473      8.69005002      2.89199798
 H     31.09439971     10.37077883      3.18914499
 H     29.65828357     10.36329769      4.76349314
 H     29.41884098      8.61157769      4.55755396
 H     29.01566092      8.58048816      2.27222233
 H     28.76930363     10.34271196      2.31850453
 H     27.30634469     10.70200104      3.88519614
 H     26.86087160      8.97871052      3.87569950
 H     26.45005818      8.41737083      1.85700258
 H     26.31810858     10.13043202      1.39194634
 H     24.86403364     10.92942062      2.90581804
 H     24.40148094      9.26380432      3.33012218
 H     23.92490300      8.52513992      1.15121973
 H     23.91783135     10.22235939      0.61487773
 H     22.27809230     10.82002294      2.36469803
 H     21.99947468      9.07666979      2.59132259
 H     21.53160137      9.05566683      0.04065051
 H     21.47199150     10.83013799      0.16700494
 H     19.93706155     11.11872083      1.80225395
 H     19.42741307      9.42437219      1.60806906
 H     19.02690963      9.12177329     -0.48508816
 H     18.97533890     10.88235227     -0.74193203
 H     17.43372179     11.39053664      0.95139897
 H     17.02485379      9.66107320      1.05164774
 H     16.60552926      9.80424572     -1.48454293
 H     16.66247765     11.57069306     -1.27314917
 H     14.92980651     11.51352881      0.45887119
 H     14.57826841      9.84291286     -0.04484496
 H     14.25038566     10.05701728     -2.25209589
 H     14.08803289     11.81811380     -2.05098074
 H     12.29484252     11.14278109     -0.26109067
 H     12.41176168      9.51274474     -0.96648282
 H     12.01621186      9.93831927     -3.15418285
 H     11.38969394     11.54586427     -2.71652881
 H      9.83376842     10.37505908     -1.08293450
 H     10.27119671      8.86262671     -1.91327869
 H      9.77303631      9.45547698     -4.08037141
 H      8.86208258     10.85566403     -3.46563065
 H      7.63045533      9.03559003     -2.03240034
 H      8.42251463      7.85850647     -3.10728778
 H      7.45341025      9.01507770     -5.09167131
 H      6.38197046      9.87571392     -3.96048222
 H      5.40674047      8.37299194     -2.75888045
 H      5.88251146      7.11556873     -3.92541186
 H      5.03244575      8.20450497     -5.84705622
 H      4.12657662      9.30029070     -4.77611205
 H      3.01024218      8.06513630     -3.41019424
 H      3.38776431      6.86863478     -3.79896690
 H      4.12928675      6.21544512     -3.22707866
 H      3.41776835      5.62407915     -4.74770174
 H      1.57741332      5.69152210     -5.06974087
 H      1.24903409      5.86738225     -3.32919298
 H      2.59965200      3.98220653     -2.69219275
 H      2.62192965      3.48736964     -4.40184383
 H      0.46851042      3.44697910     -4.95709706
 H      0.02567046      3.47877763     -3.23339514
 H      1.36561266      1.65713091     -2.56630613
 H      1.55861375      1.21945145     -4.28078970
 H     -0.73410995      1.16509229     -4.81958816
 H     -1.10540937      1.15968670     -3.07879116
 H      0.48994097     -0.88105951     -2.97838572
 H      0.37422292     -0.89706847     -4.75451064
 H     -1.69549999     -0.94334940     -5.27755696
 H     -2.24302428     -1.05044860     -3.91259914
 H     -2.74078511     -0.30393804     -3.20893860
 H     -2.44157389     -1.95274203     -2.60878470
 H     -3.16523272     -3.36513426     -3.95846795
 H     -4.14903588     -2.12122901     -4.76661257
 H     -5.10568664     -1.49354832     -2.52536643
 H     -4.40235190     -3.00719285     -1.90692714
 H     -5.77180776     -4.08351923     -3.86976569
 H     -6.58452196     -2.50364957     -3.97827450
 H     -7.28357267     -2.31364395     -1.77587643
 H     -6.94640231     -4.04625730     -1.54645582
 H     -8.13627159     -4.92233075     -3.29846418
 H     -8.98375023     -3.36720845     -3.47634403
 H     -9.72981038     -3.00455939     -1.37717166
 H     -9.40154239     -4.70754550     -0.97674054
 H    -10.76415621     -5.39926029     -2.96905000
 H    -11.35678286     -3.72196869     -3.03031340
 H    -11.90973813     -4.56216195     -0.45307437
 H    -11.50453890     -6.16006307     -1.12448502
 H    -12.55332499     -6.64224807     -2.77981045
 H    -13.75434808     -5.37834085     -2.42155249
 H    -14.24466557     -5.89580490     -0.24346805
 H    -13.46033254     -7.47858072     -0.46234946
 H    -15.04462607     -7.72283184     -2.50054226
 H    -15.91072189     -6.31832212     -1.83308656
 H    -16.22292367     -7.36801087      0.33587616
 H    -15.75651757     -8.91375524     -0.41339438
 H    -17.90648378     -7.73880971     -1.87685049
 H    -17.93330687     -6.68243078     -0.44450600
 H    -18.20111071     -8.56136609      1.08554782
 H    -18.60018403     -9.57051964     -0.32534419
 H    -20.38827589     -7.80857540     -0.86594405
 H    -20.10468340     -7.18601384      0.77730245
 H    -20.52283396     -9.38715377      1.77762113
 H    -21.20702895     -9.89043244      0.21337868
 H    -22.76045993     -7.99108138      0.18329212
 H    -22.37921125     -7.74207981      1.90402287
 H    -22.72363826     -9.68812377      2.85170782
 H    -23.63229895    -10.22965075      1.42015239
 H    -25.07067979     -8.19733935      1.56457473
 H    -24.40317555     -7.94518836      3.19525699
 H    -25.14129166    -10.32249433      3.73394279
 H    -26.09425613    -10.25227349      2.23221231
 H    -27.16664897     -8.13413368      3.16682383
 H    -26.44455727     -8.58906463      4.72883794
 H    -27.25389960    -10.72337595      4.93834771
 H    -28.43141103    -10.38363304      3.64749209
 H    -29.08349499     -8.33652927      5.10024878
 H    -28.13223633     -9.11099318      6.39004693
 H    -29.61187940    -11.17199900      6.02484293
 H    -30.66954855    -10.10208193      5.07359108
 H    -31.11121664     -8.41077762      6.39031715
 H    -30.53532565     -9.34471681      7.79187836
 H    -32.12738937    -11.19320610      7.06925200
 H    -32.86485582     -9.98874854      5.98588139
 H    -33.20679444     -8.45554766      7.92274498
 H    -32.85168148     -9.84555805      8.97632581
 H    -34.08290739    -11.46427142      8.45066902
 H    -35.16098331    -10.37568434      7.54458008
 H    -35.33096790     -8.90872688      9.57210403
 H    -34.60183025    -10.24816753     10.48999493
 H    -36.19291865    -11.88663910      9.79764203
 H    -37.23085953    -10.56413566      9.21289420
 H    -37.27688510     -9.31317341     11.19533066
 H    -36.62723974    -10.72549379     12.06226706
 H    -37.29694205    -12.41494071     11.93660887
 H    -38.84176742    -11.78439442     11.31677612
 H    -39.36421705    -10.19210259     12.79183361
 H    -38.15870220    -10.85071547     13.92374778
 H    -38.98010848    -13.08742347     13.85850158
 H    -40.46183760    -12.47239569     13.08747221
 H    -40.61361404    -10.86005271     15.08747836
 H    -39.37102522    -11.88020373     15.85137074
 H    -40.41767954    -13.93192843     15.67311599
 H    -41.94520879    -13.09455840     15.30742146
 H    -42.14075916    -11.63732880     16.98324038
 H    -40.89761117    -12.52561650     17.89636397
 H    -42.33587760    -14.61436499     17.48867651
 H    -43.61612930    -13.48928337     16.97543815
 H    -43.50145075    -12.22375231     19.05769223
 H    -42.55008250    -13.56267571     19.74358526
 H    -43.77089724    -15.35715963     19.36929126
 H    -45.18317558    -14.32849764     19.02930442
 H    -44.82057879    -13.16441798     21.22231406
 H    -43.70914701    -14.49100631     21.63842635
 H    -45.33299664    -16.22016953     21.19701857
 H    -46.59049409    -14.96044327     21.18949628
 H    -45.80371271    -14.20624653     23.44848727
 H    -44.88009579    -15.72546113     23.53325423
 H    -45.77943070    -17.38638717     23.18537474
 H    -47.36374069    -16.62167208     23.45637171
 H    -46.70918564    -15.67333221     25.58861138
 H    -45.29304863    -16.75144771     25.56648452
 H    -45.83759647    -18.71356617     25.23491371
 H    -47.52789705    -18.33999388     25.64915320
 H    -47.86193005    -17.35952598     27.29605679
 H    -46.24021627    -17.76820137     27.90539701
 H    -45.89197438    -19.81866400     27.72164880
 H    -47.63300400    -20.11644019     27.50162185
 H    -48.73633087    -19.18705333     28.99742024
 H    -47.27213710    -18.99883464     29.99189347
 H    -46.55802968    -21.23152810     29.90520837
 H    -48.16593642    -21.68669177     29.29224131
 H    -49.10612511    -20.46842749     31.34831472
 H    -47.43814362    -20.47515745     31.96965128
 H    -47.03018908    -22.76364379     31.79626540
 H    -48.77780173    -23.02955639     31.58792150
 H    -49.22097865    -21.74679760     33.68106532
 H    -47.48107960    -21.88277440     34.03110568
 H    -47.33155080    -24.22421271     33.83461622
 H    -49.10798663    -24.30750641     33.90947975
 H    -49.70900686    -23.20557126     35.66537551
 H    -48.04073328    -23.25956355     36.28361072
 H    -48.09092119    -25.76954472     35.94652401
 H    -49.85179878    -25.60529323     35.74503397
 H    -49.86755168    -24.42288703     38.00615897
 H    -48.20653973    -25.02881143     38.21149186
 H    -48.46413127    -27.23833220     37.86222160
 H    -50.22391336    -27.05539078     38.05707055
 H    -50.33347755    -25.96132581     40.04417627
 H    -48.63409539    -26.38796495     40.35777790
 H    -48.28526496    -28.39732317     40.11128987
 H    -50.03053516    -28.73651423     40.19642524
 H    -50.55890425    -27.62959209     42.13367166
 H    -48.82631851    -27.53651390     42.53084892
 H    -48.07570574    -29.57792264     42.36216330
 H    -49.74301276    -30.20043072     42.39110535
 H    -50.23563072    -28.94578378     44.45862295
 H    -48.48289047    -28.68715570     44.62973633
 H    -47.95894924    -31.04385758     44.47472553
 H    -49.68683818    -31.38602078     44.73083254
 H    -50.38562264    -30.39886430     46.42629837
 H    -48.71715508    -30.13494814     46.98739634
 H    -47.87393236    -32.24012641     46.85827279
 H    -49.52904402    -32.88035335     46.72049934
 H    -50.31968316    -31.74524366     48.69595150
 H    -48.62187703    -31.42949995     49.12725989
 H    -47.73213426    -33.50496712     49.03003486
 H    -49.37208306    -34.19691552     49.03651832
 H    -50.69929189    -33.77318237     50.16265720
 H    -49.52925137    -33.10382183     51.32508066
 H    -48.16914808    -35.16238330     51.22329512
 H    -49.54820418    -35.94285230     50.41253061
 H    -50.95450859    -35.18198915     52.41454525
 H    -49.40766596    -34.83072851     53.22210980
 H    -48.58568128    -37.10892405     52.83458473
 H    -50.25528194    -37.56626850     52.42041524
 H    -51.18869484    -36.71236958     54.47065095
 H    -49.53521531    -36.62518578     55.12385159
 H    -49.22414200    -39.04932969     54.52755693
 H    -50.98709652    -39.12038000     54.29258909
 H    -51.79462313    -38.32704259     56.20888431
 H    -50.20028147    -38.54725174     56.96904830
 H    -50.35765563    -40.97787952     56.10516197
 H    -52.07331708    -40.62334592     55.79039475
 H    -52.80793765    -39.87559562     57.75795322
 H    -51.35307962    -40.53113998     58.54656996
 H    -50.76169857    -42.26970950     58.26899202
 H    -52.36545883    -42.74964313     57.66410905
 H    -53.76518029    -42.01437340     59.21158469
 H    -52.40649327    -41.80703507     60.34262274
 H    -51.42283444    -43.84308830     60.24498204
 H    -52.88165155    -44.49790946     59.46310702
 H    -54.15522434    -43.49146552     61.47453714
 H    -52.55559019    -43.29593766     62.23031892
 H    -52.09472528    -45.72200685     61.88456468
 H    -53.82900176    -45.91409424     61.53291973
 H    -54.21469817    -44.78071837     63.81802403
 H    -52.48185005    -45.06145908     64.11245349
 H    -53.12037162    -47.55314973     63.57272207
 H    -54.80154113    -47.00824749     63.72285910
 H    -55.77476291    -46.58768276     63.29400855
 H    -55.64098897    -46.49687485     65.06661260
 H    -55.07036585    -49.00140805     64.97574867
 H    -55.64100243    -48.94984936     63.29052398
 H    -57.73421738    -48.04263348     63.63076480
 H    -57.58478021    -48.40594940     65.36683414
 H    -57.04994217    -50.48726406     65.52837480
 H    -57.53985775    -50.75615616     63.83842023
 H    -59.76292436    -49.69265162     64.38545829
 H    -59.30980062    -49.85800113     66.09881905
 H    -58.74846118    -51.77028727     66.57440436
 H    -59.50681114    -52.39009211     65.08812916
 H    -61.62277605    -51.17702068     65.75505533
 H    -60.88381528    -50.97832919     67.36214130
 H    -60.30618769    -53.01585292     67.96290501
 H    -61.35002816    -53.69039452     66.68867687
 H    -63.03665495    -53.25275304     66.33800430
 H    -63.22223774    -52.57552883     67.97360604
 H    -62.29289933    -54.74937049     68.88317766
 H    -62.54819374    -55.42194207     67.25506867
 H    -64.56824739    -55.06026344     66.69235616
 H    -64.99433563    -54.71291395     68.38530147
 H    -64.30474202    -56.26529211     69.62103651
 H    -64.09859032    -57.32625844     68.20678102
 H    -65.87600212    -57.32258204     67.07070840
 H    -66.77350453    -56.62940336     68.44266300
 H    -66.30404418    -57.91180372     70.14946392
 H    -65.68136130    -59.16211445     69.04617078
 H    -67.11762675    -59.54859490     67.55128727
 H    -68.37317295    -58.74423104     68.52333109
 H    -68.36436686    -59.52254687     70.47425807
 H    -67.41325124    -60.92576413     69.93146248
 H    -68.43162073    -61.74506703     68.21605596
 H    -69.89741724    -60.82533360     68.63294643
 H    -69.57383557    -61.96403325     70.97440733
 H    -68.40180980    -63.01387499     70.14226877
 H    -69.72247819    -63.79518273     68.43180391
 H    -71.16066969    -63.20909946     69.30150402
 H    -70.30268363    -64.55260572     71.30718998
 H    -69.18184060    -65.32863423     70.16274369
 H    -71.48860377    -65.82891712     68.91169788
 H    -72.23740595    -65.30755340     70.44001128
 H    -71.07757222    -66.81765901     71.83870414
 H    -70.58914834    -67.72574702     70.38781305
 H    -73.03494183    -67.84743413     69.74506044
 H    -73.39335054    -67.30583675     71.40231182
 H    -72.17324666    -68.96028479     72.53216954
 H    -72.08379056    -69.88395350     71.01325532
 H    -74.47817682    -69.83231455     70.65919575
 H    -74.65782680    -69.29912584     72.34789416
 H    -73.32766464    -71.24669193     73.12742125
 H    -73.53728489    -71.93759944     71.50046924
 H    -76.09408679    -71.52991726     72.06633091
 H    -75.52204545    -71.26512797     73.73093958
 H    -74.37710298    -73.34936104     73.91214188
 H    -75.23966639    -73.89748231     72.45481072
 H    -77.31224726    -73.12883371     73.99785180
 H    -76.09365996    -73.07649443     75.29422067
 H    -75.83438678    -75.62703229     74.40130796
 H    -77.35200111    -75.27687928     73.53961993
 H    -78.73085664    -74.59174900     75.12198272
 H    -77.63753328    -75.25123141     76.36214143
 H    -77.02935333    -77.09140663     76.13942825
 H    -78.34764108    -77.42119038     74.98980799
 H    -80.09164269    -76.59853037     76.38233699
 H    -78.95423701    -76.63074272     77.75110920
 H    -78.54562192    -79.08991339     77.12769843
 H    -79.98785670    -78.94534840     76.09458350
 H    -81.43003834    -78.16088280     77.82346386
 H    -80.20830485    -78.67321984     79.01222149
 H    -80.25832009    -80.96901891     77.94468572
 H    -81.73914579    -80.43829386     77.11176746
 H    -83.02278813    -79.73568619     78.81698608
 H    -81.94746867    -80.57307927     79.96185619
 H    -82.12416416    -82.68753414     78.75042567
 H    -83.50505880    -81.99119656     77.86922727
 H    -84.52932370    -81.48782943     80.15583274
 H    -83.28269874    -82.56610285     80.82778461
 H    -84.13745602    -84.33709935     79.19427619
 H    -85.54307577    -83.27278437     78.94987202
 H    -86.08609346    -83.12969510     81.28514645
 H    -84.99458561    -84.50645747     81.57045800
 H    -84.90217717    -86.03276755     80.73664377
 H    -86.56537449    -85.82250469     80.13845411
 H    -87.48350502    -85.32212399     82.30305196
 H    -85.97445776    -85.92945963     83.02567667
 H    -85.34881744    -87.68792427     82.46069981
 H    -86.96096887    -88.09145772     81.82320848
 H    -87.26647284    -87.20243187     84.48881305
 H    -85.49521872    -87.37769659     84.47439913
 H    -84.67979333    -88.98721864     83.93475979
 H    -86.20019568    -89.87772632     84.18702836
 H    -86.83546174    -89.28824094     86.22308324
 H    -85.20493423    -88.65264673     86.54814738
 H    -84.10564257    -90.70687543     85.88579591
 H    -85.69207346    -91.51069304     85.95915074
 H    -85.85902172    -90.59820190     88.35143036
 H    -84.12390845    -90.22810116     88.20764564
 H    -83.81501704    -92.70097273     87.59838656
 H    -85.48148290    -92.93276009     88.17927622
 H    -85.61282711    -92.13215315     90.15065238
 H    -83.83766425    -92.12076889     90.28078266
 H    -83.42905839    -94.32251819     89.67024792
 H    -85.15559687    -94.68192091     89.91141431
 H    -85.92492730    -94.10531150     91.64349111
 H    -84.29818037    -93.94927022     92.34890743
 H    -83.19358154    -95.69390635     91.98769131
 H    -84.68490271    -96.57998439     91.58882604
 H    -85.81745761    -95.93697448     93.61858751
 H    -84.24522840    -95.40658235     94.26282826
 H    -83.00453433    -97.29731506     93.93305564
 H    -84.50605351    -98.21670165     93.67145457
 H    -85.71065924    -97.69347780     95.49596910
 H    -84.24035777    -97.06351206     96.27675295
 H    -82.82664956    -98.82638937     96.02595746
 H    -84.21530824    -99.86520707     95.62501917
 H    -85.32877795    -99.10836181     97.75200165
 H    -83.74713212    -98.44898506     98.23354648
 H    -82.37708078   -100.19181262     98.00866998
 H    -83.78166718   -101.28275547     97.93623122
 H    -84.61530101   -100.26998816    100.08377952
 H    -82.99981640    -99.54322466    100.25782249
 H    -81.51321590   -100.97617453    100.08853903
 H    -82.70139791   -102.27420340    100.35614178
 H    -83.75229432   -101.62302587    102.21361745
 H    -82.44852348   -100.45529424    102.53742467
 H    -80.64455386   -101.92492177    102.37546358
 H    -81.78407892   -103.28820548    102.48132593
 H    -82.83944735   -102.51957205    104.48976105
 H    -81.48669546   -101.38328168    104.70695493
 H    -79.78785547   -103.11414904    104.37174978
 H    -80.88768051   -104.22179368    104.76875526
 H    -79.49328938   -101.43076443    105.35688478
 H    -78.87317768   -102.48489418    104.06361814
 H    -78.40342952   -104.17687090    105.96252175
 H    -78.69509897   -102.81851729    107.07520817
 H    -76.91243086   -101.53287269    105.79700161
 H    -76.47069465   -103.09121072    105.05655898
 H    -76.60093529   -103.77218914    104.15107792
 H    -75.80198286   -104.42665943    105.60077110
 H    -74.26152477   -102.37745281    105.47162625
 H    -74.92384111   -102.12755622    103.83848344
 H    -74.30392842   -104.43644716    103.19219575
 H    -73.30088451   -104.49450594    104.66148087
 H    -72.10586668   -102.44648271    104.03467462
 H    -72.79534583   -102.62630982    102.40355618
 H    -72.12620491   -104.80084271    101.96990418
 H    -70.99703528   -104.70035147    103.34218116
 H    -69.85556109   -102.81376978    102.86826709
 H    -70.47992771   -102.86562209    101.20221057
 H    -69.47635352   -105.32356509    101.32339136
 H    -68.68505940   -104.75450802    102.81278530
 H    -67.61569303   -102.88032491    101.87042974
 H    -67.95463682   -103.54506784    100.25441594
 H    -66.68658399   -105.62618474    101.45798128
 H    -66.28262483   -104.41281096    102.69604741
 H    -65.28361847   -102.82356238    101.36297009
 H    -65.16091629   -104.02687512    100.05711815
 H    -64.00115657   -105.54934705    101.74184957
 H    -63.85151036   -104.10889569    102.77672760
 H    -62.73177372   -102.87638973    100.93171467
 H    -62.53809331   -104.44436274    100.11182735
 H    -61.39445978   -104.90994277    102.54481261
 H    -61.50350357   -103.14121957    102.71212774
 H    -60.39177131   -102.49177188    100.81379292
 H    -59.75254517   -104.14277741    100.64595765
 H    -60.52435495   -101.41891410    102.07520144
 H    -60.80999126   -101.63843703    100.33207544
 H    -58.76196816   -101.97737915     99.51926932
 H    -58.06185643   -101.35862449    101.03427853
 H    -59.53357735    -99.29191914    100.69301733
 H    -59.79675939    -99.89225263     99.03814525
 H    -58.04246056   -100.28565404     98.06092496
 H    -57.13402806    -99.32005564     99.24862728
 H    -58.43124752    -97.38078219     99.14732849
 H    -59.17517869    -97.99337225     97.65081036
 H    -56.77807073    -98.27068643     96.77357733
 H    -56.27888612    -97.27694889     98.16338562
 H    -57.44443664    -95.47489811     98.11292846
 H    -57.90174229    -95.80267830     96.42423123
 H    -56.13042946    -96.19621795     95.31509026
 H    -55.14030830    -95.49119475     96.61542447
 H    -56.01961117    -93.54036118     97.03274522
 H    -56.91752741    -93.60895854     95.49739266
 H    -55.26960147    -94.07962652     94.02428556
 H    -54.05971511    -93.63144018     95.25048728
 H    -55.41204702    -91.41539879     95.41187058
 H    -56.21279496    -91.94942107     93.91457648
 H    -54.24437402    -92.28067311     92.65404221
 H    -53.34594572    -91.36479941     93.88784471
 H    -54.51534367    -89.47126520     94.06124203
 H    -55.34789159    -89.85022557     92.53431057
 H    -53.37417183    -90.21402955     91.26277033
 H    -52.44252683    -89.44176654     92.56811094
 H    -54.11351073    -87.47468248     92.26314404
 H    -54.59441452    -88.28942505     90.75543294
 H    -52.21109895    -88.28285155     90.00448232
 H    -51.89184228    -87.12406791     91.31732744
 H    -53.77558819    -85.70882546     90.29582958
 H    -53.65035699    -86.77695268     88.87748968
 H    -51.27381802    -86.38293124     88.60479521
 H    -51.43439294    -85.00565501     89.72085638
 H    -53.29939134    -84.22937967     88.07325648
 H    -52.65356882    -85.46861820     86.97077392
 H    -50.47065360    -84.90607453     86.86915297
 H    -50.85618417    -83.32012136     87.57935392
 H    -52.58888891    -82.96319351     85.81456286
 H    -51.86514293    -84.33971807     84.94874617
 H    -49.64811209    -83.47789301     84.93924501
 H    -50.30991817    -81.89121229     85.40046478
 H    -51.89016219    -81.83244290     83.57504328
 H    -50.99537038    -83.17930728     82.83102002
 H    -48.91042062    -81.69720941     83.06704973
 H    -50.04010016    -80.36467500     83.40828697
 H    -51.26357052    -80.79840246     81.30492063
 H    -49.89273263    -81.81915190     80.80778810
 H    -48.41394561    -79.77622337     81.27959656
 H    -49.92685319    -78.84065458     81.34353681
 H    -50.80062826    -79.45149685     79.28101600
 H    -49.20045771    -80.07946690     78.81909125
 H    -48.00563975    -78.08703627     79.33517060
 H    -49.56131625    -77.22487494     79.40456166
 H    -50.02986205    -78.13957220     77.07217993
 H    -48.30697010    -78.58338289     77.01793907
 H    -47.05002190    -77.07437832     77.45151301
 H    -48.34021248    -75.88068247     77.17086176
 H    -49.10127389    -76.51158427     75.13363334
 H    -47.63832588    -77.49959366     74.90584559
 H    -46.28465654    -75.41606591     75.45340097
 H    -47.79975211    -74.50577911     75.24332944
 H    -48.57239237    -75.05472118     73.29327635
 H    -46.98801238    -75.73136587     72.84588537
 H    -45.93067474    -73.54409588     73.51634559
 H    -47.57567078    -72.86441819     73.53346050
 H    -48.63968691    -73.17190732     71.87665106
 H    -47.16209459    -73.56250614     70.96428044
 H    -45.90690466    -71.68796779     71.53987377
 H    -47.39416567    -70.90904089     72.13113871
 H    -48.64955737    -71.23172989     70.14098104
 H    -47.13166852    -71.62356728     69.29792495
 H    -46.10017398    -69.51405999     70.06277948
 H    -47.73142596    -68.97277285     70.52569619
 H    -48.57443691    -69.44109887     68.24399535
 H    -46.87574298    -69.56723756     67.72747369
 H    -45.84625885    -67.81984887     68.34405732
 H    -47.39366595    -66.98170606     68.61110520
 H    -48.71366812    -67.04491082     67.17935365
 H    -47.46311488    -67.51859193     66.00461562
 H    -45.82779171    -66.18436224     66.17187255
 H    -46.83997537    -65.02877833     67.07097028
 H    -48.33722807    -65.48997246     64.84266623
 H    -46.84988951    -66.26177376     64.24232182
 H    -45.28001486    -64.77181280     64.44014701
 H    -46.50487784    -63.49617101     64.64192751
 H    -47.93050473    -63.54919066     63.16885094
 H    -46.88132676    -64.56837584     62.15457592
 H    -44.96382185    -63.20646952     62.26777405
 H    -45.97986006    -61.89176237     62.90611421
 H    -47.45384764    -62.27626277     60.82965771
 H    -46.10603548    -63.25521620     60.20250602
 H    -44.44412012    -61.58018416     60.43989689
 H    -45.74216854    -60.38219271     60.65933581
 H    -46.68690771    -61.28078949     58.43729023
 H    -45.11574902    -62.09293678     58.23693103
 H    -43.65464625    -60.41701774     58.46886605
 H    -44.97357039    -59.24258482     58.24657548
 H    -45.65622342    -60.35797245     56.14065966
 H    -44.10242358    -61.22492279     56.18934050
 H    -42.70662436    -59.35703756     56.38313016
 H    -44.07636571    -58.32416027     55.90853580
 H    -44.64117176    -59.46463094     53.93555979
 H    -43.07297602    -60.30318324     54.01210267
 H    -41.70167145    -58.42988316     54.20072383
 H    -43.07232665    -57.41167981     53.69789888
 H    -43.81415601    -58.29677085     51.84803329
 H    -42.30968148    -59.23394246     51.68514548
 H    -40.83045091    -57.40206359     51.91443211
 H    -42.20923558    -56.30721184     51.65267046
 H    -43.13513058    -57.02026926     49.78589993
 H    -41.67103870    -57.96287166     49.41684386
 H    -40.32702558    -55.84268295     49.74987010
 H    -41.87787225    -54.97096345     49.69289300
 H    -42.32668745    -56.08754612     47.46572568
 H    -40.60082219    -55.07823152     47.50887641
 H    -39.82683008    -54.28977268     47.79063725
 H    -41.46205117    -53.72619762     47.37027809
 H    -41.12653297    -55.15568414     45.22161252
 H    -39.41305625    -55.22884714     45.69796467
 H    -38.72555234    -53.23195924     45.99811682
 H    -40.14005801    -52.59745285     45.12356436
 H    -39.45003865    -54.22964548     43.24384867
 H    -37.91326131    -54.40032500     44.12558025
 H    -37.37205878    -52.12237925     44.24059149
 H    -38.61014473    -51.79986664     43.00309585
 H    -37.66134241    -53.45676599     41.47404049
 H    -36.20865327    -53.47523845     42.50244688
 H    -35.84795161    -51.12261625     42.44242042
 H    -36.99294920    -51.02679232     41.08298488
 H    -35.88961272    -52.67720734     39.75248218
 H    -34.48071501    -52.53619040     40.83108690
 H    -34.59080773    -50.01099979     40.32911031
 H    -35.71046905    -50.44388648     39.01486745
 H    -34.26014992    -52.01251437     37.97008284
 H    -32.92206390    -51.35832208     38.94467246
 H    -33.54322141    -49.05931501     38.05526835
 H    -34.54835239    -49.91018622     36.85777239
 H    -33.03518953    -51.33831389     35.94926001
 H    -31.71933674    -50.38944317     36.68168233
 H    -32.42448666    -48.29159547     35.80594374
 H    -33.49854361    -49.16870226     34.68999034
 H    -31.34944716    -50.45797170     34.01335101
 H    -30.46653681    -49.19040787     34.89766878
 H    -31.27344056    -47.31661565     33.90063420
 H    -31.91949333    -48.31525705     32.57639940
 H    -29.87049883    -49.43026818     32.10090919
 H    -29.02814432    -48.20431092     33.07852586
 H    -29.61230536    -46.27901497     32.36485089
 H    -30.24344434    -47.00862440     30.86898982
 H    -28.20463786    -48.20609014     30.38854000
 H    -27.38872568    -47.19359655     31.60402785
 H    -28.02617245    -45.10859663     30.73794962
 H    -28.50871543    -45.92069061     29.22933360
 H    -26.67520479    -47.09042621     28.69292095
 H    -25.72704161    -46.12274827     29.84741333
 H    -26.71622126    -44.09070232     28.54718206
 H    -27.21843823    -45.28731314     27.32891799
 H    -25.00377800    -46.19287657     27.04476926
 H    -24.37029386    -44.77083943     27.90777267
 H    -25.61211227    -43.31528409     26.25183912
 H    -25.82481020    -44.78570129     25.27158430
 H    -23.48881199    -45.32324496     25.20521238
 H    -23.14518234    -43.67924522     25.79466142
 H    -24.32449744    -42.46331925     24.23097030
 H    -24.42865881    -43.91817766     23.21077223
 H    -21.97704992    -44.22356809     23.31539969
 H    -21.87592859    -42.56832385     23.96208945
 H    -22.93063120    -41.27831503     22.62273529
 H    -22.89676433    -42.53512804     21.36275880
 H    -20.73562479    -43.09896245     21.27758224
 H    -20.31998920    -41.62475024     22.18434135
 H    -21.58171488    -40.24408245     20.54363481
 H    -21.60365331    -41.67343568     19.48309971
 H    -19.25978562    -42.03913472     19.50461347
 H    -19.05397173    -40.40873175     20.18849465
 H    -19.60892840    -38.92479047     19.92319773
 H    -19.95910627    -39.38450568     18.23965859
 H    -18.05639450    -40.32981801     17.56395413
 H    -17.21309534    -39.62572306     18.96444101
 H    -17.37275464    -37.81165679     19.40075567
 H    -17.95132760    -37.43695590     17.75968308
 H    -16.69344273    -38.27287927     16.32820775
 H    -15.41900078    -38.50197713     17.54950974
 H    -15.29405729    -36.42965430     18.45847331
 H    -16.21182631    -35.78180863     17.07779859
 H    -15.37367457    -36.37103978     15.27842894
 H    -13.85980384    -36.81579592     16.10223356
 H    -13.61724231    -34.70987902     17.22502509
 H    -14.85313469    -34.04210750     16.13190210
 H    -13.97810700    -34.61415677     14.10549957
 H    -12.41717136    -34.95073946     14.89192102
 H    -12.13443579    -32.95306753     16.01822082
 H    -13.41576935    -32.23293467     15.01429870
 H    -12.42450374    -32.86563891     12.92781228
 H    -10.91753994    -33.21815458     13.80705029
 H    -10.40360162    -31.52150945     14.97428467
 H    -11.52420686    -30.51139921     14.02972771
 H    -10.94935854    -30.91669358     11.92454204
 H     -9.42092456    -31.63870098     12.48209164
 H     -8.80069390    -29.74272143     13.82758827
 H    -10.06143592    -28.80436133     12.99195885
 H     -9.37406830    -29.24790814     10.79731569
 H     -7.82327131    -29.84205795     11.43784778
 H     -7.52628537    -27.70350321     12.69011326
 H     -8.84631569    -27.03932227     11.69781779
 H     -7.98896052    -27.53650176      9.59894336
 H     -6.40266453    -27.83856974     10.34773347
 H     -6.63337809    -25.50486704     11.38818415
 H     -7.97721191    -25.25594912     10.24782578
 H     -6.42157666    -25.85956958      8.36338229
 H     -5.08986089    -25.67629510      9.53009143
 H     -5.47605409    -23.59833145     10.33653487
 H     -6.58031739    -23.28729746      8.97560612
 H     -5.29903051    -23.83914624      7.20267971
 H     -3.85607527    -23.79560462      8.24395343
 H     -4.14065626    -21.68951533      9.16350957
 H     -5.34553487    -21.32968306      7.90372589
 H     -4.39573405    -21.79334037      6.00872203
 H     -2.80197324    -21.80846167      6.80116415
 H     -2.37209348    -20.24865560      7.93009951
 H     -3.66297214    -19.29600447      7.15915543
 H     -3.28787395    -19.54080072      4.99177633
 H     -1.65375498    -20.15256713      5.34343485
 H     -0.92026346    -18.42952421      6.71216141
 H     -2.28541943    -17.43591334      6.14882022
 H     -1.78751418    -17.74301355      3.81499934
 H     -0.19116543    -18.36914279      4.29238757
 H      0.02213091    -16.14186548      5.60986079
 H     -1.39866750    -15.60699025      4.68061000
 H     -0.48470870    -16.04647575      2.53864574
 H      1.11927592    -16.18739570      3.29735619
 H      1.28939299    -14.28226641      4.45695591
 H     -0.07463123    -13.60529377      3.53532005
 H      0.11981515    -13.77773217      1.53581642
 H      1.86447650    -14.08803119      1.70356015
 H      2.36957006    -12.23531746      3.05393941
 H      0.78485981    -11.54135473      2.63516044
 H      1.20185243    -11.76276824      0.23687136
 H      2.91427466    -12.04986913      0.62859811
 H      3.53801402    -10.40624923      1.89124814
 H      2.10058761     -9.47524687      1.40616403
 H      1.90650920     -9.42282046     -0.65669900
 H      3.59910749     -9.93768827     -0.85237429
 H      3.79686214     -7.78193398      0.82789090
 H      2.09861252     -7.52367346      0.36150436
 H      1.98660553     -7.44901572     -1.75847267
 H      3.74624058     -7.20037676     -1.85911962
 H      3.94952820     -5.42427017     -0.39372099
 H      2.18765078     -5.18515207     -0.47664969
 H      2.37002501     -5.09701231     -2.98561358
 H      4.12717561     -4.92810668     -2.75722944
 H      4.14257573     -3.12087525     -1.32035592
 H      2.44141708     -2.80416387     -1.73751273
 H      2.93490994     -2.78321431     -4.13731979
 H      4.65987261     -2.67464944     -3.71189747
 H      5.00204724     -1.11516875     -2.38690238
 H      3.41968235     -0.40201623     -2.78161935
 H      3.57464717     -0.35961197     -5.07553676
 H      5.32746329     -0.63888955     -4.94172223
 H      5.76160435      1.14670797     -3.44767026
 H      4.14945793      1.80029856     -3.82459192
 H      4.08390767      1.91648008     -6.01498435
 H      5.85312369      1.73295444     -6.08176506
 H      6.57592911      3.30549170     -4.67106775
 H      4.96998498      4.07214291     -4.70922617
 H      5.28173685      4.03140818     -7.28857773
 H      6.98452090      3.64281834     -6.94537068
 H      7.56909585      5.32847856     -5.55921963
 H      6.11069855      6.22353933     -6.04933209
 H      6.83014831      5.91175568     -8.45592090
 H      8.41212253      5.41005173     -7.81255679
 H      8.39328156      7.65978877     -6.55245153
 H      7.03337561      8.10298552     -7.61193211
 H      7.99307017      7.70582880     -9.66302100
 H      9.59153537      7.65195947     -8.88182078
 H      9.83590226      9.39271879     -7.70273846
 H      8.48170036     10.17798183     -8.54994909
 H     11.18275272      8.63575529     -9.17630860
 H     10.99216820      8.97206453     -7.43882758
 H     10.81800707     11.09501994     -7.20714121
 H     11.45175787     11.34018227     -8.85229227
 H     13.13303641     10.36865449     -9.27618728
 H     13.45897044     10.11555418     -7.54472146
 H     13.35930539     11.42620459     -6.27569025
 H     13.49377787     12.68491078     -7.52702656
 H     15.12257968     12.24703979     -8.78790497
 H     15.76776007     11.10114102     -7.58835299
 H     15.69539225     12.56139481     -5.73476408
 H     15.51343016     13.90828417     -6.84596500
 H     17.33109214     11.35670699     -6.28325352
 H     16.14322954     11.67725664     -4.99698100
 H     16.91500242     13.83145851     -4.43174225
 H     18.40408948     13.49787367     -5.34804327
 H     19.31592935     11.78086949     -4.87088768
 H     18.40410335     11.68637850     -3.34513821
 H     19.16809897     14.05708070     -2.85777732
 H     20.33286007     13.84448595     -4.18683778
 H     21.23154447     11.79524176     -3.13942344
 H     20.36634308     12.26533262     -1.65661941
 H     21.55727495     14.50449962     -1.79666680
 H     22.62073960     13.74525773     -3.00532777
 H     23.16048975     11.91604974     -1.41412777
 H     22.43535951     12.92254581     -0.13764100
 H     23.65814936     14.86065834     -0.47128197
 H     24.80821415     13.93418667     -1.46489551
 H     25.30342103     12.22526757     -0.02272038
 H     24.58155277     13.16259756      1.30716133
 H     26.19758423     15.04409923      0.52657676
 H     26.99473231     13.77811303     -0.43784046
 H     27.53963753     12.15750362      0.30788148
 H     27.48036422     12.85636913      1.94383391
 H     28.93458584     14.75219678      0.97764537
 H     29.18018749     13.68488860     -0.42549388
 H     29.99077165     11.89893488      1.16663122
 H     30.08643572     13.17977646      2.39892984
 H     31.57575420     14.40161533      0.65042639
 H     31.63051959     12.83845959     -0.19916855
 H     32.40449873     11.55510638      1.61894253
 H     32.82488869     13.06679226      2.45938571
 H     34.13084578     13.98115345      0.70624876
 H     34.16041469     12.37262263     -0.05534231
 H     35.06248855     11.67784167      2.34132316
 H     35.25400645     13.42810313      2.60242156
 H     36.49344361     14.08024178      0.87765520
 H     36.92468585     12.38494413      0.54862227
 H     37.56256250     11.28150855      1.97658825
 H     37.94441720     12.71699579      2.95731759
 H     39.70546469     13.30048372      2.21817437
 H     39.29969483     12.39863564      0.40436953
 H     40.21110118     11.29429766      2.53717690
 H     40.38454406     12.94593693      3.17770166
 H     41.24305499     14.30039784      2.26069667
 H     42.07575840     13.11270686      1.22906600
 H     42.90934439     11.73776550      2.91828885
 H     42.54474742     13.01830869      4.09962067
 H     44.17221654     14.33520957      3.64931508
 H     44.49687347     13.32741526      1.87277079
 H     45.10434100     12.58936908      4.40006123
 H     44.62632020     14.25533265      4.80543531
 H     46.31510159     15.08170512      3.12441417
 H     46.47842632     14.39525574      2.64222343
 H     46.40880103     13.34434349      1.72372732
 H     46.57810314     12.56047935      2.29016162
 H     46.46898433     11.52796920      3.16986711
 H     48.19675999     11.84676100      3.45522609
 H     47.40841429     11.56734881      0.63666421
 H     46.17978391     11.54974995      1.01153040
 H     45.34568838     10.81242962      0.21172583
 H     45.26191164      9.89448454      1.19621769
 H     44.29296388      9.20273226      0.99360740
 H     44.35990020      9.99106071     -0.26175856
 H     43.18573714     10.51738386     -0.02256613
 H     43.30624530      8.53966797      0.56205406
 H     42.20729873      8.36499969     -0.87935314
 H     43.62915865      8.21487198     -1.42563453
 H     41.50884009      8.68193995     -1.68646279
 H     42.25345287      9.45883349     -1.92000427
 H     41.89167164     10.18799683     -2.83707879
 H     41.73302716     10.06054321     -2.93043634
 H     39.98975839     10.36633918     -3.10618726
 H     41.00136290     10.73687532     -3.66596104
 H     39.06937031     10.91074046     -3.34873480
 H     39.45579665     11.23331771     -2.63863413
 H     39.18732693     12.22999670     -1.93086344
 H     38.33190982     12.09485770     -2.91561001
 H     38.09090515     13.19686875     -3.05892806
 H     37.99754155     13.16766976     -2.99776849
 H     37.60852285     14.29933514     -3.34466210
 H     39.16056910     14.48116015     -3.49344193
 H     38.89610004     15.68594363     -4.01174862
 H     37.43980085     15.51154231     -3.78224525
 H     38.81080088     16.67421389     -4.69040798
 H     38.56889005     15.56958697     -5.34519355
 H     38.80578204     16.26085659     -6.48122460
 H     39.08502382     17.13524901     -5.95457012
 H     38.02532430     17.74344804     -6.34617379
 H     39.05091285     18.19930386     -6.14745683
 H     39.61802320     18.95048132     -5.49492117
 H     37.86155323     18.67317989     -5.41628389
 H     38.59574825     19.31281816     -6.90627960
1502
Final Conformation Chain 5 (Simulation Frame 6)
 C      0.00000000      0.00000000      0.00000000
 C      1.54000000      0.00000000      0.00000000
 C      2.16637443      0.43981650      1.33634446
 C      2.29380599      1.96619919      1.49608506
 C      1.98044381      2.47581541      2.91513243
 C      2.20897994      3.98718239      3.10259205
 C      2.09703055      4.46114307      4.56356043
 C      2.31621858      5.97404398      4.74980610
 C      1.14440822      6.84229359      4.25523245
 C      1.25252769      8.32600015      4.65338446
 C     -0.00755447      9.15286223      4.33701120
 C      0.15896405     10.66494797      4.57673664
 C     -0.86078485     11.53531737      3.81899706
 C     -0.90152795     13.00228915      4.28583086
 C     -1.47518265     13.19318502      5.70219207
 C     -1.31114678     14.62024410      6.25734486
 C     -1.71597752     14.76755453      7.73586159
 C     -1.85021557     16.22786989      8.20603093
 C     -1.88525878     16.39234226      9.73682185
 C     -2.08507335     17.84537004     10.20627300
 C     -1.97035614     18.03254291     11.73054537
 C     -2.36191233     19.43916849     12.22012501
 C     -2.56134835     19.53907019     13.74388514
 C     -3.53290110     20.65276059     14.17675803
 C     -3.87425246     20.63746701     15.67837228
 C     -3.97412686     22.03737580     16.31231271
 C     -4.05008062     22.02450694     17.85038469
 C     -3.27284309     23.16980574     18.52550876
 C     -3.20324610     23.06025453     20.06002979
 C     -2.45238492     24.22165129     20.73749939
 C     -2.17897296     24.00083930     22.23686191
 C     -1.76739010     25.27761818     22.99319203
 C     -1.19833080     25.01625405     24.40012497
 C     -1.95844016     25.73933328     25.52750699
 C     -1.37721306     25.49401340     26.93235332
 C     -1.87464153     26.48790607     27.99834689
 C     -1.31769911     26.22359177     29.40957086
 C     -1.70463596     27.29452193     30.44638737
 C     -1.21677293     26.98870760     31.87469660
 C     -1.64752793     28.03348097     32.92087953
 C     -1.27947035     27.65886732     34.36856673
 C     -1.82114210     28.63855999     35.42610821
 C     -1.28374639     28.38639051     36.84709956
 C     -1.47153558     29.57516118     37.80791147
 C     -0.89757602     29.33824196     39.21718068
 C     -1.21591475     30.46250877     40.22031804
 C     -0.89874288     30.10424306     41.68409660
 C      0.48210620     30.58980286     42.16272745
 C      0.92541468     29.98833780     43.50932218
 C      2.19550478     30.63261439     44.09530751
 C      2.58460959     30.09783543     45.48606591
 C      3.73721512     30.87029004     46.15420838
 C      4.18841262     30.27931183     47.50282455
 C      3.06747892     29.56403746     48.27967089
 C      3.48539658     29.08327218     49.68174420
 C      2.33929037     28.45439630     50.49571943
 C      2.80494091     27.70761374     51.75947787
 C      1.69119804     27.47935850     52.79826387
 C      2.15355273     27.64160208     54.25823139
 C      1.01129050     27.93759015     55.24779092
 C     -0.06306362     28.89336611     54.69656001
 C     -1.12184122     29.31082161     55.73401887
 C     -2.36802128     29.97846304     55.12337153
 C     -2.77853747     31.29097082     55.81648031
 C     -4.06949013     31.91740251     55.25735191
 C     -4.65985678     33.03072619     56.14255110
 C     -6.18595606     33.19118641     56.01265304
 C     -6.77872471     34.29247330     56.91120326
 C     -8.26552686     34.58883347     56.64066673
 C     -8.81946332     35.78773843     57.43274078
 C    -10.16762190     36.31593004     56.90825812
 C    -10.81301400     37.38718320     57.80686020
 C    -12.12413111     37.96837395     57.24579938
 C    -12.07646683     38.28055853     55.73852737
 C    -13.45244410     38.24571465     55.04782304
 C    -13.38505636     38.34055020     53.51222377
 C    -14.76026463     38.29282974     52.82075796
 C    -14.71558232     38.61191297     51.31483984
 C    -14.39940105     37.39485676     50.42579340
 C    -14.44712997     37.69299521     48.91568234
 C    -13.35781723     38.66986339     48.43534258
 C    -13.39234043     38.95154797     46.92171714
 C    -12.42855776     40.06431517     46.46953121
 C    -12.38155944     40.27060965     44.94413496
 C    -11.30837152     41.27301290     44.48039425
 C    -10.60513863     40.87581679     43.16917392
 C     -9.91151634     39.50187065     43.22171082
 C     -9.47538547     38.96732228     41.84488552
 C     -9.06530773     37.48293524     41.85048362
 C     -8.49722733     36.98497074     40.50850149
 C     -8.83346550     35.51571073     40.19256017
 C     -8.35652894     34.51930294     41.26554807
 C     -8.25240477     33.06553075     40.76825081
 C     -7.54720100     32.91810470     39.40716551
 C     -7.12830795     31.47460635     39.07184310
 C     -6.53298514     31.30673128     37.66152090
 C     -6.39675569     29.84086711     37.20954328
 C     -6.24119877     29.66661285     35.68736145
 C     -5.82118045     28.24828914     35.25894291
 C     -5.38163965     28.14303060     33.78675931
 C     -5.41127592     26.70937890     33.22518609
 C     -5.48047723     26.63997845     31.68830784
 C     -5.33749999     25.21643240     31.11850597
 C     -5.51066720     25.13301935     29.59054806
 C     -5.46032651     23.69883131     29.03182588
 C     -5.31551407     23.62797420     27.50028788
 C     -5.00294171     22.21814603     26.96523364
 C     -4.51156731     22.19672712     25.50588706
 C     -4.64687012     20.82482016     24.81947286
 C     -4.25352304     20.82786338     23.33055755
 C     -4.54284655     19.50145960     22.60354661
 C     -4.17080828     19.51212811     21.10919936
 C     -4.67545497     18.28385307     20.32928132
 C     -4.13896353     18.19286415     18.88862246
 C     -4.65070635     16.96940935     18.10575744
 C     -4.12231668     16.88393899     16.66177019
 C     -4.39618586     15.53382594     15.97344582
 C     -4.32915403     15.58963123     14.43591777
 C     -4.77466551     14.28906564     13.74190863
 C     -4.35079830     14.19046085     12.26467687
 C     -4.85543774     12.92224209     11.55154281
 C     -4.88126288     13.03540728     10.01592348
 C     -5.19418128     11.71081542      9.29541083
 C     -5.05349683     11.78261025      7.76353180
 C     -4.86885160     10.41177198      7.08654687
 C     -4.68094755     10.48733218      5.55992226
 C     -4.10126240      9.20430074      4.93590667
 C     -3.91832093      9.27795713      3.40858642
 C     -3.00192263      8.18179748      2.83391419
 C     -2.95092006      8.15119698      1.29506321
 C     -2.31071905      6.87643272      0.71478850
 C     -2.29953676      6.82596200     -0.82434361
 C     -1.88478165      5.46052900     -1.40328308
 C     -0.49604359      4.98044394     -0.94227880
 C      0.18778277      4.00863643     -1.92185610
 C      1.67498099      3.75282166     -1.61460987
 C      2.38713138      2.87054853     -2.65674036
 C      3.86607609      2.58857685     -2.33298967
 C      4.56102022      1.65483606     -3.34134516
 C      6.09510868      1.62226273     -3.21053396
 C      6.80846608      0.91574855     -4.37824922
 C      6.44151317     -0.57236535     -4.52812447
 C      7.38692974     -1.36049246     -5.45367467
 C      7.19666416     -2.88736918     -5.39006268
 C      7.78740337     -3.64293706     -6.59494622
 C      7.56882351     -5.16659917     -6.54723222
 C      8.21577670     -5.92917413     -7.71835603
 C      7.93196302     -7.44278684     -7.71322219
 C      8.31139218     -8.15567439     -9.02449060
 C      8.67241880     -9.64225459     -8.84746207
 C      9.50750013    -10.22585526    -10.00229948
 C      9.83599378    -11.72205465     -9.84393497
 C     10.29920143    -12.40281239    -11.14532175
 C     10.69103438    -13.88215404    -10.97323096
 C     10.34128026    -14.76766035    -12.18366502
 C     10.87195930    -16.20954951    -12.07909249
 C     10.24821193    -17.18196356    -13.09739998
 C     10.90492754    -18.57478258    -13.11688768
 C     10.16246102    -19.60523493    -13.98781330
 C     10.71406833    -21.03823394    -13.87015616
 C      9.82090151    -22.10887623    -14.52405074
 C     10.51425897    -23.47033449    -14.71714872
 C      9.54964381    -24.62210502    -15.05558960
 C     10.23690223    -25.99260319    -15.20053994
 C      9.27109465    -27.18935683    -15.11932141
 C      9.87305458    -28.51520565    -15.62068868
 C      8.85913743    -29.67127367    -15.70482400
 C      9.36412152    -30.89082684    -16.49809643
 C      8.42015521    -32.10648430    -16.44609118
 C      9.05391165    -33.41393019    -16.95652046
 C      8.21595697    -34.67231660    -16.66344096
 C      8.81472342    -35.97077986    -17.23534299
 C      7.95797251    -37.22360609    -16.97456666
 C      8.77043448    -38.52783023    -16.87207295
 C      7.90583825    -39.79686022    -16.75529868
 C      8.71534418    -41.10680718    -16.73688344
 C      7.91385594    -42.33175692    -16.25864215
 C      8.73198409    -43.63556072    -16.21004202
 C      7.90363665    -44.88160679    -15.84561136
 C      8.61220222    -46.21513349    -16.14767323
 C      7.87756709    -47.45288142    -15.60004992
 C      8.67342941    -48.76435063    -15.73514871
 C      8.06996290    -49.94653408    -14.95420668
 C      8.79496369    -51.28536999    -15.18549062
 C      8.37449470    -52.40178565    -14.21162107
 C      9.43135480    -53.50745301    -14.03232685
 C      9.07685061    -54.54308082    -12.94909012
 C     10.26496015    -55.41621308    -12.50452767
 C      9.85352981    -56.75741498    -11.86930917
 C     10.99162270    -57.46753103    -11.11294962
 C     10.69903463    -58.94293988    -10.78255448
 C     11.84661298    -59.65959059    -10.04697601
 C     11.43631950    -60.99277618     -9.39438467
 C     12.58311601    -61.70783239     -8.65604033
 C     12.12814010    -62.90841059     -7.80562343
 C     13.27864855    -63.64246746     -7.09211741
 C     12.86514852    -64.97899256     -6.44844173
 C     14.05197249    -65.85274239     -6.00166427
 C     13.65849597    -67.01604856     -5.07241996
 C     14.85641786    -67.81953095     -4.53297653
 C     14.45994432    -69.03117067     -3.66906803
 C     15.61387361    -69.60261637     -2.82438050
 C     15.23202763    -70.84844352     -2.00358311
 C     16.31415303    -71.29523113     -1.00309051
 C     15.85740370    -72.40855484     -0.04210645
 C     16.97558385    -72.94639785      0.87003282
 C     16.62784138    -74.27221492      1.57208999
 C     17.71536103    -74.77181355      2.54126604
 C     17.31988092    -76.03427294      3.32955011
 C     18.36386767    -76.47399181      4.37278496
 C     18.40704293    -77.99447474      4.61334172
 C     19.57613169    -78.45481166      5.50380306
 C     19.42848906    -79.89156205      6.03817181
 C     20.68050136    -80.42297870      6.76043321
 C     20.49219693    -81.81047170      7.40152964
 C     21.80529470    -82.47286450      7.85826809
 C     21.63540847    -83.91782703      8.36306702
 C     22.95281775    -84.71089207      8.44721349
 C     22.76793822    -86.19563109      8.81186346
 C     23.97921359    -86.81996065      9.52923686
 C     23.86409623    -88.34041798      9.74500872
 C     25.03357465    -88.95060552     10.53973597
 C     24.74609936    -90.35740044     11.09641002
 C     25.98336397    -91.06530153     11.67920700
 C     25.65088010    -92.28465575     12.55911027
 C     26.83275735    -93.25059193     12.76339794
 C     26.83210050    -94.45341556     11.80172498
 C     28.17244504    -95.20951063     11.74344319
 C     28.18083167    -96.39463003     10.76007059
 C     29.42041952    -97.30035408     10.88125607
 C     29.29774368    -98.63480184     10.12244134
 C     30.32949800    -99.69533393     10.54947144
 C     30.02189857   -101.11266078     10.03162281
 C     30.95076741   -102.20212647     10.59895621
 C     31.20909197   -103.37148508      9.63072645
 C     32.36253921   -104.29711493     10.06010838
 C     32.80337637   -105.29438175      8.97257838
 C     33.71118718   -106.42533604      9.49067288
 C     34.39439809   -107.24015545      8.37671947
 C     35.13492336   -108.49266943      8.88113107
 C     36.07199340   -109.12897335      7.83776293
 C     36.55853361   -110.54145597      8.21162318
 C     37.71183546   -111.05979814      7.33252350
 C     38.49987927   -112.22630760      7.95689731
 C     39.68148383   -112.71451636      7.09837366
 C     40.67500991   -113.61584257      7.85475782
 C     41.51876731   -114.52334353      6.94036432
 C     42.55184161   -115.38317544      7.69206011
 C     43.18008603   -116.49858253      6.83603676
 C     44.22905454   -117.34458829      7.58138186
 C     44.75866002   -118.54218079      6.77089420
 C     45.97246502   -119.24282212      7.40915680
 C     46.19394352   -120.68490410      6.91626043
 C     47.44100631   -121.36544277      7.51065215
 C     47.37039481   -122.90379249      7.52035471
 C     48.74692974   -123.59411389      7.50593422
 C     48.67889737   -125.12365553      7.34018150
 C     49.92609985   -125.86563138      7.85550452
 C     49.83187621   -127.39896027      7.74768784
 C     51.18267403   -128.12199708      7.90313242
 C     51.07725267   -129.65819902      7.87925898
 C     52.43062833   -130.37659549      7.72472470
 C     52.31552653   -131.90577293      7.58341677
 C     53.64990951   -132.60813457      7.27083047
 C     53.61623764   -134.13467219      7.47120289
 C     54.81207239   -134.87524739      6.84420399
 C     54.83322241   -136.38784197      7.13266598
 C     56.24819972   -136.97819524      7.27731121
 C     56.26857546   -138.46661159      7.67202833
 C     57.58956729   -138.92558110      8.31695280
 C     57.41525814   -140.00468713      9.40173227
 C     58.54220073   -140.02574962     10.45109244
 C     58.46170485   -141.20935787     11.43302519
 C     59.66037788   -141.30793687     12.39482827
 C     59.42415185   -142.24169088     13.59645247
 C     60.70981275   -142.63067113     14.34969240
 C     60.52053355   -143.77549956     15.36218499
 C     61.80315826   -144.15532365     16.12521022
 C     61.76623784   -145.56180642     16.75134368
 C     62.88167922   -145.81823181     17.78170116
 C     62.77374989   -147.17811967     18.49630333
 C     63.85383226   -147.40926594     19.56942656
 C     63.81961570   -148.81372561     20.20023736
 C     64.84779781   -149.01897338     21.32820673
 C     64.63128106   -150.30537735     22.14667197
 C     65.56738454   -150.43946515     23.36212692
 C     65.17084801   -151.56361543     24.33713714
 C     65.86405083   -151.47593015     25.70950048
 C     65.57939210   -152.67513678     26.63279505
 C     66.27661922   -152.58986048     28.00327026
 C     65.91791331   -153.74103787     28.96124765
 C     66.59997491   -153.64527613     30.33864435
 C     66.01184894   -152.55577384     31.25444597
 C     66.39329832   -152.71175478     32.73828097
 C     66.09087797   -151.46947271     33.59669649
 C     67.27909393   -150.49970450     33.73559386
 C     66.89288833   -149.10857162     34.27149921
 C     68.09770585   -148.21348460     34.61622223
 C     67.71916075   -146.76457205     34.97532667
 C     68.92587187   -145.86282272     35.29516477
 C     68.54292615   -144.44487932     35.75818647
 C     69.64625177   -143.72788475     36.55830607
 C     69.27693646   -142.29670912     36.99067457
 C     70.02290973   -141.80970397     38.24683931
 C     69.62291486   -140.39443774     38.70359482
 C     70.10221084   -140.03527837     40.12235481
 C     69.91164560   -138.55229998     40.49121790
 C     69.75702540   -138.29751458     42.00210407
 C     69.51209545   -136.82144731     42.36656906
 C     68.10681043   -136.31025239     41.99852860
 C     67.90854253   -134.80087923     42.23108505
 C     66.65841459   -134.22020167     41.54435824
 C     66.66176555   -132.68428562     41.43232859
 C     65.41321160   -132.10383379     40.74255421
 C     65.23117475   -130.58858885     40.94869828
 C     63.86108691   -130.05437267     40.49145395
 C     63.77918265   -128.51811653     40.42210875
 C     62.35595161   -127.97644732     40.19274466
 C     62.28753301   -126.44739279     40.02271198
 C     60.97269231   -125.94483344     39.39802963
 C     60.88834071   -124.41301929     39.26375308
 C     59.52818627   -123.90302090     38.75240040
 C     59.41964099   -122.36831451     38.68536156
 C     58.25976337   -121.86009508     37.80900722
 C     57.99078059   -120.34946679     37.94034807
 C     57.10242424   -119.77193124     36.82281701
 C     56.72259768   -118.29336130     37.02570302
 C     56.22541732   -117.59326495     35.74731467
 C     55.94331683   -116.08987941     35.92578386
 C     55.69800353   -115.33745281     34.60469507
 C     55.34535213   -113.84955500     34.78744383
 C     55.24571863   -113.06272603     33.46737818
 C     54.54422659   -111.69847470     33.60275625
 C     54.62415827   -110.82471820     32.33714949
 C     53.63626691   -109.64336728     32.32816771
 C     53.70473420   -108.77925303     31.05528956
 C     52.67061989   -107.63878415     31.01606804
 C     52.95203567   -106.57485193     29.93882462
 C     52.22270704   -105.23877067     30.17241963
 C     52.46087388   -104.19349507     29.06685395
 C     51.49180277   -102.99764221     29.11622107
 C     51.55737342   -102.08668431     27.87627906
 C     50.40456988   -101.06971734     27.78450654
 C     50.19106911   -100.49053151     26.37363405
 C     49.03347488    -99.47916511     26.28028736
 C     48.86163615    -98.85087134     24.88482385
 C     47.58356504    -98.00550235     24.73157410
 C     47.52054950    -97.19704807     23.42236414
 C     46.40583994    -96.13484185     23.39515121
 C     45.98217146    -95.70764410     21.97754509
 C     45.09806474    -94.44723538     21.94114238
 C     45.18425412    -93.65959691     20.62061331
 C     44.48476118    -92.28826123     20.66242326
 C     44.25697733    -91.65875179     19.27554461
 C     43.52513211    -90.30433431     19.31498893
 C     43.64997420    -89.48684282     18.01586533
 C     42.86879853    -88.15979386     18.03334712
 C     43.30451252    -87.16207142     16.94417162
 C     42.62211148    -85.78532918     17.04668799
 C     43.17652806    -84.73673740     16.06450801
 C     42.48505760    -83.36386787     16.15777033
 C     42.99014240    -82.33684742     15.12737316
 C     42.29372703    -80.96617356     15.21602309
 C     42.64022227    -80.01149986     14.05837929
 C     41.90537801    -78.65954010     14.12009410
 C     42.09488902    -77.78579971     12.86619486
 C     41.12935040    -76.58882426     12.78504717
 C     41.51134025    -75.54722219     11.71698870
 C     40.48293412    -74.41281945     11.55233378
 C     41.02704401    -73.17660010     10.81253235
 C     40.10804846    -71.94350274     10.89326702
 C     40.80532085    -70.61808582     10.53454541
 C     39.88051893    -69.38805919     10.59264799
 C     40.61369275    -68.04454627     10.42226842
 C     39.68089542    -66.81927097     10.40849917
 C     40.41685894    -65.47323313     10.27381492
 C     39.50149231    -64.29394689      9.89567751
 C     40.22160556    -62.93367449      9.84375531
 C     39.41216498    -61.82252410      9.14967262
 C     40.16551687    -60.48546985      9.02181775
 C     39.38253443    -59.39501572      8.26719977
 C     39.92688066    -57.97060132      8.48244565
 C     39.09009188    -56.87090028      7.80270880
 C     39.59141637    -55.44129719      8.07931096
 C     38.60765543    -54.33800405      7.64738657
 C     39.05916709    -52.91426064      8.02247578
 C     38.08330160    -51.80968168      7.57616664
 C     38.59216891    -50.38029539      7.83981202
 C     37.85224646    -49.29400543      7.03726052
 C     38.26965028    -47.85595450      7.39695981
 C     37.77521692    -46.79211103      6.39927614
 C     38.09858360    -45.34503220      6.81520505
 C     37.56426257    -44.27895063      5.84074565
 C     37.69589171    -42.83466976      6.35874811
 C     36.92446892    -41.79662350      5.52270575
 C     37.16418144    -40.33890334      5.95766533
 C     36.59610982    -39.29236981      4.98110903
 C     36.79253219    -37.83558828      5.44024499
 C     35.57301331    -36.92957338      5.18823170
 C     35.81501383    -35.44602064      5.52305556
 C     34.53887511    -34.67435483      5.90724543
 C     34.70393635    -33.14331118      5.89111700
 C     33.46551420    -32.37452460      6.38798496
 C     33.48880388    -30.87010435      6.05969045
 C     32.20160242    -30.12275080      6.45488036
 C     32.20468563    -28.62889255      6.08074397
 C     30.93261328    -27.87347314      6.50826408
 C     30.97960010    -26.35964667      6.22947803
 C     29.86514925    -25.55910631      6.92857348
 C     29.80306109    -24.07757082      6.51288412
 C     28.60874952    -23.30934361      7.10874219
 C     28.52926573    -21.83576836      6.66844877
 C     27.21769829    -21.13321024      7.06569293
 C     27.13895726    -19.65913008      6.62695891
 C     25.72154890    -19.06068296      6.69340143
 C     25.67667199    -17.53358785      6.49958041
 C     24.26902880    -16.92528747      6.64139471
 C     24.20578191    -15.41603841      6.34178312
 C     22.79374593    -14.81275314      6.45926186
 C     22.68605309    -13.36552960      5.94395003
 C     21.43781169    -12.61420596      6.44295524
 C     21.27372496    -11.20503293      5.84386683
 C     20.04161768    -10.44233315      6.36521191
 C     19.91000784     -9.01148788      5.81117160
 C     18.50593773     -8.40152724      5.97890690
 C     18.37299123     -6.97253580      5.42041905
 C     17.01629242     -6.30740820      5.71803229
 C     16.67393892     -5.13547482      4.77943428
 C     15.31557091     -4.47271309      5.07470235
 C     15.05796522     -3.18609684      4.26856467
 C     13.84468501     -2.37317042      4.75713581
 C     13.34233837     -1.32756456      3.74424083
 C     11.85733215     -0.95584695      3.91211743
 C     11.28667370     -0.11726779      2.75335347
 C      9.82223672      0.31460198      2.95463148
 C      9.33989100      1.37969895      1.95237849
 C      7.88574775      1.83559918      2.17423975
 C      7.46633337      3.03627193      1.30586395
 C      6.12631525      3.67169374      1.72082245
 C      5.67634701      4.83266270      0.81457764
 C      4.29815724      5.41461400      1.17998926
 C      3.76927584      6.45229344      0.17246465
 C      2.42889431      7.09279813      0.57833542
 C      2.12211787      8.41631735     -0.14677497
 C      0.84662596      9.12179570      0.35023679
 C      0.74287204     10.59910094     -0.07214260
 C     -0.66170806     11.20462915      0.10699508
 C     -0.76260171     12.68527259     -0.30424146
 C     -2.10928959     13.34323450      0.04947861
 C     -2.08519997     14.15527368      1.35776453
 C     -3.47757598     14.59280817      1.84914281
 C     -3.45026183     15.77076178      2.84074719
 C     -4.55544150     15.71375417      3.91169444
 C     -4.74656384     17.03154399      4.68532371
 C     -5.95006165     17.02493685      5.64613033
 C     -5.58323786     16.70590134      7.10738207
 C     -6.70179466     17.02249691      8.11743055
 C     -6.21051769     17.17368597      9.56911536
 C     -7.26237784     17.76103028     10.52839472
 C     -6.82410209     17.77721379     12.00462385
 C     -7.64219372     18.73515996     12.89043716
 C     -7.49438965     18.47193826     14.40055911
 C     -8.29148740     19.44663640     15.28723758
 C     -8.08105081     19.23412665     16.79791823
 C     -8.86664448     20.21835624     17.68433500
 C     -8.17308727     20.55030566     19.01864680
 C     -8.35895022     22.00927453     19.47522625
 C     -7.74189097     22.31820215     20.85196210
 C     -7.32056279     23.78822794     21.03391466
 C     -6.62956053     24.07988953     22.37892373
 C     -6.36869326     25.57539526     22.63778828
 C     -6.05848347     25.91176681     24.10823858
 C     -5.64708981     27.37723905     24.34221800
 C     -5.62886232     27.79364983     25.82473944
 C     -4.80028830     29.06013608     26.10948087
 C     -4.65061813     29.38720665     27.60688652
 C     -3.75650239     30.60747227     27.89517260
 C     -3.60031008     30.92967181     29.39296812
 C     -2.30837356     31.69353628     29.73794798
 C     -2.04449328     31.82750360     31.24924542
 C     -0.78488835     32.64313482     31.59528173
 C     -0.40272302     32.60292099     33.08656725
 C     -1.51415557     33.09624363     34.03152781
 C     -1.17686499     32.94739498     35.52674657
 C     -2.31883161     33.36636201     36.47119291
 C     -2.00691175     33.15342652     37.96416460
 C     -3.18986150     33.46035616     38.90119399
 C     -2.89049382     33.20929579     40.39080726
 C     -4.03399732     33.61937289     41.33729367
 C     -3.85862958     33.12153466     42.78401522
 C     -3.50598739     31.62646105     42.89355238
 C     -3.15535917     31.16858530     44.32149133
 C     -2.10422061     32.04988174     45.02150869
 C     -1.66317373     31.52350547     46.39991562
 C     -0.56373796     32.36803914     47.07044069
 C     -1.10019509     33.44895056     48.02722920
 C     -1.71371802     32.88899879     49.32401122
 C     -2.40318490     33.95121025     50.20033435
 C     -1.43009208     34.79203427     51.04750926
 C     -2.10637731     35.93205988     51.83146073
 H     -0.36333333      0.00000000      1.02766186
 H     -0.36333333     -0.88998127     -0.51383093
 H     -0.36333333      0.88998127     -0.51383093
 H      1.88274777      0.53875766      0.88338223
 H      1.88274777      0.84688353      0.59448487
 H      2.01571884      1.51350560      1.44857016
 H      1.95274830      1.49856833      1.48300200
 H      1.38493462      2.33840549      1.96885911
 H      2.32420909      2.19805052      2.56070735
 H      2.70654324      3.24769844      3.17023284
 H      1.98324371      3.56564955      2.89632531
 H      2.92570522      4.12768968      3.91170426
 H      2.93960453      4.12712968      3.89927421
 H      2.97385438      5.06551537      4.79596980
 H      2.00193044      5.54698512      4.56529813
 H      1.65842445      6.50311947      4.06025116
 H      1.43933144      6.38877063      5.24696880
 H      0.80499532      7.46404221      5.08368132
 H      1.37204452      7.88461643      4.47849195
 H      0.96038201      8.93299473      3.79646645
 H      0.28815200      8.64618748      5.04779491
 H     -0.24682306      9.76050354      5.20972111
 H      0.29276465     10.02897244      3.76225967
 H      0.06304068     11.17642812      3.61898575
 H     -0.82558999     11.13013691      4.52823318
 H     -1.40908813     12.13317577      4.54702786
 H     -1.50963962     12.01787259      4.54990604
 H     -1.68649696     13.10172424      5.03552168
 H     -0.41041754     13.06675253      5.25678660
 H     -0.71957211     13.68526193      6.31457515
 H     -1.68578012     14.25283270      5.84674486
 H     -1.57692374     15.32661247      5.47089313
 H     -1.17573606     14.55458310      7.33690615
 H     -1.02898945     15.46769241      8.21120815
 H     -2.58591611     15.42210408      7.78945023
 H     -2.39328575     16.78515131      7.44274056
 H     -1.16709487     16.38326092      9.04107569
 H     -1.10970177     15.75895420     10.16743872
 H     -2.86159253     16.06524565     10.09442526
 H     -2.87041466     18.29656568      9.59983955
 H     -1.15143500     18.38657217     10.05291174
 H     -1.10532322     17.46943703     12.08087354
 H     -2.60520793     18.86932308     12.02185646
 H     -3.23154341     19.34593198     12.87062386
 H     -1.55970033     20.12897007     11.95796153
 H     -1.74342667     19.00919202     14.23207900
 H     -3.50716666     19.06050987     13.99786889
 H     -4.40401884     20.62112824     13.52234739
 H     -3.02756382     21.61180694     14.06289706
 H     -2.95181379     20.48245075     16.23799436
 H     -4.55685301     19.80870234     15.86627017
 H     -4.54292699     22.67871494     15.63907387
 H     -2.96553608     22.43454248     16.42678221
 H     -3.30938999     21.31759739     18.22422459
 H     -5.04712736     21.69403082     18.14156044
 H     -3.48437192     24.09262631     17.98536273
 H     -2.20796111     22.94651178     18.46019280
 H     -2.97055178     22.02753284     20.31972049
 H     -4.17868138     23.32635078     20.46723834
 H     -2.78075838     25.15508603     20.28036652
 H     -1.38479485     24.08758694     20.56320600
 H     -1.82356942     22.97953202     22.37368212
 H     -3.11470127     24.13566712     22.77938746
 H     -2.42617619     26.08809856     22.68138690
 H     -0.73976619     25.52012071     22.72248625
 H     -0.50097148     24.18082917     24.33803436
 H     -2.00781385     24.65806890     25.03616003
 H     -3.02749601     25.62148612     25.35049958
 H     -1.69877062     26.79736144     25.49217790
 H     -0.29227679     25.58156638     26.87449339
 H     -1.64418659     24.48362381     27.24209194
 H     -2.95082963     26.61085624     27.87668169
 H     -1.37869521     27.44438159     27.83314456
 H     -0.25074380     26.01773358     29.32396264
 H     -1.82446252     25.35018841     29.82000649
 H     -2.76239488     27.52613787     30.32148693
 H     -1.11167642     28.18852211     30.25335196
 H     -0.18392831     26.64504520     31.81787975
 H     -1.84108477     26.19647997     32.28786740
 H     -2.69702692     28.27479591     32.75230021
 H     -1.04180204     28.92877556     32.78072343
 H     -0.25660845     27.28229994     34.37567614
 H     -1.95796665     26.87388082     34.70254123
 H     -2.85678658     28.87171952     35.17876806
 H     -0.97641357     29.04042680     35.98560511
 H     -0.21057407     28.20743798     36.78093940
 H     -1.77590320     27.50001854     37.24738247
 H     -1.92830053     29.20513495     38.72581471
 H     -0.74707473     30.34600712     37.54513208
 H      0.08685181     28.88177050     39.11405129
 H     -1.68304311     29.53988246     39.94552301
 H     -2.26492456     30.73607463     40.10700364
 H     -0.58865478     31.32167035     39.98264956
 H      0.06813771     29.60179761     41.71221237
 H     -1.66128719     29.41166217     42.04040813
 H      0.44628801     30.71158709     43.24531031
 H      1.24367170     29.94863304     41.71885893
 H      0.70676572     28.92057170     43.49635354
 H      0.35256598     30.46689297     44.30363277
 H      2.10957030     31.71438892     43.99293994
 H      2.63368857     29.93706714     44.81106515
 H      2.48989988     29.01201873     45.47456977
 H      1.89423379     30.51502445     46.21916521
 H      3.55789920     31.93705852     46.02022774
 H      4.66787410     30.59328421     45.65898961
 H      4.25844075     29.19678177     47.39640685
 H      3.49126234     29.48897390     47.78111835
 H      3.48786218     28.67232394     48.74467081
 H      2.40535036     30.32075465     48.70046164
 H      4.04751025     29.88255486     50.16473014
 H      4.12424845     28.20753460     49.56749901
 H      1.78275871     27.78297983     49.84182921
 H      1.68309452     29.25446070     50.83836208
 H      3.54881303     28.32233269     52.26630613
 H      3.25979649     26.76567966     51.45293817
 H      0.79739553     27.14143378     52.27383660
 H      1.48491044     28.42809714     53.29368331
 H      2.77386816     28.53546158     54.32398823
 H      2.74577971     26.76760764     54.52934195
 H      0.17875971     27.27219872     55.01921548
 H      0.06691341     27.88873177     54.70569798
 H     -0.30122335     28.58994844     53.67709070
 H      0.34785470     29.90291170     54.68857072
 H     -0.61111229     29.55698492     56.66496440
 H     -1.79139442     28.46670434     55.89913870
 H     -2.67125206     29.40305461     54.24869660
 H     -2.10002162     30.98987328     54.81787930
 H     -1.88021969     31.88461605     55.98592207
 H     -3.23686345     31.04406385     56.77412025
 H     -4.80689552     31.12514494     55.12827357
 H     -3.84246005     32.36371040     54.28917495
 H     -3.84560553     33.67871604     56.46690285
 H     -5.12374161     32.56676703     57.01298361
 H     -6.63724643     32.19908365     56.02565802
 H     -6.39982490     33.67516563     55.05969752
 H     -6.13875839     35.17215691     56.84264783
 H     -6.78748321     33.92871846     57.93867866
 H     -8.79103457     33.63944818     56.53766566
 H     -8.33935949     35.14804001     55.70796271
 H     -8.09249355     36.59823897     57.38074250
 H     -8.94925330     35.48213055     58.47094037
 H    -10.81420762     35.46243539     56.70436159
 H     -9.98503857     36.86263486     55.98312183
 H    -10.03958423     38.09422671     58.10685331
 H    -11.21761225     36.89451640     58.69098671
 H    -12.73183759     37.14446531     56.87167724
 H    -12.11005881     37.86124521     56.16116792
 H    -11.59978348     37.44262635     55.22985986
 H    -11.47929117     39.18083760     55.59368664
 H    -14.16768781     38.76940513     55.68207435
 H    -13.75602233     37.20431411     54.94093449
 H    -12.59202279     37.67958600     53.16247516
 H    -13.14601545     39.36924649     53.24251398
 H    -15.44240024     38.94242344     53.36922768
 H    -15.12697982     37.26702887     52.85753475
 H    -14.50609541     37.68850946     50.77489429
 H    -14.56335776     39.68468610     51.19615749
 H    -14.99121621     36.55003865     50.77812448
 H    -13.33914053     37.16295093     50.52662659
 H    -14.38824833     38.77258758     48.77743163
 H    -15.49141917     37.78612467     48.61754315
 H    -12.41264785     38.38282487     48.89617197
 H    -13.63036937     39.67394047     48.76037265
 H    -14.42880302     39.11638631     46.62731331
 H    -13.00149653     38.07715239     46.40135822
 H    -11.47005652     39.90983415     46.96502187
 H    -12.84526078     41.02391246     46.77552408
 H    -13.40343713     40.25878867     44.56502251
 H    -11.82111705     39.44590091     44.50383981
 H    -10.38622881     41.06301741     45.02229342
 H    -11.65126952     42.27886177     44.72285869
 H    -11.36286827     40.53584891     42.46322235
 H    -10.84570897     39.83492507     42.95290943
 H    -10.58688731     38.79518520     43.70396565
 H     -9.00278547     39.59917542     43.81571417
 H     -9.00921640     39.78315781     41.29243752
 H    -10.36363393     38.62840783     41.31173294
 H     -9.79880066     36.92691313     42.43437361
 H     -8.08638538     37.39956444     42.32256448
 H     -7.79924030     37.73323887     40.13298995
 H     -9.32363131     36.87425082     39.80643486
 H     -9.88463848     35.34677571     40.42621872
 H     -8.73125571     34.93582546     41.10983125
 H     -8.60262145     34.92741442     42.24584573
 H     -7.27537337     34.41227906     41.17752239
 H     -8.56836348     33.03653757     39.72545194
 H     -9.26069173     32.66200684     40.67537525
 H     -6.65823263     33.54883066     39.41163757
 H     -8.23011730     33.25825092     38.62868886
 H     -7.95564359     30.81065281     39.32240531
 H     -6.26060246     31.21943146     39.68017933
 H     -5.83285037     32.12340640     37.48558609
 H     -7.34583916     31.36267722     36.93747781
 H     -7.31510152     29.31494690     37.47059666
 H     -5.55794348     29.39415121     37.74334003
 H     -5.52658203     30.40747098     35.32881975
 H     -7.21088371     29.84190581     35.22143925
 H     -6.41525922     27.52967004     35.82352861
 H     -4.76623889     28.11599048     35.49914152
 H     -4.72893338     28.98677452     33.56277110
 H     -6.27114322     28.19508929     33.15892709
 H     -6.34010507     26.23583703     33.54320263
 H     -4.56423530     26.16181373     33.63845908
 H     -4.77277103     27.36169124     31.28040763
 H     -6.49083290     26.90677884     31.37830950
 H     -5.95562750     24.54500602     31.71449673
 H     -4.29253518     24.91754964     31.20107502
 H     -4.95143494     25.95136798     29.13704524
 H     -6.56993446     25.24465860     29.35905387
 H     -6.06303052     23.05866500     29.67605796
 H     -4.42442057     23.36018853     29.04971327
 H     -4.55894309     24.35029258     27.19376459
 H     -6.27340761     23.89311746     27.05280715
 H     -5.65062120     21.50606287     27.47665210
 H     -3.96144650     21.98903981     27.19083964
 H     -3.77869518     22.99357431     25.37926562
 H     -5.36539686     22.38141868     24.85399432
 H     -5.62770395     20.41564789     25.06163611
 H     -3.87165686     20.16700598     25.21244224
 H     -3.32822737     21.39360894     23.22165443
 H     -5.04756089     21.31809048     22.76728028
 H     -5.53591820     19.16002354     22.89565981
 H     -3.79960708     18.76889783     22.91826607
 H     -3.19209968     19.98004669     21.00298408
 H     -4.91548099     20.10202217     20.57479544
 H     -5.70681958     18.09055116     20.62427525
 H     -4.05460993     17.42893532     20.59717509
 H     -3.07239989     18.41706301     18.90526143
 H     -4.65702621     18.93595737     18.28238526
 H     -5.72081247     16.86939544     18.28733415
 H     -4.13477814     16.08419950     18.47767356
 H     -3.05516279     17.10561989     16.67360851
 H     -4.64197009     17.63104342     16.06185745
 H     -5.42472175     15.24276386     16.18674560
 H     -3.71481278     14.79214737     16.39027148
 H     -3.45021407     16.16835660     14.15194333
 H     -5.22661870     16.08958884     14.07163825
 H     -5.68469473     13.93607750     14.22703356
 H     -3.98581387     13.54707376     13.86544459
 H     -3.31303529     14.51382807     12.18354986
 H     -4.98569874     14.85678605     11.68071441
 H     -5.90049820     12.77014829     11.82138741
 H     -4.26358043     12.07531891     11.89871142
 H     -3.95016795     13.49954075      9.69074298
 H     -5.72148981     13.66952578      9.73305882
 H     -6.02324664     11.22719029      9.81199323
 H     -4.31115312     11.07410773      9.34985886
 H     -4.13300881     12.31701146      7.52854851
 H     -5.90550093     12.33453845      7.36658812
 H     -5.57930623      9.71295339      7.52814260
 H     -3.85280467     10.06792750      7.28024666
 H     -3.98056607     11.29313279      5.34026079
 H     -5.64646213     10.71143098      5.10642327
 H     -4.61648061      8.34823631      5.37157155
 H     -3.04037698      9.15309108      5.18085501
 H     -3.47410602     10.24248864      3.16271636
 H     -4.90019534      9.20053563      2.94165115
 H     -3.27097562      7.23250353      3.29711122
 H     -1.97095639      8.42989270      3.08621831
 H     -2.85368832      9.17537470      0.93491603
 H     -3.88505189      7.72467577      0.92958082
 H     -2.70682344      6.01712904      1.25589709
 H     -1.23276494      6.93520822      0.86532210
 H     -1.98644208      7.80125951     -1.19699155
 H     -3.31205188      6.61375528     -1.16768229
 H     -2.40122130      4.68012384     -0.84439321
 H     -1.06599168      5.06721950     -0.80079604
 H     -0.41082960      5.15708408      0.12993239
 H      0.26011056      5.56365990     -1.46781668
 H      0.06215659      4.39618019     -2.93285951
 H     -0.30288976      3.03868918     -1.84096850
 H      1.78117509      3.59610223     -0.54117527
 H      2.24282708      4.63476533     -1.91096470
 H      2.09504457      3.21023974     -3.65041796
 H      2.06051474      1.84043192     -2.51432778
 H      3.94364939      2.33833164     -1.27494444
 H      4.43973118      3.49302962     -2.53543723
 H      4.28210364      1.96834289     -4.34733672
 H      4.20831027      0.63838333     -3.16664676
 H      6.34747634      1.55268866     -2.15243660
 H      6.49371162      2.55097844     -3.61882653
 H      6.35633737      1.25344424     -5.31079480
 H      6.25355970      0.00950607     -4.62094963
 H      5.36143789     -0.67161649     -4.42001990
 H      6.93885141     -1.12965366     -3.73428292
 H      8.41293943     -1.08228890     -5.21282849
 H      7.16759724     -1.08264881     -6.48459472
 H      6.12785911     -3.10059045     -5.40716368
 H      7.62403828     -3.24732792     -4.45417749
 H      8.77539943     -3.23345824     -6.80540025
 H      7.13634370     -3.48071074     -7.45395956
 H      6.53790561     -5.35575998     -6.24802245
 H      8.24592617     -5.58686977     -5.80358942
 H      9.22085228     -5.53560735     -7.87010675
 H      7.61819815     -5.75433264     -8.61302374
 H      6.87481289     -7.59254237     -7.49388938
 H      8.53426808     -7.90178740     -6.92922786
 H      9.28994409     -7.79412596     -9.34043187
 H      7.56853456     -7.90103775     -9.78041569
 H      7.93774088    -10.09657494     -8.18267536
 H      9.66095507     -9.70303933     -8.39226841
 H     10.28953589     -9.51005864    -10.25558837
 H      8.85218566    -10.36729703    -10.86175114
 H      8.93257116    -12.23892394     -9.52024731
 H     10.60679288    -11.82475956     -9.08011533
 H     11.01439635    -11.74569674    -11.64008963
 H      9.42953802    -12.54243005    -11.78742180
 H      9.93679556    -14.36659327    -10.35311610
 H     11.65702657    -13.92456235    -10.47008026
 H     10.63090905    -14.23774868    -13.09108377
 H      9.26387672    -14.93284607    -12.18757456
 H     10.67425770    -16.57530684    -11.07150346
 H     11.94755090    -16.19250482    -12.25491113
 H     10.22068116    -16.68931401    -14.06932512
 H      9.23165480    -17.40903445    -12.77622961
 H     11.05275056    -18.89846546    -12.08660726
 H     11.87152246    -18.49104783    -13.61366001
 H      9.89097420    -19.12660903    -14.92872358
 H      9.25821695    -19.91081661    -13.46144603
 H     10.88850734    -21.25286116    -12.81582880
 H     11.65852272    -21.08751823    -14.41207586
 H      9.49555165    -21.73706016    -15.49564751
 H      8.95158061    -22.26654955    -13.88567758
 H     11.05872407    -23.71027980    -13.80386672
 H     11.21631254    -23.38288456    -15.54634912
 H      8.84332225    -24.26816975    -15.80654879
 H      9.00968330    -24.89461955    -14.14879388
 H     10.94532439    -26.10923416    -14.38039650
 H     10.77351381    -26.00831743    -16.14917111
 H      8.39286917    -26.96268756    -15.72383860
 H      8.97254452    -27.31887316    -14.07903619
 H     10.88012914    -28.60967689    -15.21451628
 H      9.92208868    -28.47950879    -16.70899994
 H      7.94361712    -29.29187151    -16.15867041
 H      8.64721658    -30.01565218    -14.69260219
 H     10.38980557    -31.09761948    -16.19263116
 H      9.34419613    -30.64176095    -17.55907200
 H      7.39939758    -31.75442893    -16.59512433
 H      8.50608902    -32.56526882    -15.46108755
 H     10.05697007    -33.49493963    -16.53769918
 H      9.11707959    -33.36267162    -18.04348061
 H      7.17448842    -34.45306158    -16.89875029
 H      8.30742812    -34.90561570    -15.60263723
 H      9.88414120    -35.97695445    -17.02461214
 H      8.65689408    -35.97504308    -18.31384738
 H      6.91682832    -36.97599348    -17.18146464
 H      8.06430287    -37.49924202    -15.92536759
 H      9.64649921    -38.33806206    -16.25191279
 H      9.08973653    -38.81241961    -17.87464718
 H      7.09354783    -39.72593878    -17.47866196
 H      7.49239313    -39.83838503    -15.74760883
 H      9.56684457    -40.97416532    -16.06946062
 H      9.07306260    -41.30289926    -17.74766800
 H      6.93654394    -42.31147182    -16.74087631
 H      7.78761800    -42.25834159    -15.17846894
 H      9.69902183    -43.41671169    -15.75722515
 H      8.88003048    -43.98558312    -17.23164203
 H      6.97324729    -44.85257440    -16.41273811
 H      7.68048033    -44.84500621    -14.77932732
 H      9.64511436    -46.13906485    -15.80795855
 H      8.59515122    -46.37583875    -17.22562643
 H      6.81559932    -47.34709141    -15.82170941
 H      8.02168399    -47.48708258    -14.52016076
 H      9.70284084    -48.57336249    -15.43193982
 H      8.65364722    -49.07110174    -16.78090797
 H      6.99271577    -49.95286590    -15.12033473
 H      8.27320012    -49.79634189    -13.89390628
 H      9.86912806    -51.10551600    -15.14163344
 H      8.52826315    -51.65285763    -16.17641123
 H      7.28820742    -52.38797464    -14.12279987
 H      8.82121515    -52.19456342    -13.23920151
 H     10.40648490    -53.03413237    -13.91748413
 H      9.43238926    -54.12904700    -14.92771494
 H      8.02833748    -54.81677204    -13.06662026
 H      9.22473403    -54.08196020    -11.97256655
 H     11.13212591    -54.77042242    -12.36640463
 H     10.47259394    -56.13964349    -13.29296705
 H      9.06274921    -57.19647313    -12.47758048
 H      9.47357706    -56.55969399    -10.86699069
 H     11.51689637    -56.72680407    -10.51003077
 H     11.67764515    -57.89206002    -11.84592188
 H     10.26668466    -59.41278072    -11.66597006
 H      9.97894632    -58.97479095     -9.96490031
 H     12.21834109    -58.99787004     -9.26464352
 H     12.64302701    -59.85723131    -10.76444575
 H     10.82466860    -61.54840034    -10.10520461
 H     10.84801405    -60.77170560     -8.50380929
 H     13.12682320    -60.96773906     -8.06889100
 H     13.25056551    -62.14336168     -9.39962987
 H     11.41908790    -63.49391562     -8.39088306
 H     11.63432956    -62.52765156     -6.91160233
 H     13.94271270    -62.89642831     -6.65560350
 H     13.82488879    -64.22584735     -7.83332555
 H     12.23992408    -65.52187330     -7.15729637
 H     12.28993785    -64.76242727     -5.54825722
 H     14.77603133    -65.21442875     -5.49531015
 H     14.51010577    -66.28854502     -6.88952122
 H     12.76482707    -67.49093522     -5.47731321
 H     13.43774001    -66.60742215     -4.08632095
 H     15.62611912    -67.11593887     -4.21577290
 H     15.24321287    -68.44166655     -5.34009295
 H     13.64311716    -69.55415413     -4.16644283
 H     14.12035147    -68.66490238     -2.70024182
 H     16.14939591    -68.77017702     -2.36791517
 H     16.28629172    -70.14768793     -3.48683871
 H     14.65291930    -71.51540458     -2.64225085
 H     14.61875914    -70.52902141     -1.16098518
 H     16.69384786    -70.41092669     -0.49129221
 H     17.12279644    -71.76739505     -1.56099468
 H     15.31715386    -73.15907749     -0.61912107
 H     15.18913022    -71.96922630      0.69850208
 H     17.53760088    -72.09782049      1.26010119
 H     17.63481462    -73.57409639      0.27044184
 H     16.16534101    -74.93588435      0.84151741
 H     15.91777893    -74.06073979      2.37158332
 H     18.06128560    -73.92512071      3.13418039
 H     18.54392034    -75.16606841      1.95291871
 H     16.85199928    -76.73657552      2.63965311
 H     16.60235315    -75.74755757      4.09834670
 H     18.70381663    -75.58943291      4.91138525
 H     19.20535631    -76.92474998      3.84665386
 H     18.37072561    -78.49568260      3.64609215
 H     17.53200787    -78.27360924      5.20028089
 H     19.64888358    -77.77482200      6.35257937
 H     20.49386805    -78.40407197      4.91789739
 H     19.09385530    -80.52895589      5.21972857
 H     18.67629172    -79.88824698      6.82702425
 H     21.05319030    -79.64022809      7.42111803
 H     21.43622872    -80.65547267      6.01015145
 H     19.97205848    -82.44986422      6.68827429
 H     19.88222173    -81.69418869      8.29735804
 H     22.40781802    -81.72242594      8.37003719
 H     22.33717137    -82.82484145      6.97434533
 H     20.97908961    -84.44724824      7.67237263
 H     21.17332070    -83.88410963      9.34969665
 H     23.71033320    -84.07019824      8.89863543
 H     23.25803120    -84.97682254      7.43517311
 H     21.93932638    -86.59207453      8.22506280
 H     22.52569481    -86.26044974      9.87262576
 H     24.32577116    -86.11972259     10.28927930
 H     24.76847406    -86.97851904      8.79437146
 H     23.49565001    -88.79049497      8.82317463
 H     23.14895754    -88.51948815     10.54788513
 H     25.24534280    -88.30232530     11.39002240
 H     25.90630719    -88.99179118      9.88801390
 H     24.26510232    -90.94402667     10.31371499
 H     24.06868029    -90.25854007     11.94460222
 H     26.53262209    -90.34844850     12.28956530
 H     26.61160030    -91.39435536     10.85147353
 H     24.88409917    -92.87253010     12.05458004
 H     25.26389866    -91.92422955     13.51223058
 H     27.72413833    -92.66103896     12.97779764
 H     26.99020308    -93.80061311     11.83561157
 H     26.60204666    -94.09105775     10.79979082
 H     26.05699809    -95.14900267     12.12340000
 H     28.53864610    -95.33696509     12.76214440
 H     28.88129493    -94.60722047     11.17521931
 H     27.70442821    -96.07449321      9.83343573
 H     27.60699595    -97.20981582     11.20084795
 H     29.61197021    -97.47940899     11.93924836
 H     30.27038877    -96.77870857     10.44132627
 H     28.87538307    -98.43189727      9.13829641
 H     28.62390418    -99.28539452     10.67990838
 H     30.38569739    -99.70005633     11.63801144
 H     31.29894066    -99.41606188     10.13681174
 H     29.73008773   -101.03897273      8.98399859
 H     29.19279199   -101.51723825     10.61213927
 H     31.06145006   -102.03436690     11.67026666
 H     31.92282521   -102.11014775     10.11445280
 H     31.40663104   -102.95974275      8.64100600
 H     30.31283087   -103.99075363      9.59436030
 H     32.26350136   -104.49573072     11.12727438
 H     33.30412724   -103.78108476      9.87242553
 H     32.86785693   -104.76095401      8.02421289
 H     32.04819322   -106.07690202      8.89868354
 H     33.29265835   -106.80009941     10.42474249
 H     34.70216577   -106.01131998      9.67682371
 H     34.77638876   -106.54524804      7.62886466
 H     33.64789753   -107.89046082      7.92071526
 H     34.49595672   -109.00108704      9.60316510
 H     36.05442564   -108.17298569      9.37145532
 H     36.63472838   -108.33220377      7.35136023
 H     35.46065136   -109.64583638      7.09802412
 H     35.70671334   -111.10964712      8.58533568
 H     37.30705268   -110.44902378      8.99856377
 H     38.43841244   -110.25633442      7.21156096
 H     37.30496223   -111.33141285      6.35847031
 H     37.78690231   -112.93436365      8.37929581
 H     39.13021534   -111.82753451      8.75172839
 H     40.21867768   -111.84193958      6.72671180
 H     39.28271634   -113.28125275      6.25700908
 H     40.10560604   -114.33540450      8.44306884
 H     41.26731731   -112.98909384      8.52143463
 H     41.86854829   -113.92914618      6.09615891
 H     40.88275752   -115.33081504      6.57762294
 H     42.06887740   -115.80802501      8.57203080
 H     43.37284223   -114.73772376      8.00423012
 H     43.43630385   -116.08041670      5.86259453
 H     42.44146115   -117.28995482      6.70850955
 H     43.83731667   -117.58304315      8.57020981
 H     45.13777176   -116.75144349      7.68391120
 H     44.96472827   -118.20443449      5.75523515
 H     43.98520133   -119.30988175      6.74860315
 H     45.77911044   -119.35976362      8.47547696
 H     46.84808838   -118.60967088      7.26596727
 H     46.07447940   -120.69899135      5.83291844
 H     45.43797909   -121.32330665      7.37349120
 H     47.47087869   -121.15292507      8.57931667
 H     48.32371231   -120.94225418      7.03123423
 H     46.98644932   -123.23536934      6.55560467
 H     46.68383246   -123.21041708      8.30947670
 H     49.39463872   -123.08203192      8.21751354
 H     49.16525709   -123.50362484      6.50348025
 H     47.95583206   -125.35172190      6.55707085
 H     48.34235283   -125.55589685      8.28252179
 H     50.20225811   -125.44214193      8.82116144
 H     50.73695762   -125.70794967      7.14434621
 H     49.42499359   -127.64930592      6.76795645
 H     49.15542316   -127.75622723      8.52413590
 H     51.71637014   -127.67467227      8.74168413
 H     51.75661130   -127.97652219      6.98796410
 H     50.40603431   -129.94314157      7.06909007
 H     50.65920843   -129.98788711      8.83038714
 H     53.15040501   -129.89823680      8.38894943
 H     52.76084954   -130.26702829      6.69174407
 H     51.50828601   -132.12562331      6.88475479
 H     52.07375953   -132.32307717      8.56091658
 H     54.41938641   -132.18518763      7.91667966
 H     53.90340613   -132.41419679      6.22860803
 H     52.69330596   -134.51728515      7.03542263
 H     53.62509697   -134.34013487      8.54162645
 H     55.72077645   -134.32251458      7.08262245
 H     54.67316824   -134.89714973      5.76331272
 H     53.82552379   -136.77809322      6.99002151
 H     55.13643489   -136.53487296      8.16926816
 H     56.83859185   -136.30494168      7.89881484
 H     56.69554177   -137.04310465      6.28545848
 H     55.52713723   -138.99120313      7.06938990
 H     56.00183977   -138.54539783      8.72594711
 H     57.89562625   -138.17326143      9.04389367
 H     58.34434830   -139.00287765      7.53437318
 H     56.71029321   -140.75005653      9.03356260
 H     57.00890465   -139.53024685     10.29497539
 H     58.75558246   -138.99820131     10.74556266
 H     59.42888619   -140.46403386      9.99305771
 H     58.24128812   -142.11247069     10.86389980
 H     57.65181486   -141.01654622     12.13658888
 H     59.87838641   -140.30963011     12.77424345
 H     60.51895528   -141.67956187     11.83550751
 H     58.95059875   -143.15397556     13.23370721
 H     58.75588729   -141.73857315     14.29530513
 H     61.31660296   -141.73427212     14.47765511
 H     61.25524058   -143.35539801     13.74522615
 H     59.91787243   -144.55263849     14.89212684
 H     59.99230454   -143.38139120     16.23037431
 H     62.29947945   -143.23724152     16.43967879
 H     62.45469153   -144.70671024     15.44728897
 H     61.35412270   -146.25339830     16.01652276
 H     61.11613213   -145.53078239     17.62570063
 H     62.95798835   -144.94444624     18.42882997
 H     63.81994131   -145.95528452     17.24413182
 H     62.54626626   -147.94000033     17.75072365
 H     61.95939540   -147.12204835     19.21864865
 H     63.95021890   -146.49849973     20.16045493
 H     64.79801417   -147.61742966     19.06614892
 H     63.69077755   -149.54486829     19.40215772
 H     62.96869690   -148.86368298     20.87960578
 H     64.82916143   -148.14035472     21.97301828
 H     65.83542633   -149.11824563     20.87783474
 H     64.42402943   -151.12132526     21.45430229
 H     63.77138029   -150.15558139     22.79953630
 H     65.60475795   -149.47770346     23.87371041
 H     66.56288067   -150.69793309     23.00118123
 H     64.91762636   -152.44926846     23.75438718
 H     64.29643217   -151.23667902     24.89981780
 H     65.83188602   -150.43905994     26.04411307
 H     66.90182276   -151.78705885     25.58979934
 H     65.66669276   -153.58875165     26.04475894
 H     64.56134583   -152.58239978     27.01105638
 H     66.15598783   -151.57669887     28.38674335
 H     67.33660437   -152.80118621     27.86229890
 H     65.94829356   -154.67541652     28.40078929
 H     64.90757633   -153.57400762     29.33463764
 H     66.78993376   -152.59392589     30.55469598
 H     67.64944347   -153.91520592     30.22094283
 H     64.92471558   -152.60934799     31.19638685
 H     66.34768588   -151.58455840     30.89105345
 H     67.45643077   -152.94520526     32.79616243
 H     65.81676816   -153.53741213     33.15541753
 H     65.09830735   -151.10413604     33.33319569
 H     66.83473987   -150.70603329     33.36881552
 H     67.73667267   -150.37549591     32.75411848
 H     68.00307045   -150.94062081     34.42083163
 H     66.20813119   -149.24188422     35.10901662
 H     66.38957818   -148.56172027     33.47417086
 H     68.82680449   -148.29469661     33.81004620
 H     68.53996963   -148.57640531     35.54401063
 H     66.86063750   -146.79089872     35.64640398
 H     67.44687286   -146.24387911     34.05726449
 H     69.69839677   -146.04641173     34.54843835
 H     69.30293986   -146.13201617     36.28180281
 H     67.72889611   -144.52763291     36.47833016
 H     68.20360291   -143.88061413     34.88952973
 H     70.59720616   -143.88811065     36.05025743
 H     69.68798747   -144.16784369     37.55469669
 H     68.25655352   -142.30696562     37.37383701
 H     69.32974724   -141.64973585     36.11503959
 H     71.07256834   -142.08757470     38.15142091
 H     69.59270814   -142.30789293     39.11565134
 H     68.53676636   -140.31421991     38.65947524
 H     70.06860162   -139.67411994     38.01758783
 H     71.13724498   -140.36060267     40.22708509
 H     69.47918962   -140.56907239     40.83999575
 H     68.91833981   -138.24309619     40.16589249
 H     70.66519366   -137.96815165     39.96297929
 H     70.50618481   -138.88942482     42.52793906
 H     68.76088338   -138.62097113     42.30405924
 H     68.77513757   -136.41509503     41.67384190
 H     70.45131208   -136.28002894     42.25326301
 H     67.37871476   -137.06466206     42.29659361
 H     68.06463744   -136.17141536     40.91822970
 H     68.78637347   -134.27748633     41.85217516
 H     67.81743359   -134.62837444     43.30348481
 H     65.82599251   -134.90325084     41.71352481
 H     66.85728770   -134.14757551     40.47511789
 H     67.65121412   -132.36678750     41.10325950
 H     66.45600932   -132.26824121     42.41856964
 H     64.53452954   -132.61102872     41.14101518
 H     65.49104906   -132.29822437     39.67285629
 H     66.19731232   -130.10468606     40.80546319
 H     64.88833564   -130.42031988     41.96960322
 H     63.09077333   -130.74036555     40.84377589
 H     63.85084878   -130.02515379     39.40189375
 H     64.68629335   -128.14772818     39.94454969
 H     63.72051720   -128.13173087     41.43963737
 H     61.67267531   -128.52153590     40.84398343
 H     62.08522873   -128.15403294     39.15194090
 H     63.09272978   -126.14038490     39.35525088
 H     62.43057028   -125.98707814     41.00033704
 H     60.14444262   -126.46952695     39.87426401
 H     60.98734283   -126.17925803     38.33363756
 H     61.84007936   -124.05004221     38.87575670
 H     60.71494865   -123.99120570     40.25375736
 H     58.74023446   -124.43970947     39.28079166
 H     59.46102492   -124.11673551     37.68566921
 H     60.33832559   -121.97855952     38.24694436
 H     59.31174867   -121.98764975     39.70101583
 H     57.37304490   -122.45143486     38.03736575
 H     58.53225090   -122.00278960     36.76330707
 H     58.94765407   -119.82787030     37.91960539
 H     57.50013859   -120.17060318     38.89710209
 H     56.26741128   -120.45380614     36.66188234
 H     57.69752285   -119.70492520     35.91206576
 H     57.61469632   -117.74992697     37.33705353
 H     55.97015315   -118.23760962     37.81235350
 H     55.52997881   -118.26122577     35.23908871
 H     57.08452619   -117.40492464     35.10345143
 H     56.76483654   -115.65193224     36.49271210
 H     55.01528799   -115.97951576     36.48674939
 H     55.03167989   -115.93889775     33.98632884
 H     56.65464676   -115.21632765     34.09649980
 H     56.02235361   -113.42542549     35.52898489
 H     54.32000472   -113.78249485     35.15112726
 H     54.68427131   -113.66345501     32.75183531
 H     56.25483222   -112.89715514     33.09005065
 H     54.92697964   -111.20332033     34.49518118
 H     53.47412090   -111.87292849     33.71473703
 H     54.41240282   -111.45369356     31.47248214
 H     55.63609173   -110.42738191     32.25831706
 H     53.65930878   -109.16983313     33.30966375
 H     52.63680662   -110.03380851     32.13650454
 H     53.75510048   -109.44339612     30.19245864
 H     54.60962657   -108.17327388     31.10066640
 H     52.65632295   -107.15533462     31.99288540
 H     51.69136939   -108.07097453     30.81020420
 H     53.22284567   -107.08585403     29.01489886
 H     53.78856534   -105.96131645     30.27332771
 H     52.31954895   -104.97497723     31.22557426
 H     51.16944797   -105.37584511     29.92756064
 H     52.37408847   -104.69062162     28.10071033
 H     53.46950489   -103.79661114     29.18194796
 H     51.40190743   -102.67188488     30.15251302
 H     50.51884861   -103.32974915     28.75405372
 H     51.58595947   -102.71807505     26.98823145
 H     52.47227365   -101.49683910     27.93231651
 H     50.25975165   -100.62596648     28.76950038
 H     49.50043643   -101.60222091     27.48940883
 H     50.24324786   -101.30897837     25.65563536
 H     50.99062490    -99.77795170     26.17104933
 H     49.09861721    -98.80395649     27.13348710
 H     48.09344155   -100.02925110     26.32321450
 H     48.94419482    -99.64242240     24.14002119
 H     49.66145535    -98.12574221     24.73456742
 H     47.47759674    -97.38057763     25.61833213
 H     46.73180618    -98.68185989     24.65982936
 H     47.83741368    -97.84406768     22.60440160
 H     48.20726374    -96.35474059     23.50627876
 H     46.40913404    -95.60999051     24.35046279
 H     45.45085201    -96.64349039     23.26333804
 H     45.88501359    -96.60350068     21.36427407
 H     46.76213894    -95.06771159     21.56494708
 H     45.52611454    -93.70862978     22.61888505
 H     44.09956078    -94.71896259     22.28356634
 H     45.14110694    -94.36953098     19.79463999
 H     46.13818219    -93.13273546     20.59741296
 H     44.74940020    -91.79691670     21.59871741
 H     43.40759604    -92.45180296     20.62972193
 H     43.88203707    -92.43233498     18.60540368
 H     45.21347125    -91.28971809     18.90536425
 H     43.96066001    -89.70251981     20.11263219
 H     42.47319516    -90.48935962     19.53246143
 H     43.49151156    -90.15818148     17.17189021
 H     44.65714742    -89.07296623     17.96679120
 H     43.04222596    -87.67259640     18.99285822
 H     41.80770158    -88.38526424     17.92687474
 H     43.41750086    -87.70608705     16.00641865
 H     44.26451887    -86.73526868     17.23456312
 H     42.62955674    -85.47607455     18.09187034
 H     41.59199208    -85.88710393     16.70522651
 H     43.29041335    -85.20799225     15.08826572
 H     44.15148638    -84.41005118     16.42621563
 H     42.37416633    -83.10680937     17.21120474
 H     41.50015686    -83.44420756     15.69775287
 H     43.07035095    -82.83282918     14.16007348
 H     43.97523989    -81.99203367     15.44167622
 H     42.22571485    -80.68358465     16.26655527
 H     41.29083006    -81.06375537     14.80036043
 H     42.60006928    -80.57465339     13.12599211
 H     43.65222606    -79.63756917     14.21369885
 H     41.94427886    -78.29483160     15.14653184
 H     40.86685971    -78.82038972     13.83077225
 H     41.98047126    -78.41923962     11.98655717
 H     43.10266064    -77.37097506     12.88661221
 H     41.08538022    -76.11678190     13.76654737
 H     40.14124953    -76.96305727     12.51726681
 H     41.78761431    -76.07674826     10.80519114
 H     40.94717187    -74.63492616     11.91071524
 H     40.18014035    -74.07802123     12.54446587
 H     39.61680811    -74.80959390     11.02271528
 H     41.59346650    -73.51754834      9.94591833
 H     41.68869311    -72.63587600     11.48924346
 H     39.75836513    -71.84333382     11.92078235
 H     39.25580816    -72.10742364     10.23378510
 H     41.40985896    -70.77944153      9.64202201
 H     41.45199894    -70.33524805     11.36515377
 H     39.28292297    -69.45119953     11.50203920
 H     39.22316108    -69.41211968      9.72350948
 H     41.32430053    -68.14352288      9.60169532
 H     41.15207112    -67.82844713     11.34506302
 H     38.95146203    -66.93479072     11.21017373
 H     39.16479865    -66.79217206      9.44880663
 H     41.17999460    -65.57554906      9.50228694
 H     40.89277028    -65.24586031     11.22770694
 H     38.59784478    -64.35325966     10.50231014
 H     39.23863121    -64.38823742      8.84205835
 H     41.16876821    -63.06700956      9.32106546
 H     40.41351677    -62.60821022     10.86617552
 H     38.38411926    -61.87225891      9.50848796
 H     39.43119038    -62.00481022      8.07519145
 H     41.18253596    -60.69540055      8.69060594
 H     40.19342807    -60.01255295     10.00348499
 H     38.35419320    -59.39926804      8.62858078
 H     39.39521112    -59.63725420      7.20453340
 H     41.01349709    -58.00330672      8.40310403
 H     39.64534420    -57.64371193      9.48343543
 H     38.03628891    -57.07683544      7.99029880
 H     39.28218492    -56.90756306      6.73039537
 H     40.67632207    -55.43223955      7.97444168
 H     39.32299996    -55.17579545      9.10183795
 H     37.60653196    -54.62702339      7.96726095
 H     38.63390796    -54.26173135      6.56037540
 H     40.11716640    -52.81510735      7.77977002
 H     38.91848196    -52.78151613      9.09517638
 H     37.06941652    -52.13141610      7.81412465
 H     38.18028491    -51.68175771      6.49805269
 H     39.63780716    -50.32734903      7.53660033
 H     38.51312207    -50.17996647      8.90832497
 H     36.78309793    -49.50059540      7.08565471
 H     38.18589827    -49.34649263      6.00091041
 H     39.35670519    -47.82264637      7.46977591
 H     37.83287906    -47.60383674      8.36327629
 H     36.73325687    -47.00462341      6.15999021
 H     38.37800638    -46.86475072      5.49403124
 H     39.12935982    -45.31203654      7.16806717
 H     37.42755223    -45.06358524      7.62674956
 H     36.54229793    -44.54386767      5.56962348
 H     38.19025423    -44.28569719      4.94845146
 H     38.68845165    -42.71547315      6.79316373
 H     36.94085964    -42.67659291      7.12883790
 H     35.93602870    -42.19993345      5.30264437
 H     37.46680089    -41.63547006      4.59103756
 H     38.23208034    -40.20355738      6.12905202
 H     36.62211135    -40.16502607      6.88719570
 H     35.59500767    -39.60674909      4.68604945
 H     37.24007323    -39.25848069      4.10232427
 H     37.81227903    -37.72718477      5.80965676
 H     36.08983831    -37.63327601      6.24857107
 H     34.67594837    -37.47081030      5.48895930
 H     35.52414676    -36.70939135      4.12182093
 H     36.78825862    -35.15911503      5.12483483
 H     35.81925795    -35.33566077      6.60744602
 H     33.95845448    -35.29160690      6.59296533
 H     33.96039744    -34.49572535      5.00084867
 H     35.24690726    -32.86661599      4.98739007
 H     35.28370158    -32.85183682      6.76691091
 H     33.09606485    -32.86509643      7.28851062
 H     32.70153382    -32.41690472      5.61168739
 H     33.81680610    -30.74963461      5.02721692
 H     34.20164837    -30.38480688      6.72635312
 H     31.90772364    -30.45001003      7.45219508
 H     31.42028839    -30.38495661      5.74151054
 H     32.59288702    -28.53025031      5.06700367
 H     32.86134985    -28.10328344      6.77401675
 H     30.68313573    -28.17121907      7.52669833
 H     30.12247194    -28.15929106      5.83738471
 H     31.38307235    -26.20786505      5.22834243
 H     31.64097763    -25.89663606      6.96180372
 H     29.78159550    -25.91332725      7.95601997
 H     28.92846890    -25.74472383      6.40295379
 H     29.90554867    -24.02106683      5.42918508
 H     30.63488543    -23.55417107      6.98428730
 H     28.52123186    -23.57537585      8.16214976
 H     27.70600166    -23.61588860      6.58037066
 H     28.71697599    -21.78794536      5.59579887
 H     29.30167902    -21.27776857      7.19770669
 H     26.98554579    -21.39849511      8.09711388
 H     26.42420079    -21.49285425      6.41062201
 H     27.49630256    -19.58771843      5.59967866
 H     27.78660012    -19.07252825      7.27853931
 H     25.26452069    -19.36565953      7.63479110
 H     25.14143887    -19.46030916      5.86161345
 H     26.33020389    -17.27446072      5.66660430
 H     26.04460409    -17.06150951      7.41055132
 H     23.78975882    -17.36996020      7.51355665
 H     23.69712629    -17.17247880      5.74701002
 H     24.78647506    -15.22095033      5.44020888
 H     24.64843403    -14.88097195      7.18193964
 H     22.33009567    -15.19973341      7.36666183
 H     22.21331209    -15.12749242      5.59200426
 H     23.22141700    -13.29819562      4.99687473
 H     23.15500173    -12.70593020      6.67409784
 H     21.31977627    -12.81499571      7.50777969
 H     20.57043089    -12.99425236      5.90321894
 H     21.47389737    -11.26202703      4.77392166
 H     22.00221961    -10.54527516      6.31515786
 H     19.98774448    -10.57584965      7.44566137
 H     19.15251117    -10.86963749      5.90153032
 H     20.11078484     -9.03882934      4.74017158
 H     20.65215602     -8.38348278      6.30404651
 H     18.15511521     -8.62103267      6.98729221
 H     17.84038733     -8.86857306      5.25295176
 H     18.85995015     -6.93875450      4.44582692
 H     18.87842693     -6.28936820      6.10300002
 H     16.75987591     -6.50276335      6.75927527
 H     16.26476366     -6.75609945      5.06843189
 H     16.91349540     -5.43277141      3.75848990
 H     17.28702624     -4.27968044      5.06199386
 H     15.22577908     -4.34070482      6.15294687
 H     14.52634039     -5.13720265      4.72303660
 H     15.35505194     -3.36393953      3.23502151
 H     15.67001048     -2.38893554      4.69050597
 H     13.87904912     -2.32675750      5.84560489
 H     12.93740350     -2.88975824      4.44396287
 H     13.31605650     -1.79082984      2.75793735
 H     14.04448972     -0.49389382      3.73548975
 H     11.65757646     -0.81353408      4.97416485
 H     11.25278275     -1.78122012      3.53611323
 H     11.62808048     -0.55299941      1.81437564
 H     11.67133978      0.89860250      2.84357300
 H      9.70650569      0.66661640      3.97971303
 H      9.18361383     -0.55408530      2.79449654
 H      9.68376115      1.09522440      0.95793013
 H      9.78207663      2.33657367      2.22979991
 H      7.73606173      1.99637972      3.24187438
 H      7.22166532      1.04295269      1.82955718
 H      7.82723709      2.86809957      0.29118836
 H      7.93248640      3.93338359      1.71328512
 H      6.11241262      3.76384224      2.80683136
 H      5.32029237      3.01084483      1.40190892
 H      5.83193803      4.53759114     -0.22312377
 H      6.29234543      5.70290404      1.04112998
 H      4.25082838      5.52957917      2.26287568
 H      3.53186793      4.71061166      0.85551831
 H      3.94123354      6.07121968     -0.83417001
 H      4.32657120      7.37885485      0.31032631
 H      2.47792118      7.34882225      1.63670588
 H      1.63693046      6.36128090      0.41778694
 H      2.35909481      8.29120985     -1.20332125
 H      2.75588199      9.19476429      0.27803487
 H      0.84146125      9.09301544      1.43984453
 H     -0.01707314      8.57750731     -0.03169777
 H      1.02412619     10.67585749     -1.12243044
 H      1.43940726     11.17855968      0.53379986
 H     -1.04661197     10.89595930      1.07893742
 H     -1.30648660     10.81352061     -0.68002128
 H     -0.23932429     12.81427441     -1.25167972
 H     -0.27773320     13.28807194      0.46363579
 H     -2.38718803     13.03484460      1.05733184
 H     -2.86302588     12.97764928     -0.64789436
 H     -1.17477585     14.75444747      1.37255273
 H     -2.07413252     13.45683929      2.19452431
 H     -4.15595649     13.74471264      1.75622430
 H     -3.82501271     15.40732069      1.21356664
 H     -2.75419029     16.52006802      2.46375306
 H     -3.09873845     15.40013506      3.80364238
 H     -4.61239475     14.69364804      4.29148362
 H     -5.50221608     15.97985486      3.44168559
 H     -4.73427642     17.85384490      3.96994254
 H     -3.91577647     17.14359195      5.38198547
 H     -5.95317411     16.07750659      6.18507950
 H     -6.86175041     17.10486042      5.05406967
 H     -4.69086729     17.27463480      7.36875728
 H     -5.36941113     15.63969799      7.18213859
 H     -7.64501836     16.65941290      7.70926507
 H     -6.75307507     18.10387693      8.24426742
 H     -5.30516341     17.78064364      9.56311303
 H     -5.98041360     16.18181455      9.95814391
 H     -8.21617531     17.27101331     10.33280903
 H     -7.35367367     18.82802972     10.32522665
 H     -5.79520916     18.13380628     12.05280189
 H     -6.87376877     16.75810500     12.38809550
 H     -8.69706888     18.61222174     12.64503018
 H     -7.33374713     19.75640168     12.66677213
 H     -6.43887127     18.30905163     14.61838679
 H     -8.05946513     17.57351269     14.64879529
 H     -9.28633476     19.56516063     14.85790001
 H     -7.77849726     20.40837469     15.28648232
 H     -7.01554126     19.09270969     16.97900010
 H     -8.62260775     18.33653520     17.09649095
 H     -9.87938280     20.30149780     17.28993853
 H     -8.37643627     21.19063740     17.63468359
 H     -7.11693607     20.73241761     18.81995135
 H     -8.27522227     19.69079349     19.68114757
 H     -9.40407109     22.28309773     19.33085441
 H     -7.72762856     22.64557568     18.85502159
 H     -6.75146498     21.86492561     20.89315351
 H     -8.37654895     21.87489389     21.61928671
 H     -8.11792968     24.42355122     20.64833669
 H     -6.41054297     23.95770442     20.45837869
 H     -5.90741918     23.28667320     22.57236554
 H     -7.38840950     24.07913070     23.16138629
 H     -7.26444436     26.13221057     22.36267615
 H     -5.53659629     25.89204451     22.00894181
 H     -5.35546162     25.17060881     24.48842944
 H     -6.98736019     25.85620435     24.67586596
 H     -6.32359530     28.01768518     23.77629480
 H     -4.62920601     27.51019177     23.97569903
 H     -5.14478723     27.00233058     26.39708999
 H     -6.65927892     27.90736176     26.16150529
 H     -5.38292915     29.71166448     26.76074148
 H     -3.74369878     28.79915652     26.04941215
 H     -4.41936494     28.46384886     28.13795372
 H     -5.59902377     29.78577490     27.96712268
 H     -4.02326126     31.40052457     27.19659707
 H     -2.71813279     30.31687190     27.73567338
 H     -3.42354853     29.99643893     29.92769397
 H     -4.52826222     31.38012450     29.74524244
 H     -2.17128887     32.48530088     29.00145860
 H     -1.47249233     30.99623393     29.68162746
 H     -2.23913494     30.86288559     31.71799559
 H     -2.73066349     32.57237330     31.65228332
 H     -0.76974810     33.53354965     30.96676587
 H     -0.10707977     32.00363159     32.16071179
 H     -0.48798798     31.57350305     33.43460257
 H     -1.21141984     32.11955778     33.63471820
 H     -2.45860861     32.65908587     33.70748839
 H     -1.57146396     34.18210005     33.95582052
 H     -0.15178817     33.28385929     35.68201821
 H     -2.06062458     32.57058063     36.04160571
 H     -2.53797427     32.53068542     37.13581394
 H     -1.88230693     33.67411188     37.42136985
 H     -2.36409586     34.02270742     38.51631515
 H     -2.84412078     32.62214733     38.41684933
 H     -4.08989235     33.01941697     38.47268833
 H     -2.81495366     34.03090186     39.75091260
 H     -3.22410707     34.07787496     40.95858576
 H     -3.71480824     32.63531628     40.81407225
 H     -4.29082724     32.76019238     41.95692844
 H     -3.66503460     33.57076003     42.36179516
 H     -4.51814270     32.26688010     42.93470709
 H     -4.33955724     32.14732653     42.87191929
 H     -2.77080821     31.50510573     43.68909274
 H     -3.94853433     31.23617658     43.81002946
 H     -2.08024666     31.27946241     44.46269815
 H     -2.54353980     31.94044497     44.78840642
 H     -2.27029657     31.99242483     46.09724912
 H     -1.31984828     31.40220217     45.41313506
 H     -1.29257053     32.36481500     46.98553626
 H     -1.40037850     32.37711424     47.02472817
 H     -0.81627179     33.42099449     46.94549389
 H     -0.76504714     32.40508728     48.14104895
 H     -2.09553026     33.15129905     48.35709504
 H     -0.77768357     33.20199977     49.03871406
 H     -1.47879659     33.57455657     50.13821171
 H     -2.63023600     33.43986624     49.53529266
 H     -1.90619965     33.97053674     51.17024783
 H     -1.66806488     34.71428929     50.45608609
 H     -1.56575191     35.84123021     50.78505110
 H     -2.01446379     35.40206995     51.73632432
 H     -2.86359189     35.51648334     52.49630824
 H     -2.57654762     36.62427379     51.13297682
 H     -1.35766183     36.46232374     52.41997187
1502
Final Conformation Chain 6 (Simulation Frame 7)
 C      0.00000000      0.00000000      0.00000000
 C      1.54000000      0.00000000      0.00000000
 C      2.16637443      0.36711104     -1.35811802
 C      3.70637442      0.36725764     -1.35807840
 C      4.33271763      1.03058971     -2.59875754
 C      5.85497822      1.23974979     -2.49592391
 C      6.42769474      2.20280624     -3.55238879
 C      7.81036928      2.77731510     -3.19217957
 C      8.47784145      3.56594589     -4.33417011
 C      9.91631555      4.02026214     -4.02434917
 C     10.00442110      5.16334047     -2.99614232
 C     11.44316028      5.52287883     -2.58097761
 C     11.53058782      6.65621160     -1.54198132
 C     12.96353253      7.15478850     -1.27799168
 C     13.87506703      6.11267382     -0.60367585
 C     15.36942127      6.48454073     -0.61852180
 C     16.30714652      5.32568465     -0.23209724
 C     17.74573484      5.76672926      0.09584067
 C     18.62454052      4.64837804      0.68625674
 C     20.10207790      5.04274373      0.86780284
 C     21.02418604      3.86511634      1.23455933
 C     22.51010289      4.24912683      1.36178781
 C     23.44722320      3.05260229      1.61025218
 C     24.75535616      3.42133078      2.33442581
 C     25.64370230      2.21118756      2.67792911
 C     27.15364922      2.51140676      2.63883001
 C     28.03769776      1.25901424      2.49195877
 C     29.45745996      1.55193285      1.97227235
 C     30.31005664      0.29162079      1.73501209
 C     31.73027752      0.58460634      1.21661830
 C     32.50273069     -0.66838566      0.76392951
 C     33.96029861     -0.39070684      0.35163082
 C     34.63409040     -1.55855437     -0.39250410
 C     35.90726088     -2.08730081      0.29383702
 C     36.55205732     -3.28856907     -0.42225803
 C     37.99754165     -3.58031065      0.02165851
 C     38.72337256     -4.62010550     -0.85218138
 C     40.16533598     -4.91956942     -0.40200047
 C     40.92584942     -5.88060508     -1.33453989
 C     42.33318799     -6.25593387     -0.83441345
 C     43.05859701     -7.28603705     -1.72000319
 C     44.42737550     -7.73010499     -1.17150605
 C     45.20957230     -8.65994603     -2.11763702
 C     46.72072786     -8.72144141     -1.82741784
 C     47.51577420     -9.58303616     -2.82599473
 C     49.01001033     -9.72370914     -2.48093022
 C     49.72231229    -10.86248648     -3.23419783
 C     50.42865599    -10.41280634     -4.52666305
 C     50.88154739    -11.57501773     -5.42985409
 C     51.78950064    -11.14433037     -6.59678567
 C     52.30419709    -12.31488953     -7.45496910
 C     53.32812436    -11.90169317     -8.52848748
 C     53.78022452    -13.05723090     -9.44059384
 C     53.73610592    -14.44123256     -8.76665545
 C     54.33980456    -15.57265569     -9.61931579
 C     54.35320960    -16.94482914     -8.92034488
 C     54.65227413    -18.12516830     -9.86319158
 C     55.11084468    -19.40461997     -9.13909457
 C     56.22071816    -20.17754836     -9.87554726
 C     57.06029085    -21.09010130     -8.96233052
 C     57.37517556    -20.47858888     -7.58446979
 C     58.35446633    -21.31283691     -6.73793579
 C     58.41577065    -20.89451098     -5.25710994
 C     59.84638224    -20.72627239     -4.71245751
 C     59.90927242    -20.38415054     -3.21225837
 C     61.30790958    -20.55129319     -2.58978153
 C     61.28861058    -20.88752920     -1.08705970
 C     62.68727692    -21.05315590     -0.46424328
 C     62.67586292    -21.21475841      1.06721170
 C     64.07684845    -21.22396668      1.70655102
 C     64.06964118    -21.02746205      3.23394552
 C     65.44390905    -21.23165547      3.89824429
 C     65.44665998    -20.98947027      5.41907918
 C     64.66809810    -19.73427036      5.85487110
 C     64.11098647    -19.80911404      7.28861621
 C     63.15559778    -18.65672756      7.65033135
 C     62.58204608    -18.74295982      9.07693657
 C     61.82473183    -17.47911877      9.52502242
 C     60.34488221    -17.45183127      9.09969844
 C     59.58089152    -16.20022461      9.57022898
 C     60.08749631    -14.88610300      8.94730364
 C     59.31719526    -13.63559001      9.41039496
 C     59.92788784    -12.30803573      8.92433510
 C     59.08543821    -11.06663307      9.27189526
 C     59.61212681     -9.75875498      8.65249716
 C     58.50496170     -8.81080667      8.15532573
 C     57.59997270     -9.42022538      7.06849375
 C     56.32286583     -8.60659039      6.78814375
 C     55.18749748     -9.42465383      6.14525114
 C     53.96673036     -8.58288858      5.72960839
 C     52.61863886     -9.30736227      5.90103534
 C     52.50982274    -10.62371344      5.10921551
 C     51.06312111    -11.09997917      4.88156371
 C     50.10857960     -9.99352910      4.39554030
 C     48.79530749    -10.52129363      3.78859633
 C     47.78132948     -9.41785883      3.43380028
 C     46.35826200     -9.93921990      3.16055757
 C     45.27091052     -8.85005036      3.21511459
 C     43.90515120     -9.30028648      2.66412557
 C     42.91232755     -8.14627810      2.43139002
 C     41.43466841     -8.57992443      2.44001271
 C     40.44528211     -7.42790922      2.69609026
 C     38.96478372     -7.84378486      2.61379819
 C     37.97550807     -6.69523648      2.88540510
 C     36.49645082     -7.12345669      2.86056378
 C     35.50348561     -5.94633375      2.85927298
 C     34.04412100     -6.35820961      2.59054781
 C     33.12518994     -5.18700743      2.19627489
 C     31.62568726     -5.53779539      2.20256326
 C     30.69916854     -4.33139930      1.96220622
 C     29.19958057     -4.65835428      2.08844552
 C     28.27417311     -3.44555630      1.87786987
 C     26.80315607     -3.70792620      2.25052374
 C     25.84387255     -2.57065260      1.85305187
 C     24.36406401     -2.86184340      2.16445935
 C     23.40911024     -1.70941380      1.80173453
 C     21.91714846     -2.08004367      1.89274864
 C     20.97838108     -0.86796339      2.03827250
 C     19.51477180     -1.24168156      2.33790996
 C     18.52696395     -0.06891994      2.19485115
 C     17.07452575     -0.42491128      2.56267370
 C     16.16817702      0.79904856      2.79082777
 C     14.67075314      0.45739183      2.90304366
 C     13.74520833      1.68821114      2.89592716
 C     12.27749887      1.36629957      2.55858180
 C     11.37206083      2.60760540      2.45397875
 C     10.00987467      2.33508226      1.78931341
 C      9.03915323      3.52963709      1.83767287
 C      7.84803011      3.40842669      0.86909982
 C      6.76814433      4.48855006      1.06602675
 C      5.43606198      4.17890572      0.35801756
 C      4.35831866      5.26213349      0.54955588
 C      2.95712194      4.84395360      0.06646858
 C      2.90203473      4.43618192     -1.41754208
 C      1.52407422      4.64316614     -2.07327250
 C      1.52335974      4.45611719     -3.60187061
 C      0.18156697      4.80079908     -4.27446748
 C      0.15484888      4.53561933     -5.79122912
 C     -1.20416123      4.82731077     -6.45425824
 C     -1.13985405      4.94706418     -7.98824771
 C     -2.41996867      5.51799455     -8.62617017
 C     -3.65122205      4.60371052     -8.48581406
 C     -4.83512075      5.00491951     -9.38526679
 C     -5.95292124      3.94810441     -9.45781956
 C     -7.31181547      4.50452075     -9.92193952
 C     -8.43125367      3.44902167     -9.98811953
 C     -9.77334817      3.99146819    -10.51360419
 C    -10.91423894      2.95712831    -10.50315186
 C    -12.31262455      3.56478715    -10.71964300
 C    -13.31830671      2.60290275    -11.37917449
 C    -14.51328758      3.30776781    -12.04759501
 C    -15.52369034      2.34541534    -12.69918076
 C    -16.90669147      2.97103570    -12.95900192
 C    -17.88288997      2.04421613    -13.70709414
 C    -19.35358667      2.20844240    -13.28085367
 C    -20.34649095      1.39239204    -14.12926565
 C    -21.74155793      1.24677543    -13.49351104
 C    -22.78440813      0.58799014    -14.41550094
 C    -24.11955738      0.26377032    -13.71990192
 C    -25.08988835     -0.56504483    -14.58194788
 C    -26.30891181     -1.10405384    -13.81055232
 C    -27.43637328     -1.63694444    -14.71413310
 C    -28.49699782     -2.46781411    -13.96825699
 C    -29.58935934     -3.05434138    -14.88167479
 C    -30.38697130     -4.20693355    -14.24375124
 C    -31.69513040     -4.54703881    -14.98175407
 C    -32.56877407     -5.58965340    -14.25974192
 C    -34.00494139     -5.69005754    -14.80649821
 C    -34.81998973     -6.85556539    -14.21583107
 C    -36.12323397     -7.15829458    -14.97839876
 C    -36.82241681     -8.45619063    -14.53319184
 C    -38.15965193     -8.72435553    -15.24837702
 C    -38.86724431    -10.01335506    -14.79078198
 C    -39.74678160    -10.66370222    -15.87478508
 C    -40.56558297    -11.86926762    -15.37701367
 C    -41.51255689    -12.46353038    -16.43611337
 C    -42.04283840    -13.86624522    -16.08569562
 C    -42.96221693    -14.47493694    -17.16079446
 C    -43.60728221    -15.81152172    -16.74965957
 C    -44.78963344    -16.23651975    -17.64017754
 C    -45.33806236    -17.64064281    -17.32511539
 C    -46.39393914    -18.14038746    -18.32859907
 C    -46.75309414    -19.62953645    -18.17034931
 C    -47.89664875    -20.09908987    -19.08871875
 C    -48.07273673    -21.62819579    -19.13799466
 C    -48.75413239    -22.13921911    -20.42102042
 C    -48.79975880    -23.67414771    -20.53726335
 C    -49.12816637    -24.18567270    -21.95221588
 C    -49.68423100    -25.62138174    -21.98585640
 C    -49.68221915    -26.26121337    -23.38664598
 C    -50.55264830    -27.52669493    -23.49849194
 C    -50.57268315    -28.15074721    -24.90624098
 C    -51.12324379    -29.58841106    -24.94631120
 C    -51.13296654    -30.21645893    -26.35239134
 C    -51.45673926    -31.72199639    -26.36371294
 C    -51.51238166    -32.34014409    -27.77310903
 C    -52.07117737    -33.77480427    -27.80623811
 C    -52.40973574    -34.28265344    -29.22012193
 C    -52.63488707    -35.80390162    -29.30204176
 C    -52.85763594    -36.32797754    -30.73289024
 C    -53.17086070    -37.83398049    -30.80668301
 C    -53.01717397    -38.43744518    -32.21516118
 C    -53.39237930    -39.92850495    -32.30211942
 C    -53.04537249    -40.58404922    -33.65172972
 C    -53.22904960    -42.11293400    -33.67107025
 C    -53.00416084    -42.75339335    -35.05340048
 C    -53.52551893    -44.19801970    -35.16671619
 C    -53.23499744    -44.86409188    -36.52448831
 C    -53.65057347    -46.34517151    -36.59728730
 C    -53.26908912    -47.03857018    -37.91837321
 C    -54.23767626    -48.15909689    -38.34010637
 C    -53.96692101    -48.72459931    -39.74669750
 C    -54.67861192    -50.06002650    -40.03258254
 C    -54.57151895    -50.52604279    -41.49646776
 C    -55.17647920    -51.91816652    -41.75649585
 C    -55.34045252    -52.26107032    -43.24885295
 C    -56.08505103    -53.58365395    -43.50951669
 C    -56.59921465    -53.73907577    -44.95280455
 C    -57.46794016    -54.99075640    -45.17688396
 C    -57.44245704    -55.52025361    -46.62276892
 C    -58.43550196    -56.66717584    -46.88740296
 C    -58.34468239    -57.25953635    -48.30601526
 C    -59.02711975    -58.63182860    -48.45665794
 C    -59.14954127    -59.11387845    -49.91413552
 C    -59.47130796    -60.61347567    -50.05296774
 C    -60.04541059    -61.00634446    -51.42688924
 C    -61.58234992    -61.09728795    -51.46075351
 C    -62.17723095    -61.12175084    -52.88100635
 C    -63.71588462    -61.17656482    -52.91477486
 C    -64.30220856    -61.45596204    -54.31111344
 C    -65.79889803    -61.81847688    -54.30093406
 C    -66.29461603    -62.46937864    -55.60561431
 C    -67.69092811    -63.10945584    -55.49509850
 C    -68.11165689    -63.91350611    -56.73932134
 C    -69.62711295    -63.89720881    -57.01268434
 C    -70.01760383    -64.41962114    -58.40774787
 C    -71.48423178    -64.14750692    -58.79057460
 C    -71.96992461    -64.94408706    -60.01579399
 C    -73.31431990    -64.45650316    -60.58716359
 C    -73.90210821    -65.37404518    -61.67538303
 C    -75.06017382    -64.74167068    -62.46947782
 C    -75.85840150    -65.74674588    -63.32051038
 C    -76.82122341    -65.08967235    -64.32690411
 C    -77.26519976    -66.02201747    -65.46936529
 C    -78.18615933    -65.34970469    -66.50446384
 C    -78.33997426    -66.14351875    -67.81511261
 C    -79.61553263    -65.80269667    -68.60782388
 C    -79.74467739    -66.56004793    -69.94249264
 C    -81.14041498    -66.46195617    -70.58583904
 C    -81.26341042    -67.20135686    -71.93111178
 C    -82.69082759    -67.21729297    -72.50888878
 C    -82.77492354    -67.73633783    -73.95634182
 C    -84.17659072    -68.22534703    -74.36597472
 C    -84.27662445    -68.68207727    -75.83328202
 C    -85.41799225    -69.68037487    -76.10213412
 C    -85.92522931    -69.67511211    -77.55619150
 C    -87.17596608    -70.54358883    -77.78642118
 C    -87.37970963    -70.97251146    -79.25138328
 C    -88.59155090    -71.89717182    -79.47057258
 C    -89.01500539    -72.03597566    -80.94468920
 C    -90.17328298    -73.02479562    -81.17322389
 C    -90.79898382    -72.94272205    -82.57798806
 C    -92.03450332    -73.84238883    -82.76690937
 C    -92.75587001    -73.64134701    -84.11257363
 C    -93.75878675    -74.75761800    -84.45854629
 C    -94.72297968    -74.40017631    -85.60491771
 C    -95.65364525    -75.55363062    -86.02325342
 C    -95.98675766    -75.57589797    -87.52662972
 C    -96.83611298    -76.78441086    -87.96216634
 C    -96.73583382    -77.11197744    -89.46358042
 C    -96.81784240    -78.61617775    -89.78335537
 C    -96.12284303    -79.01582755    -91.09821503
 C    -96.34934858    -80.48364002    -91.50542722
 C    -95.77173948    -80.84694444    -92.88599871
 C    -95.67413226    -82.36182966    -93.14521985
 C    -95.44810160    -82.73113634    -94.62309762
 C    -95.62984113    -84.22942823    -94.92918933
 C    -95.39087275    -84.60082763    -96.40450509
 C    -96.02298597    -85.94121767    -96.82329790
 C    -95.52089708    -86.47438384    -98.17800842
 C    -96.05809195    -87.87172263    -98.53920915
 C    -95.50564136    -88.43226502    -99.86291251
 C    -96.13223201    -89.77425778   -100.28485990
 C    -95.52199711    -90.37562297   -101.56453692
 C    -95.93749823    -91.83438382   -101.83094938
 C    -95.21420108    -92.48348747   -103.02556467
 C    -95.40782651    -94.00823358   -103.12178567
 C    -94.41396128    -94.70738189   -104.06784251
 C    -94.69600078    -96.20702644   -104.27549591
 C    -93.70661254    -96.90451599   -105.22745140
 C    -93.93047713    -98.42226022   -105.36138086
 C    -92.92891091    -99.12288344   -106.29817977
 C    -91.51628220    -99.27472362   -105.70402097
 C    -90.63366655   -100.29929598   -106.44079847
 C    -89.14107577   -100.22191777   -106.06960393
 C    -88.30899311    -99.32400336   -107.00394229
 C    -86.92597285    -98.94625141   -106.44166263
 C    -86.00940684    -98.23791682   -107.45643790
 C    -84.70292260    -97.69513342   -106.84809170
 C    -83.79629002    -96.96788953   -107.85840536
 C    -82.44221600    -96.52121995   -107.27653781
 C    -81.35012456    -96.29024645   -108.33747491
 C    -80.00635121    -95.80959740   -107.75881294
 C    -78.78720103    -96.15972810   -108.63212923
 C    -77.43956083    -95.71615961   -108.03320277
 C    -76.21226861    -96.34656492   -108.71726633
 C    -74.86860905    -95.73209768   -108.28297499
 C    -73.67110612    -96.69223861   -108.40833899
 C    -72.33653514    -96.09564270   -107.92399032
 C    -72.23597392    -95.94533219   -106.39464595
 C    -70.96351563    -95.22001739   -105.91886414
 C    -71.01806114    -94.75722674   -104.45105980
 C    -69.95105411    -93.70893801   -104.08474473
 C    -70.00865766    -93.24260155   -102.61817999
 C    -68.74917147    -92.49003528   -102.15027129
 C    -68.69245224    -92.24814336   -100.63044523
 C    -67.59638652    -91.25822282   -100.19421450
 C    -67.38867941    -91.18543228    -98.67002314
 C    -66.36746050    -90.12121075    -98.22714113
 C    -66.45663458    -89.75012144    -96.73518245
 C    -65.40714403    -88.71795213    -96.28263842
 C    -65.41505078    -88.43941208    -94.76805831
 C    -64.32289968    -87.45683018    -94.30617216
 C    -64.56958948    -86.85762316    -92.90914135
 C    -63.36870739    -86.07903755    -92.34055833
 C    -63.71841395    -85.17415255    -91.14452803
 C    -62.49767889    -84.50001712    -90.49111595
 C    -62.85036827    -83.29576472    -89.59837503
 C    -61.62446136    -82.55774832    -89.02909122
 C    -61.95824671    -81.20979497    -88.36335173
 C    -60.74298120    -80.50461855    -87.73291065
 C    -61.04729538    -79.09474083    -87.19324621
 C    -59.96460017    -78.53780774    -86.25027398
 C    -60.14640383    -77.04984974    -85.89738816
 C    -59.30747272    -76.58479339    -84.69259889
 C    -59.50027201    -75.10039264    -84.33068335
 C    -58.71596017    -74.65283301    -83.08322782
 C    -58.62743401    -73.12473614    -82.91386705
 C    -57.50816824    -72.66384228    -81.96180560
 C    -57.47147017    -71.14206686    -81.72845430
 C    -56.58768713    -70.71125916    -80.54315592
 C    -56.74420247    -69.23029902    -80.15090599
 C    -56.09411020    -68.86729245    -78.80286806
 C    -56.62543391    -67.56168073    -78.18264781
 C    -55.98187509    -67.20342219    -76.83021191
 C    -56.46321417    -65.86369183    -76.24281491
 C    -55.98632795    -65.60420116    -74.80168892
 C    -56.27346409    -64.17894316    -74.29395624
 C    -55.54863883    -63.82328381    -72.98256966
 C    -56.20954155    -62.67873302    -72.19211974
 C    -55.33741285    -62.11911197    -71.05290255
 C    -55.62306979    -60.64480257    -70.71171066
 C    -54.60755775    -60.01919771    -69.73756804
 C    -55.08030026    -58.69805786    -69.10297840
 C    -54.07943247    -58.09020394    -68.10278977
 C    -54.34400822    -56.60923779    -67.77364096
 C    -53.37779124    -56.01703261    -66.73089566
 C    -53.34898192    -54.47748960    -66.70686752
 C    -52.28399145    -53.88555748    -65.76505455
 C    -52.16327259    -52.35217989    -65.84108161
 C    -51.10863193    -51.75890056    -64.88853098
 C    -51.00911866    -50.22307085    -64.94260699
 C    -49.96014531    -49.62921721    -63.98417453
 C    -50.03989548    -48.09814065    -63.83910740
 C    -49.02566505    -47.50988796    -62.84066091
 C    -49.23261508    -46.01246570    -62.54655504
 C    -48.43706503    -45.49668057    -61.33302061
 C    -48.39926255    -43.96164804    -61.21535118
 C    -47.70659701    -43.44811525    -59.93938154
 C    -47.30736848    -41.96192869    -59.99825500
 C    -46.37494612    -41.51809000    -58.85580336
 C    -45.65080464    -40.18496888    -59.12039207
 C    -44.73709312    -39.72892899    -57.96767403
 C    -43.85918844    -38.51051187    -58.30876507
 C    -42.99750217    -38.01088607    -57.13425631
 C    -42.08740653    -36.81981001    -57.48733383
 C    -41.50993512    -36.08784110    -56.26163064
 C    -40.54444440    -34.94109439    -56.61433398
 C    -40.22385515    -34.00651466    -55.43307056
 C    -39.33357522    -32.80691295    -55.80717932
 C    -39.07474787    -31.83198428    -54.64351163
 C    -37.88049497    -30.88691268    -54.87198415
 C    -37.56671509    -29.97287602    -53.67295155
 C    -36.32508585    -29.08369255    -53.87121800
 C    -35.84167276    -28.38721829    -52.58559154
 C    -34.53439319    -27.59163556    -52.75783623
 C    -34.06783637    -26.86922003    -51.48032281
 C    -32.84868622    -25.95182385    -51.68926577
 C    -32.64224497    -24.91884413    -50.56590700
 C    -31.35655409    -24.08372462    -50.71142110
 C    -31.29795094    -22.85698709    -49.78229208
 C    -29.97037870    -22.07980229    -49.85395605
 C    -29.89139108    -20.88433876    -48.88636734
 C    -28.49405400    -20.24342808    -48.79535867
 C    -28.34200090    -19.23354383    -47.64270362
 C    -26.99400396    -18.48892313    -47.63605046
 C    -26.93368849    -17.31151883    -46.64525222
 C    -25.56943923    -16.59837886    -46.60217864
 C    -25.11636697    -16.19802841    -45.18582945
 C    -23.82395644    -15.36118397    -45.15474233
 C    -23.02346777    -15.49338862    -43.84579625
 C    -21.93149145    -14.42206412    -43.66845051
 C    -21.06630634    -14.61206740    -42.40870709
 C    -20.21631367    -13.38160956    -42.04116664
 C    -19.43787636    -13.52982999    -40.72068716
 C    -18.60591274    -12.29060459    -40.34153426
 C    -17.79866727    -12.45234598    -39.04007567
 C    -16.87674541    -11.26034655    -38.72258956
 C    -15.84767499    -11.54274979    -37.61224615
 C    -15.02712409    -10.30973597    -37.19037751
 C    -14.05838749    -10.57175468    -36.02226125
 C    -13.23966706     -9.33809437    -35.59872956
 C    -12.46283804     -9.52375966    -34.28204240
 C    -11.64738138     -8.28867057    -33.85638365
 C    -11.15794128     -8.33379351    -32.39692749
 C    -10.12267573     -7.24789021    -32.04959585
 C     -9.56474082     -7.34946132    -30.61781656
 C     -8.62448958     -6.19362431    -30.22849867
 C     -8.08133049     -6.28530930    -28.79038461
 C     -7.31662364     -5.03092880    -28.32848313
 C     -6.38293787     -5.27318463    -27.12800698
 C     -5.73780340     -3.99199257    -26.56769597
 C     -4.77540981     -4.23832381    -25.39095492
 C     -4.05255448     -2.97133254    -24.89718035
 C     -3.44420247     -3.10592791    -23.48885087
 C     -2.69885274     -1.84792444    -23.00565212
 C     -1.98868548     -2.02246944    -21.65036746
 C     -1.61481562     -0.69572345    -20.96366053
 C     -0.89777768     -0.87032578    -19.61200576
 C     -0.39031664      0.44734956    -18.99733919
 C      0.55199633      0.25541194    -17.79450661
 C      0.74124663      1.52169270    -16.93875117
 C      1.10505739      1.23636763    -15.46979531
 C      1.04130374      2.47488452    -14.55677209
 C      1.45613793      2.20063299    -13.09927469
 C      1.69626960      3.47345324    -12.26628885
 C      2.16568732      3.19973575    -10.82534272
 C      2.55879832      4.46679996    -10.04328644
 C      3.27866166      4.18294866     -8.71181161
 C      3.64126642      5.44896354     -7.91348580
 C      4.27656568      5.16290909     -6.54010759
 C      4.46053879      6.41466461     -5.66212010
 C      5.17217322      6.14204529     -4.32389175
 C      5.76876108      7.39922901     -3.66421605
 C      6.60461974      7.10853411     -2.40388404
 C      7.49331931      8.28407696     -1.95676876
 C      8.04712757      8.14209819     -0.52682525
 C      8.89891925      9.33844342     -0.06335030
 C      9.62475488      9.10930993      1.27540303
 C     11.10116431      8.69795503      1.12506231
 C     11.81891155      8.44010627      2.46295353
 C     13.35548097      8.47509898      2.36636196
 C     14.06470886      7.47724298      3.30064201
 C     15.57117112      7.74488916      3.47539038
 C     16.21834439      6.95407980      4.62751335
 C     16.90944205      5.65174465      4.18264579
 C     17.78563322      5.00423283      5.27104713
 C     18.81100581      3.99106226      4.72910945
 C     19.94273432      3.65534436      5.71809078
 C     20.83729618      2.48383011      5.27209365
 C     22.16504230      2.37992475      6.04532965
 C     22.91507760      1.05282170      5.82659571
 C     24.25167602      0.95629760      6.58540250
 C     25.11826331     -0.24938940      6.17681307
 C     26.51999028     -0.25806770      6.81453259
 C     27.58352872     -0.99499969      5.97941750
 C     29.01387584     -0.87097739      6.53648624
 C     30.04864650     -1.74708386      5.80622113
 C     31.50787899     -1.30509310      6.02274986
 C     32.53307674     -2.10150270      5.19431681
 C     33.99419290     -1.67451461      5.42759933
 C     35.02260506     -2.50002748      4.63230257
 C     36.47951890     -2.04016660      4.82602927
 C     37.52283322     -2.98421415      4.20003449
 C     38.97595166     -2.66238934      4.59560444
 C     39.99127033     -3.74515740      4.18531026
 C     41.45753851     -3.36777698      4.46680920
 C     42.47853880     -4.14035028      3.61107040
 C     43.94687689     -3.84777046      3.97159819
 C     44.96532127     -4.69677262      3.18829342
 C     46.37161549     -4.72449985      3.81532432
 C     47.44323541     -5.37588554      2.92149692
 C     48.88422578     -5.18307198      3.42940410
 C     49.96617300     -5.51468374      2.38488323
 C     50.29118166     -7.01595630      2.27465588
 C     51.22142284     -7.37084048      1.09979054
 C     51.82525705     -8.78501479      1.18402396
 C     52.97607106     -9.03484750      0.19164765
 C     53.78142704    -10.31627480      0.47615745
 C     54.65030541    -10.24115916      1.74541236
 C     55.54543674    -11.47478836      1.96563700
 C     56.13529296    -11.57540222      3.38463189
 C     57.06571079    -12.78493261      3.59189717
 C     57.53840895    -12.96967580      5.04586635
 C     58.38473262    -14.23602167      5.27325233
 C     57.62334563    -15.55129478      5.02436180
 C     58.28557482    -16.78819203      5.65929304
 C     57.55589182    -18.11135467      5.36196602
 C     58.27769243    -19.35983455      5.90224544
 C     59.67832537    -19.58244797      5.30201996
 H     -0.36333333      0.00000000      1.02766186
 H     -0.36333333     -0.88998127     -0.51383093
 H     -0.36333333      0.88998127     -0.51383093
 H      1.88274777      0.03548305     -1.03410102
 H      1.88274777     -0.38071674     -0.96212200
 H      3.22976556      0.13075882     -1.32021119
 H      3.21332825      0.06406573     -1.34581993
 H      4.04918396     -0.02246417     -2.31656602
 H      4.04907395      1.07744453     -2.11060190
 H      5.12486264      1.70119498     -2.26574875
 H      5.41712342      0.95850083     -2.51528732
 H      6.05594222      2.31086484     -2.51656413
 H      6.05462461      2.31130808     -2.49796096
 H      6.74926393      3.11365619     -3.04736836
 H      7.48896941      2.34411536     -3.34787028
 H      8.35301117      2.97031022     -4.11759443
 H      7.82115088      3.83504459     -3.45522348
 H      8.95193699      4.45034546     -3.90852845
 H      9.52200764      3.73371642     -4.07021931
 H      9.96222497      5.10471990     -4.12406719
 H      9.98363551      4.24269185     -2.95941112
 H     10.60308852      4.82003955     -2.15243515
 H     10.78429480      5.85383585     -3.31725469
 H     11.53023253      6.60900759     -2.55194731
 H     11.42908288      5.84496717     -1.53974712
 H     12.34764279      6.43065360     -0.85667500
 H     12.24210001      6.36031954     -0.77107388
 H     13.37646597      6.58566745     -0.44511282
 H     13.66129827      6.43124058     -1.69953810
 H     14.70311065      5.89414141     -1.27798093
 H     14.79714260      6.60874764     -0.30071147
 H     15.46369821      7.53594028     -0.34691390
 H     15.94726972      5.57524958     -0.78399319
 H     17.21828592      5.40998128     -0.82439704
 H     16.77857495      5.56917357      0.72004161
 H     17.69670278      6.65183320      0.73010155
 H     18.42810591      4.98379921     -0.23505248
 H     18.46064323      3.74085127      0.10519491
 H     18.31698902      4.47955451      1.71825029
 H     20.13928926      6.04115575      1.30356510
 H     20.57616267      5.05674872     -0.11359794
 H     20.76902054      3.01857202      0.59710088
 H     21.93801333      4.26835002      1.67093335
 H     22.90868703      3.78282756      2.26278485
 H     22.91135759      4.40289404      0.36006414
 H     23.15723015      2.24481357      0.93832850
 H     23.32246916      2.72829227      2.64338307
 H     24.51364803      4.09377391      3.15752812
 H     25.40660806      3.93346668      1.62612659
 H     25.67804040      1.55365039      1.80927166
 H     25.19212415      1.68164476      3.51683411
 H     27.32682883      3.46380962      3.13986656
 H     27.46090596      2.58838838      1.59586926
 H     27.59818929      0.61681761      1.72873155
 H     28.04873836      0.73337492      3.44677887
 H     29.84372515      2.42242170      2.50250660
 H     29.39348335      1.77419125      0.90709246
 H     29.69354328     -0.44812035      1.22433183
 H     30.61981040     -0.10004120      2.70390502
 H     32.14296097      1.41060352      1.79586007
 H     31.65936210      0.87554174      0.16855934
 H     31.83173004     -1.28858931      0.16961851
 H     32.81461794     -1.21818990      1.65192818
 H     34.40456930      0.27579121      1.09088985
 H     33.95366848      0.09938290     -0.62195435
 H     33.93175624     -1.94519633     -1.13097193
 H     34.75665269     -2.38549693      0.30695604
 H     35.70976734     -2.17423959      1.36226482
 H     36.70914512     -1.36741953      0.12996935
 H     36.56524810     -3.08284416     -1.49258660
 H     35.94152937     -4.17068626     -0.22932053
 H     38.04164768     -3.51666056      1.10890426
 H     38.64923545     -2.82259870     -0.41339068
 H     38.51889177     -4.39146219     -1.89813063
 H     38.32695093     -5.60656995     -0.61168650
 H     40.16941064     -5.03283427      0.68209107
 H     40.79416396     -4.07420769     -0.68135495
 H     40.73682108     -5.57956760     -2.36494986
 H     40.54277085     -6.88842039     -1.17435525
 H     42.27023756     -6.47911174      0.23063532
 H     42.99100577     -5.40051115     -0.98812660
 H     42.91773673     -7.00124813     -2.76266979
 H     42.60936284     -8.26389748     -1.54657405
 H     44.32346827     -7.91935784     -0.10310226
 H     45.17928953     -7.55005682     -1.93982104
 H     45.14135275     -8.25685998     -3.12806649
 H     44.74724598     -9.64659724     -2.08807762
 H     47.02293148     -9.76845097     -1.80409532
 H     47.17461669     -7.79356179     -2.17544708
 H     47.17177817     -9.34619952     -3.83280908
 H     48.12703918    -10.28662760     -2.26082732
 H     49.09794081     -9.92136071     -1.41261281
 H     49.50667528     -8.78296490     -2.71846800
 H     49.38387920    -10.85234681     -4.27027709
 H     49.41216280    -11.81059095     -2.79487423
 H     51.23793432    -11.11229578     -4.73614599
 H     49.66888531    -10.22885934     -5.28627612
 H     50.07079813    -12.30139275     -5.48611197
 H     51.75611011    -12.04110200     -4.97597579
 H     52.53003585    -10.44218273     -6.21377616
 H     51.74330796    -11.91261338     -7.36860654
 H     51.47199598    -12.99288031     -7.64436241
 H     53.07805112    -12.83765303     -6.89285855
 H     54.04205219    -11.21434306     -8.07466275
 H     52.79561225    -11.39383951     -9.33261154
 H     52.89913125    -13.62934815     -9.73120785
 H     53.35801307    -13.98464593     -9.05363278
 H     53.40539557    -15.17163638     -9.50505976
 H     54.57148990    -14.50994336     -8.06986822
 H     55.27486604    -15.21522791    -10.05059923
 H     53.63843724    -15.81075176    -10.41899957
 H     53.38706272    -17.09324726     -8.43802522
 H     55.13901129    -16.93705274     -8.16499381
 H     55.48288244    -17.84456354    -10.51084179
 H     53.76605452    -18.31259951    -10.46947892
 H     54.46586808    -19.55875091     -8.27402299
 H     56.13826746    -19.25989798     -8.80509163
 H     56.96522138    -19.46093743    -10.22236670
 H     55.77567971    -20.68271251    -10.73278116
 H     56.38304941    -21.62644398     -8.29766477
 H     56.63363574    -21.05780979     -7.95982233
 H     56.46494236    -20.02164327     -7.19617064
 H     58.13889665    -19.71210121     -7.71610085
 H     59.17269395    -21.63738509     -7.38079817
 H     57.82238604    -22.18527322     -6.35866619
 H     57.39686004    -20.73964352     -4.90223356
 H     58.97074762    -19.95892779     -5.18793882
 H     60.43155371    -20.17704198     -5.45003484
 H     60.27798098    -21.71712730     -4.57093343
 H     59.20613013    -21.02813632     -2.68407921
 H     59.61380157    -19.34264131     -3.08554805
 H     62.04014914    -20.11706214     -3.27049338
 H     61.50647485    -21.61679087     -2.47408133
 H     60.53039280    -21.65181624     -0.91655716
 H     61.02418523    -19.98434493     -0.53711660
 H     63.32118811    -20.24311225     -0.82491750
 H     63.09725298    -22.00861638     -0.79152740
 H     61.88398372    -21.91539732      1.33203701
 H     62.46492555    -20.24265417      1.51287835
 H     64.66467419    -20.42449190      1.25555105
 H     64.54513963    -22.18460705      1.49213680
 H     63.28281806    -21.65251403      3.65622433
 H     63.85340197    -19.97992684      3.44373254
 H     66.19528369    -20.72205524      3.29504966
 H     65.65879496    -22.30004519      3.91986502
 H     64.56753075    -21.47322405      5.84477167
 H     64.63999327    -20.29615346      5.65719811
 H     63.72491423    -19.70929199      5.30908701
 H     65.26063559    -18.85658136      5.59668251
 H     64.88886485    -20.21063666      7.93806583
 H     63.25410587    -20.48280213      7.28863862
 H     62.47118234    -18.50417222      6.81582409
 H     63.74863483    -17.75506818      7.80335886
 H     63.39335927    -19.00124282      9.75749576
 H     61.82752470    -19.52936450      9.09604564
 H     60.78940846    -17.56488896      9.19509971
 H     62.55577155    -16.69997370      9.74092491
 H     59.91380368    -18.43361801      9.29557107
 H     60.29919295    -17.24157293      8.03114618
 H     60.30925408    -15.44237364      9.85875956
 H     59.39239476    -16.29556865     10.63956452
 H     60.24402986    -15.05016854      7.88115181
 H     61.03577906    -14.62684577      9.41809608
 H     59.17746611    -13.69919552     10.48952893
 H     58.34485384    -13.63004106      8.91782885
 H     60.19171355    -12.41696014      7.87236957
 H     60.82835038    -12.11158979      9.50629404
 H     58.75174554    -11.15730417     10.30559152
 H     58.21893748    -11.04444077      8.61099892
 H     59.87694245     -9.95395817      7.61333000
 H     60.50184494     -9.45282080      9.20286606
 H     57.72349030     -8.76879846      8.91403369
 H     57.57352102     -9.37369094      8.09466633
 H     57.34243080    -10.43640232      7.36708477
 H     58.15843386     -9.44697352      6.13280915
 H     56.59359546     -7.55223763      6.73205696
 H     55.63002691     -8.76029597      7.61545797
 H     55.11262994    -10.37760984      6.66905424
 H     55.44274757     -9.60326185      5.10071939
 H     54.32520456     -7.68060762      5.23414365
 H     53.41673192     -8.30892192      6.62991056
 H     52.62004021     -9.80963920      6.86841113
 H     52.73672949    -10.33616766      5.56086764
 H     53.43830372    -11.17968606      5.23928290
 H     52.37704713    -10.37970545      4.05520852
 H     50.38892250    -10.38753212      5.35693245
 H     50.68148141    -11.49833863      5.82164928
 H     50.61429779     -9.42208683      3.61720693
 H     49.88411852     -9.33987506      5.23842441
 H     48.41446053    -11.31412190      4.43239671
 H     49.01327784    -10.92827591      2.80119856
 H     48.31559016     -8.60861466      2.93601578
 H     47.34053546     -9.04702687      4.35915658
 H     46.10812257    -10.67129590      3.92840846
 H     46.35168018    -10.42133050      2.18299629
 H     45.63473210     -7.97522398      2.67621509
 H     45.09996108     -8.58840206      4.25934467
 H     43.68890389    -10.29465795      3.05471806
 H     43.97148844     -9.34346327      1.57700316
 H     43.44460995     -7.32914844      1.94448698
 H     42.54187377     -7.81214854      3.40052439
 H     41.28156221     -9.25872296      3.27899486
 H     41.22545625     -9.10278001      1.50676446
 H     40.75038638     -6.57342459      2.09204772
 H     40.49429618     -7.16237352      3.75211508
 H     38.84289374     -8.78510424      3.14967193
 H     38.70681693     -7.98700720      1.56449343
 H     38.31637617     -5.81368260      2.34247630
 H     37.97796742     -6.48654651      3.95523801
 H     36.40052265     -8.05691281      3.41514241
 H     36.20391452     -7.28548169      1.82312924
 H     35.85808160     -5.19958422      2.14883170
 H     35.48236065     -5.51464830      3.85992347
 H     33.82369199     -7.24571708      3.18371014
 H     33.94435368     -6.59514464      1.53129889
 H     33.65103367     -4.56865031      1.46879785
 H     32.91691564     -4.59886902      3.09003941
 H     31.41083231     -6.10786108      3.10642302
 H     31.41354887     -6.15137224      1.32699444
 H     31.10919126     -3.74242980      1.14178175
 H     30.68068006     -3.72733996      2.86932831
 H     29.05697874     -5.27644313      2.97486015
 H     28.89481882     -5.21669968      1.20330672
 H     28.63100072     -2.88847616      1.01159291
 H     28.33006349     -2.81377588      2.76434027
 H     26.78023689     -4.24204528      3.20041401
 H     26.35831649     -4.32944125      1.47339004
 H     26.09236286     -2.25058069      0.84116920
 H     25.99199621     -1.74029572      2.54346250
 H     24.30230245     -3.29128692      3.16439124
 H     23.99607337     -3.58391541      1.43555956
 H     23.68623295     -1.33151124      0.81761428
 H     23.52981982     -0.91840795      2.54189595
 H     21.75837480     -2.63851797      2.81524383
 H     21.66782986     -2.71020875      1.03903193
 H     21.29866637     -0.09990205      1.33428449
 H     21.06548940     -0.48719690      3.05588196
 H     19.50907823     -2.01970545      3.10128825
 H     19.06523908     -1.62722463      1.42282696
 H     18.76630854      0.47099970      1.27871746
 H     18.65503755      0.59346476      3.05097245
 H     17.08711771     -1.00670252      3.48433545
 H     16.65519637     -1.02848059      1.75770974
 H     16.35928473      1.51998418      1.99595062
 H     16.42610510      1.24197719      3.75279831
 H     14.56573780     -0.41575435      3.54700601
 H     14.29753390      0.22095223      1.90659812
 H     14.08367285      2.36704766      2.11316107
 H     13.82427731      2.18211424      3.86438357
 H     11.98436768      0.47752402      3.11737704
 H     12.20808891      1.16292636      1.48997448
 H     11.89994145      3.36955040      1.88049651
 H     11.18089582      2.97825171      3.46104243
 H      9.60670418      1.40977337      2.20084350
 H     10.16899547      2.21705090      0.71746959
 H      9.59260992      4.43180071      1.57712251
 H      8.65622390      3.61917024      2.85425978
 H      7.45456556      2.39405558      0.93495493
 H      8.20885454      3.59319998     -0.14271269
 H      7.26454938      5.45119260      1.18850682
 H      6.20706586      4.25146915      1.96995352
 H      5.18780292      3.13277314      0.53710985
 H      5.57008433      4.34261651     -0.71125172
 H      4.82479727      6.23772242      0.41272037
 H      3.97059129      5.18404587      1.56526736
 H      2.76452296      3.82819047      0.41176686
 H      3.06710159      4.29067440     -0.86620853
 H      3.75652021      3.79309297     -1.62823418
 H      2.96887366      5.33948280     -2.02390838
 H      1.14325972      5.61845106     -1.77012296
 H      0.85280325      3.86325068     -1.71379072
 H      2.10146395      3.56276536     -3.83812897
 H      1.99874894      5.32661119     -4.05391631
 H     -0.18598822      5.73402235     -3.84773865
 H     -0.52546114      3.99959206     -4.05934293
 H      0.61509869      3.56530951     -5.97769351
 H      0.73569205      5.31428628     -6.28559638
 H     -1.57704604      5.77616894     -6.06860930
 H     -1.89541024      4.02876822     -6.18480583
 H     -0.51964027      4.13591788     -8.36966160
 H     -0.68115142      5.90367324     -8.23842967
 H     -2.74584111      6.37326754     -8.03421133
 H     -3.27753333      5.00153959     -8.19494271
 H     -3.68316066      4.22630940     -7.46373367
 H     -3.53910519      3.76915499     -9.17794618
 H     -4.44853418      5.23601834    -10.37786144
 H     -5.30194157      5.89389432     -8.96111810
 H     -6.14499378      3.58255274     -8.44906779
 H     -5.60636424      3.12499385    -10.08270936
 H     -7.13979885      5.16317476    -10.77322395
 H     -7.74611310      5.07646097     -9.10195784
 H     -8.38080779      2.83889708     -9.08628628
 H     -8.25871929      2.82074818    -10.86196409
 H     -9.57321582      4.61689107    -11.38360032
 H    -10.22967118      4.59533974     -9.72925194
 H    -10.88572023      2.42497266     -9.55231168
 H    -10.74641859      2.25347313    -11.31850805
 H    -12.25025356      4.28691448    -11.53373266
 H    -12.61025711      4.07488155     -9.80349969
 H    -13.22489356      1.62817297    -10.90034692
 H    -13.06557130      2.51438207    -12.43576755
 H    -14.13614764      4.16020192    -12.61259195
 H    -15.18543945      3.65936285    -11.26484806
 H    -15.70405499      1.52001504    -12.01049872
 H    -15.08585151      1.96094664    -13.62036531
 H    -16.75937413      3.96356818    -13.38476816
 H    -17.42795435      3.05832481    -12.00570993
 H    -17.81801265      1.04984127    -13.26538204
 H    -17.57836619      1.99790391    -14.75266596
 H    -19.57287820      3.27377634    -13.20961589
 H    -19.48065950      1.74511458    -12.30244688
 H    -19.93662595      0.39208950    -14.26892779
 H    -20.45143396      1.88058308    -15.09816011
 H    -22.04257914      2.21820020    -13.10131192
 H    -21.67215835      0.53018087    -12.67511264
 H    -22.32113737     -0.27351657    -14.89642337
 H    -23.07797502      1.31338940    -15.17425940
 H    -24.40646694      1.12173459    -13.11188857
 H    -23.96925885     -0.60333985    -13.07676095
 H    -24.52538340     -1.36566106    -15.05991002
 H    -25.51265625      0.08754879    -15.34581232
 H    -26.69902369     -0.30281111    -13.18291962
 H    -25.97831306     -1.93033683    -13.18121864
 H    -26.98750903     -2.24386176    -15.50043600
 H    -27.94923035     -0.78510830    -15.16073451
 H    -28.75005738     -1.94968626    -13.04326813
 H    -28.06679542     -3.44139124    -13.73336667
 H    -29.10895283     -3.46850295    -15.76811699
 H    -30.26020092     -2.24708677    -15.17563322
 H    -30.63670097     -3.92582088    -13.22066241
 H    -29.75578544     -5.09551702    -14.23262359
 H    -31.49029488     -4.56408596    -16.05219874
 H    -32.42443992     -3.76685387    -14.76376531
 H    -32.60068470     -5.33548611    -13.20027002
 H    -32.10721292     -6.56917257    -14.38465594
 H    -33.95783349     -5.69084452    -15.89547949
 H    -34.56253841     -4.81694937    -14.46757687
 H    -34.65269571     -6.87971392    -13.13901653
 H    -34.46166339     -7.78417741    -14.66010795
 H    -35.90707518     -7.14160693    -16.04662013
 H    -36.84759513     -6.37884330    -14.74205870
 H    -36.81729602     -8.49194300    -13.44379038
 H    -36.25855721     -9.30175481    -14.92712529
 H    -38.02595158     -8.52417093    -16.31146232
 H    -38.90815889     -8.04419581    -14.84190429
 H    -38.82123804    -10.06187799    -13.70283485
 H    -38.33593667    -10.86519418    -15.21526083
 H    -39.19284151    -10.65977233    -16.81352623
 H    -40.65239886    -10.06716803    -15.98480482
 H    -41.00447827    -11.61107954    -14.41326587
 H    -39.88947695    -12.71525853    -15.25340126
 H    -40.97034957    -12.53543403    -17.37895010
 H    -42.36032465    -11.78881447    -16.55505982
 H    -42.34142649    -13.86777885    -15.03739089
 H    -41.23670749    -14.58456597    -16.23492120
 H    -42.51011551    -14.30047535    -18.13714862
 H    -43.92731678    -13.97065856    -17.11195202
 H    -43.96828066    -15.71717753    -15.72551149
 H    -42.84450658    -16.58878390    -16.79588564
 H    -44.51087672    -16.07281765    -18.68113687
 H    -45.64783729    -15.61227357    -17.39137469
 H    -45.41743154    -17.74270647    -16.24281065
 H    -44.63302608    -18.37804232    -17.70886763
 H    -46.04356965    -17.91453241    -19.33573894
 H    -47.32561928    -17.60703996    -18.13988618
 H    -46.87949119    -19.84066111    -17.10848766
 H    -45.92879784    -20.22457274    -18.56349992
 H    -47.72570429    -19.69110673    -20.08492543
 H    -48.83524266    -19.71084479    -18.69323520
 H    -48.00892089    -22.01352739    -18.12037631
 H    -47.26390362    -22.04723939    -19.73656920
 H    -48.31261196    -21.62203911    -21.27289163
 H    -49.81641895    -21.90205327    -20.36271402
 H    -49.09861053    -24.08226497    -19.57174383
 H    -47.79999094    -24.02876665    -20.78788189
 H    -48.54255247    -23.61026037    -22.66919357
 H    -50.19007360    -24.02381849    -22.13730029
 H    -50.42642805    -25.72012750    -21.19371196
 H    -48.86146402    -26.31202409    -21.80101146
 H    -48.72479994    -26.04518419    -23.86075550
 H    -50.48603640    -25.81191481    -23.96983432
 H    -51.50140720    -27.33553049    -22.99708123
 H    -50.03487287    -28.34426419    -22.99690536
 H    -49.55225291    -28.16559948    -25.28912680
 H    -51.19294703    -27.52626051    -25.54919438
 H    -52.02013667    -29.62931342    -24.32824150
 H    -50.36713799    -30.25660029    -24.53408897
 H    -50.18132879    -29.99250359    -26.83439713
 H    -51.94451894    -29.76561354    -26.92354906
 H    -52.29707547    -31.89692372    -25.69189786
 H    -50.58287402    -32.26324561    -26.00107149
 H    -50.66052321    -31.97001522    -28.34358409
 H    -52.43744718    -32.01906222    -28.25192029
 H    -52.95382052    -33.81367294    -27.16785712
 H    -51.30927270    -34.44853070    -27.41419989
 H    -51.59220694    -34.00951247    -29.88731056
 H    -53.32644873    -33.79359029    -29.54959810
 H    -53.25899377    -36.10383519    -28.46023973
 H    -51.66602867    -36.29813341    -29.23028977
 H    -52.12432311    -35.85786114    -31.38813283
 H    -53.86164921    -36.04503285    -31.04911746
 H    -53.89665334    -38.07161990    -30.02896034
 H    -52.24854055    -38.38526353    -30.62361870
 H    -52.09225124    -38.05959938    -32.65087955
 H    -53.86324037    -38.11328022    -32.82112218
 H    -54.32039705    -40.08111304    -31.75112593
 H    -52.59515318    -40.51010947    -31.83922991
 H    -52.04392933    -40.26484875    -33.94038639
 H    -53.76470609    -40.24000472    -34.39489360
 H    -54.17618653    -42.35051346    -33.18672776
 H    -52.41071070    -42.56359073    -33.10952777
 H    -52.10816807    -42.31482855    -35.49267018
 H    -53.86557882    -42.52523252    -35.68109602
 H    -54.51365828    -44.24269967    -34.70880319
 H    -52.84345744    -44.85215174    -34.62357402
 H    -52.20446582    -44.64208091    -36.80164478
 H    -53.91054630    -44.43854377    -37.26654124
 H    -54.63977937    -46.44594294    -36.15072622
 H    -52.93193861    -46.93134911    -36.02452230
 H    -52.24777232    -46.75457062    -38.17205854
 H    -53.94732537    -46.68949374    -38.69698815
 H    -55.25764390    -47.80273023    -38.19599246
 H    -54.06105473    -49.02365636    -37.70023001
 H    -52.89273997    -48.87474950    -39.85481784
 H    -54.30747282    -47.99458294    -40.48100028
 H    -55.70467252    -49.98557414    -39.67236527
 H    -54.15888217    -50.84871954    -39.48857494
 H    -53.54239184    -50.38482818    -41.82670376
 H    -55.23533194    -49.90899681    -42.10203077
 H    -56.13659149    -51.97587809    -41.24370566
 H    -54.49989541    -52.66793755    -41.34640100
 H    -54.43017714    -51.96544152    -43.77048727
 H    -56.18434860    -51.69302424    -43.64034121
 H    -56.95271918    -53.62404003    -42.85101769
 H    -55.41185762    -54.40807017    -43.27446665
 H    -55.80840670    -53.42504179    -45.63405740
 H    -57.46641446    -53.09096765    -45.07937605
 H    -58.16795758    -55.07541491    -44.34567488
 H    -56.81465214    -55.86315873    -45.19201447
 H    -56.40990924    -55.51399844    -46.97191919
 H    -58.03980343    -54.85203691    -47.24306218
 H    -59.38909130    -56.40785903    -46.42748757
 H    -58.04369604    -57.57326593    -46.42524620
 H    -57.29191561    -57.39290291    -48.55500411
 H    -58.79595632    -56.55257097    -49.00218463
 H    -59.99273061    -58.59160082    -47.95259703
 H    -58.39803618    -59.38191893    -47.97736850
 H    -58.20069486    -58.92814516    -50.41741838
 H    -59.93743246    -58.53863463    -50.40036799
 H    -60.25445129    -60.86367647    -49.33729597
 H    -58.57035093    -61.18046674    -49.81866545
 H    -59.45735462    -60.50985339    -52.19876150
 H    -61.07590316    -60.65524390    -51.48086577
 H    -61.98852130    -60.23206714    -50.93680908
 H    -61.88321443    -62.00889535    -50.94446629
 H    -61.58551486    -61.80634930    -53.48870447
 H    -62.11140857    -60.11662839    -53.29753517
 H    -64.10031862    -60.46502782    -52.18400431
 H    -64.02906182    -62.18395807    -52.64058718
 H    -63.72628957    -62.25950691    -54.77017005
 H    -64.20529410    -60.55099372    -54.91089667
 H    -66.31369205    -61.13028486    -53.63050223
 H    -65.90239080    -62.83669088    -53.92592806
 H    -65.56355965    -63.21617521    -55.91537463
 H    -66.36822660    -61.69458894    -56.36875414
 H    -68.34239402    -62.42018227    -54.95788894
 H    -67.59895821    -64.03722085    -54.93039183
 H    -67.26528780    -64.52308911    -57.05581450
 H    -68.36899677    -63.21001756    -57.53114206
 H    -69.98721473    -62.87619256    -56.88638100
 H    -70.11365871    -64.54670714    -56.28499957
 H    -69.44604122    -65.32619288    -58.60660426
 H    -69.75891083    -63.65826281    -59.14362246
 H    -71.72561172    -63.12093477    -58.51492017
 H    -72.11810083    -64.83328242    -58.22841628
 H    -71.62340222    -65.97263623    -59.91525131
 H    -71.53239856    -64.49899554    -60.90941835
 H    -73.29442189    -63.36746685    -60.62844298
 H    -74.10966606    -64.78017750    -59.91577740
 H    -73.80346223    -66.40728029    -61.34252542
 H    -73.32831253    -65.23093994    -62.59101364
 H    -74.78366342    -63.71808573    -62.72229363
 H    -75.94620413    -64.73243887    -61.83468252
 H    -76.04357643    -66.63556712    -62.71734618
 H    -75.25604013    -66.01554168    -64.18827164
 H    -76.29740190    -64.26870132    -64.81651374
 H    -77.67699867    -64.69808272    -63.77698932
 H    -77.51614949    -66.99269956    -65.04169659
 H    -76.43197790    -66.13502203    -66.16295832
 H    -77.77621267    -64.36793350    -66.74146400
 H    -79.17431156    -65.23305091    -66.05943905
 H    -78.49090236    -67.19345723    -67.56421445
 H    -77.42067461    -66.03604425    -68.39081859
 H    -79.73236669    -64.71904216    -68.61976961
 H    -80.46669183    -66.25430774    -68.09824028
 H    -79.48215774    -67.60397072    -69.77100316
 H    -79.04524251    -66.12173073    -70.65436965
 H    -81.47547635    -65.42672764    -70.52152908
 H    -81.82241864    -67.10015248    -70.02398811
 H    -80.78560305    -68.17597153    -71.83148064
 H    -80.74405633    -66.61812673    -72.69151558
 H    -83.11383502    -66.21811258    -72.40494998
 H    -83.28599964    -67.92557643    -71.93251671
 H    -82.15306063    -68.62785862    -74.03744181
 H    -82.38960054    -66.96290213    -74.62073884
 H    -84.90950593    -67.50015649    -74.01237327
 H    -84.35738284    -69.18767845    -73.88708804
 H    -83.40585631    -69.29690112    -76.06099785
 H    -84.27245585    -67.79660925    -76.46891478
 H    -86.31150080    -69.32595332    -75.58820043
 H    -85.12726104    -70.65022306    -75.69843888
 H    -85.06127751    -69.65596978    -78.22051136
 H    -86.52051837    -68.77477827    -77.70827673
 H    -87.87696281    -70.35751984    -76.97273702
 H    -86.87338853    -71.59066444    -77.77302429
 H    -86.41899589    -71.29869183    -79.64979948
 H    -87.73270100    -70.10914177    -79.81537784
 H    -89.43408389    -71.49760055    -78.90614282
 H    -88.33904597    -72.88827947    -79.09368150
 H    -88.11757217    -72.17531234    -81.54743203
 H    -89.51553233    -71.11564661    -81.24563308
 H    -90.93202214    -72.84590543    -80.41137536
 H    -89.78485846    -74.03782434    -81.06834679
 H    -89.99292934    -72.88197538    -83.30921033
 H    -91.40607493    -72.03896298    -82.63052314
 H    -92.67163910    -73.73853177    -81.88863168
 H    -91.69674322    -74.87534785    -82.85065761
 H    -92.00406671    -73.58965209    -84.90011374
 H    -93.30344034    -72.69980226    -84.07061866
 H    -94.34161995    -74.98357777    -83.56560305
 H    -93.19702722    -75.64200482    -84.75918922
 H    -94.14792595    -73.92923909    -86.40218262
 H    -95.46155122    -73.69472534    -85.22419339
 H    -96.04385945    -76.02377352    -85.12059151
 H    -95.06765342    -76.27965486    -86.58681563
 H    -95.06694561    -75.39922259    -88.08415246
 H    -96.69604424    -74.77424050    -87.73243993
 H    -97.63475343    -76.92254275    -87.23333645
 H    -96.19661498    -77.66704558    -87.97207862
 H    -95.68727433    -77.05934405    -89.75658676
 H    -97.30545136    -76.36481192    -90.01619199
 H    -97.62515462    -79.04870538    -89.19236736
 H    -95.87230758    -79.07878431    -89.50040826
 H    -95.15888724    -78.50909374    -91.14415070
 H    -96.74641656    -78.68649292    -91.92935567
 H    -97.40364838    -80.72030970    -91.36211154
 H    -95.74348710    -81.11661247    -90.85706178
 H    -94.77351121    -80.41618935    -92.96403962
 H    -96.41531004    -80.41364074    -93.65161274
 H    -96.60194371    -82.82701656    -92.81225279
 H    -94.84086628    -82.75610053    -92.56356851
 H    -94.68556107    -82.06679111    -95.02964082
 H    -96.38438147    -82.58164192    -95.16080705
 H    -96.52935069    -84.57648438    -94.42072636
 H    -94.76364830    -84.76590714    -94.54189053
 H    -94.49117645    -84.08860619    -96.74549740
 H    -96.24644306    -84.25894828    -96.98692929
 H    -97.03270224    -85.98633999    -96.41520842
 H    -95.42441449    -86.74890399    -96.40204383
 H    -94.43767004    -86.35792052    -98.21200063
 H    -95.97533068    -85.87941174    -98.97021945
 H    -97.12423381    -87.89783222    -98.31390974
 H    -95.53888476    -88.60774090    -97.92536797
 H    -94.43213040    -88.24573988    -99.89262086
 H    -95.98877684    -87.90600527   -100.68615658
 H    -97.21032069    -89.71060001   -100.13730485
 H    -95.72396377    -90.55859908    -99.64750148
 H    -94.43751015    -90.28565861   -101.50213148
 H    -95.88541094    -89.80436920   -102.41876144
 H    -97.00945355    -91.92311928   -101.65449034
 H    -95.40004127    -92.47670808   -101.13333949
 H    -94.15598308    -92.22936318   -102.96477397
 H    -95.63406121    -92.07377901   -103.94423569
 H    -96.45992421    -94.23194271   -102.94530721
 H    -94.80138113    -94.48020463   -102.34876087
 H    -93.41926876    -94.30347628   -103.87930329
 H    -94.70637608    -94.48839296   -105.09479793
 H    -95.76702659    -96.33594672   -104.43164741
 H    -94.39335175    -96.74067136   -103.37453716
 H    -92.69821866    -96.57821269   -104.97295594
 H    -93.94030458    -96.60028403   -106.24771163
 H    -94.99973004    -98.60253475   -105.47228304
 H    -93.57349669    -98.90305640   -104.45061195
 H    -91.99865483    -98.55483056   -106.29189192
 H    -93.19126192    -98.87582346   -107.32688445
 H    -91.61292393    -99.61265988   -104.67224606
 H    -91.02987314    -98.29945392   -105.72286900
 H    -90.75104540   -100.14432495   -107.51332175
 H    -90.97789152   -101.29967911   -106.17841940
 H    -89.06172994   -100.12546117   -104.98678337
 H    -88.71472886    -99.33910271   -106.54601331
 H    -88.86636026    -98.40423232   -107.18132068
 H    -88.16655429    -99.85028625   -107.94778418
 H    -86.47369103    -99.84113052   -106.01419036
 H    -87.06616454    -98.20068011   -105.65899429
 H    -86.59773779    -97.48705529   -107.98385961
 H    -85.64666950    -98.98041106   -108.16722896
 H    -84.28715300    -98.45938224   -106.19146443
 H    -84.94008178    -96.80514088   -106.26519480
 H    -84.41850302    -96.31138672   -108.46664466
 H    -83.32517429    -97.71567182   -108.49634863
 H    -82.03624816    -97.34144735   -106.68449295
 H    -82.61363455    -95.65852939   -106.63273607
 H    -81.78875551    -95.73289847   -109.16516212
 H    -81.00809375    -97.26169633   -108.69440636
 H    -79.77948924    -96.40797981   -106.87644559
 H    -80.11158525    -94.76351302   -107.47117905
 H    -79.03441160    -95.93835458   -109.67038772
 H    -78.58443557    -97.22545066   -108.52619721
 H    -77.43334949    -95.97478060   -106.97434650
 H    -77.35461506    -94.63510483   -108.14367811
 H    -76.36074637    -96.30215377   -109.79619266
 H    -76.14174535    -97.38782297   -108.40276967
 H    -74.87880405    -95.61683077   -107.19913478
 H    -74.77217910    -94.75272524   -108.75162292
 H    -73.74178391    -97.20487518   -109.36766604
 H    -73.73105768    -97.42216159   -107.60104830
 H    -72.51544177    -95.57400219   -106.98378630
 H    -71.99010393    -95.38029927   -108.66989192
 H    -72.61398682    -96.85848339   -105.93490566
 H    -72.85664027    -95.10211183   -106.09157383
 H    -70.80726218    -94.34897492   -106.55523657
 H    -70.12029444    -95.90269111   -106.02390995
 H    -71.42949445    -95.56876490   -103.85086945
 H    -71.67566551    -93.89013989   -104.38927874
 H    -69.91349256    -92.96543667   -104.88091990
 H    -68.98695265    -94.21221832   -104.01182498
 H    -70.13908817    -94.11980590   -101.98446049
 H    -70.86646883    -92.58010115   -102.50262389
 H    -68.46455768    -91.78140320   -102.92804733
 H    -67.94848041    -93.21613037   -102.00963082
 H    -68.98636301    -93.16844495   -100.12570624
 H    -69.39932637    -91.45624505   -100.38280432
 H    -67.61463111    -90.40564961   -100.87310039
 H    -66.63185426    -91.76059740   -100.26768085
 H    -67.38169373    -92.20175128    -98.27613624
 H    -68.22259845    -90.63344961    -98.23644021
 H    -66.56150769    -89.20615628    -98.78671329
 H    -65.36786509    -90.48627510    -98.46301620
 H    -66.55777915    -90.66967005    -96.15872765
 H    -67.34107761    -89.13017593    -96.58845787
 H    -65.35996709    -87.92656470    -97.03068941
 H    -64.44016071    -89.21710970    -96.22030896
 H    -65.49097790    -89.39251405    -94.24467345
 H    -66.28681412    -87.82737766    -94.53666569
 H    -64.29569081    -86.62116251    -95.00547125
 H    -63.36485402    -87.97639719    -94.32345330
 H    -64.88610995    -87.66020175    -92.24297142
 H    -65.36531353    -86.11703589    -92.98947640
 H    -62.96398543    -85.44768493    -93.13156655
 H    -62.61190976    -86.79781854    -92.02637487
 H    -64.36378826    -85.73443710    -90.46801254
 H    -64.25465872    -84.30242132    -91.51952963
 H    -61.85255195    -84.11826151    -91.28242745
 H    -61.95901982    -85.25170370    -89.91412921
 H    -63.70831492    -83.56532550    -88.98244929
 H    -63.11475518    -82.45726098    -90.24266615
 H    -60.89483484    -82.43687318    -89.82979987
 H    -61.19479506    -83.16865122    -88.23518662
 H    -62.84103038    -81.34540606    -87.73852965
 H    -62.17608311    -80.48482041    -89.14760882
 H    -59.90992487    -80.56569573    -88.43318683
 H    -60.48291211    -81.02724542    -86.81240795
 H    -61.98912296    -79.13315679    -86.64590260
 H    -61.14728396    -78.41732536    -88.04130904
 H    -58.98846977    -78.74564772    -86.68853417
 H    -60.04883824    -79.04954478    -85.29156175
 H    -61.19804538    -76.87801047    -85.66799479
 H    -59.86180103    -76.45457657    -86.76500047
 H    -58.30208744    -76.99268552    -84.79711891
 H    -59.76573029    -76.97613318    -83.78432956
 H    -60.56647200    -74.87589683    -84.36100200
 H    -58.98043855    -74.49604082    -85.07407561
 H    -57.70821578    -75.06339435    -83.14639930
 H    -59.21673577    -75.05304173    -82.20166287
 H    -59.61228972    -72.70058599    -83.10945815
 H    -57.91468090    -72.73977978    -83.64317605
 H    -56.60665082    -73.23143399    -82.19246981
 H    -57.81930602    -72.87597644    -80.93892126
 H    -58.49192051    -70.79572101    -81.56466892
 H    -57.06590623    -70.66794272    -82.62222396
 H    -55.65275710    -71.26948407    -80.59205175
 H    -57.11007461    -70.95768481    -79.61877195
 H    -57.80691797    -68.98804440    -80.14394397
 H    -56.23776017    -68.62190000    -80.90021689
 H    -55.10923009    -69.33243705    -78.76101526
 H    -56.71833996    -69.26562438    -78.00301252
 H    -57.71163088    -67.55629340    -78.27346135
 H    -56.20996532    -66.72296403    -78.74125337
 H    -54.90626700    -67.36088100    -76.91004899
 H    -56.39088292    -67.86805568    -76.06924219
 H    -57.54637640    -65.81072930    -76.35260820
 H    -56.00066465    -65.05526916    -76.80903106
 H    -54.93143665    -65.87076329    -74.73650460
 H    -56.56376674    -66.23938669    -74.12997188
 H    -57.29121166    -63.91217480    -74.57877993
 H    -55.57139583    -63.49650779    -74.77299916
 H    -54.51765350    -64.16936070    -73.05605461
 H    -56.04814138    -64.34087857    -72.16361126
 H    -57.28647911    -62.84664978    -72.18165753
 H    -55.99309797    -61.74018113    -72.70238685
 H    -54.32146419    -61.99561758    -71.42799914
 H    -55.33772907    -62.83990926    -70.23525277
 H    -56.70339954    -60.50352514    -70.67964299
 H    -55.19844862    -60.02225230    -71.49925623
 H    -53.60588799    -60.31322085    -70.05110923
 H    -54.80500610    -60.40955405    -68.73920133
 H    -56.11794760    -58.81920733    -68.79199481
 H    -55.01619044    -57.91345715    -69.85689594
 H    -53.08154025    -58.15012843    -68.53720911
 H    -54.11214972    -58.67771857    -67.18526258
 H    -55.41363156    -56.48077518    -67.60779991
 H    -54.03395647    -56.00755132    -68.62800699
 H    -52.36647766    -56.33943097    -66.97869424
 H    -53.65260080    -56.40466168    -65.74991481
 H    -54.37574017    -54.11468745    -66.75421827
 H    -52.80052134    -54.13123120    -67.58287899
 H    -51.35507600    -54.43761628    -65.90804813
 H    -52.62684079    -54.01109429    -64.73802250
 H    -53.16784377    -51.92923765    -65.84860655
 H    -51.65343717    -52.09411172    -66.76928884
 H    -50.20923118    -52.37174804    -64.94849976
 H    -51.50505987    -51.79376717    -63.87377524
 H    -52.01946440    -49.81406421    -64.94648730
 H    -50.50095642    -49.94482697    -65.86588998
 H    -49.05260398    -50.22872980    -64.05526183
 H    -50.35333399    -49.68420214    -62.96904926
 H    -51.08755336    -47.81847297    -63.72820672
 H    -49.63729565    -47.64651918    -64.74577792
 H    -48.05925167    -47.98290714    -63.01501126
 H    -49.36585412    -47.73983942    -61.83096109
 H    -50.29776732    -45.83675793    -62.39596456
 H    -48.88892185    -45.44288325    -63.41000787
 H    -47.42506872    -45.89740668    -61.39117602
 H    -48.92046175    -45.86073248    -60.42643701
 H    -49.40272552    -43.57881958    -61.40137385
 H    -47.61354536    -43.69121509    -60.50993321
 H    -46.79060189    -44.02040748    -59.79263500
 H    -48.37684782    -43.61254772    -59.09568384
 H    -48.14045454    -41.39969279    -60.42010616
 H    -46.43795399    -41.86608294    -60.64866412
 H    -45.60256807    -42.27674863    -58.72943385
 H    -46.96415489    -41.44369124    -57.94180235
 H    -46.37270496    -39.47807037    -59.52935960
 H    -44.86200917    -40.36258305    -59.85138791
 H    -44.16606274    -40.59045831    -57.62156489
 H    -45.36587016    -39.36039137    -57.15716835
 H    -44.47728184    -37.77679605    -58.82618331
 H    -43.05701018    -38.84013411    -58.96903715
 H    -42.54873882    -38.87598589    -56.64608241
 H    -43.64689268    -37.49205878    -56.42912497
 H    -42.66918063    -36.10443313    -58.06860382
 H    -41.25809626    -37.18915604    -58.09059827
 H    -41.16317095    -36.83525237    -55.54802641
 H    -42.30568757    -35.49568452    -55.80971402
 H    -40.98201429    -34.36265763    -57.42799453
 H    -39.60122285    -35.37644308    -56.94434101
 H    -40.02975826    -34.62018646    -54.55339259
 H    -41.09285425    -33.37435871    -55.25053448
 H    -39.70318796    -32.38391205    -56.74128673
 H    -38.31480691    -33.16738444    -55.94955714
 H    -38.84253820    -32.41554972    -53.75265246
 H    -39.98268707    -31.25361304    -54.47253467
 H    -37.93667672    -30.50372321    -55.89086071
 H    -36.96149729    -31.46010488    -54.74953436
 H    -37.61015741    -30.57287059    -52.76398550
 H    -38.32584999    -29.19190272    -53.62942096
 H    -36.36442897    -28.65878570    -54.87421665
 H    -35.43717037    -29.70870025    -53.77597369
 H    -35.85626406    -29.11568772    -51.77490086
 H    -36.53082019    -27.57447435    -52.35619427
 H    -34.59941311    -27.02205468    -53.68490151
 H    -33.70835489    -28.29975305    -52.82364151
 H    -34.17119602    -27.55658282    -50.64071029
 H    -34.71055661    -26.00319959    -51.32214799
 H    -33.00343058    -25.37908166    -52.60366206
 H    -31.96319853    -26.57803146    -51.79824085
 H    -32.77755059    -25.42199790    -49.60849973
 H    -33.39492509    -24.13811790    -50.67563025
 H    -31.26715113    -23.77057008    -51.75163326
 H    -30.50703212    -24.71352106    -50.44728316
 H    -31.63023768    -23.16232808    -48.79009633
 H    -31.97444484    -22.09751006    -50.17427504
 H    -29.69199254    -21.97285134    -50.90236562
 H    -29.20681835    -22.65684370    -49.33232514
 H    -30.27578428    -21.20192257    -47.91709834
 H    -30.51632378    -20.08278748    -49.28016256
 H    -28.09625780    -20.14374663    -49.80527045
 H    -27.85072072    -20.90487883    -48.21509562
 H    -28.79488581    -19.66277252    -46.74897101
 H    -28.87087859    -18.32023305    -47.91519548
 H    -26.76973324    -18.17694983    -48.65608738
 H    -26.22370253    -19.17765079    -47.28907797
 H    -27.37293193    -17.63486820    -45.70153065
 H    -27.51880423    -16.48829086    -47.05517327
 H    -25.22449601    -16.45625042    -47.62634352
 H    -24.86597825    -17.23628017    -46.06708559
 H    -25.30497379    -17.03678256    -44.51574068
 H    -25.70644403    -15.33869754    -44.86730234
 H    -23.88952785    -14.60028565    -45.93245316
 H    -22.98259220    -16.02209531    -45.36307481
 H    -22.98701314    -16.54763440    -43.57132058
 H    -23.54294007    -14.93327002    -43.06829018
 H    -22.35174907    -13.45518844    -43.94528070
 H    -21.10363369    -14.66278588    -44.33538721
 H    -20.80144850    -15.66651388    -42.33064975
 H    -21.65683714    -14.32051821    -41.54016092
 H    -20.84103714    -12.49326852    -42.13428367
 H    -19.38544133    -13.31675289    -42.74369406
 H    -18.98480220    -14.52097409    -40.69930560
 H    -20.14275706    -13.43465705    -39.89474206
 H    -19.21712296    -11.40351035    -40.50762422
 H    -17.72985987    -12.25468394    -40.98909977
 H    -17.32524937    -13.43411672    -39.05016116
 H    -18.48886121    -12.39041953    -38.19870925
 H    -17.43384414    -10.33999598    -38.89779183
 H    -16.02045586    -11.30049349    -39.39583278
 H    -15.41183053    -12.52573019    -37.79082147
 H    -16.36845840    -11.54472343    -36.65470725
 H    -15.70697082     -9.46371857    -37.08956591
 H    -14.29829213    -10.09891803    -37.97297560
 H    -13.54961108    -11.51831663    -36.20465380
 H    -14.64063477    -10.64333987    -35.10358629
 H    -13.90987229     -8.47945492    -35.55794662
 H    -12.47005644     -9.16290815    -36.35046707
 H    -11.98610141    -10.50379883    -34.30062734
 H    -13.17289668     -9.48072711    -33.45617017
 H    -12.26918531     -7.40384217    -33.99254011
 H    -10.77018308     -8.21878964    -34.49960974
 H    -10.76530353     -9.33092483    -32.19776741
 H    -12.00915456     -8.14136038    -31.74385365
 H    -10.46236795     -6.30259165    -32.47282135
 H     -9.16987995     -7.52611207    -32.50000990
 H     -9.33517306     -8.39510285    -30.41279843
 H    -10.33228932     -7.00348991    -29.92552105
 H     -9.07304788     -5.25882012    -30.56470781
 H     -7.67092338     -6.34197606    -30.73525627
 H     -7.77222733     -7.31411579    -28.60568907
 H     -8.88408872     -6.01817361    -28.10313083
 H     -7.88471738     -4.15180845    -28.63264905
 H     -6.34355190     -5.02251984    -28.81956426
 H     -5.83775285     -6.20130897    -27.29964176
 H     -6.99549323     -5.37202407    -26.23184477
 H     -6.50597796     -3.22137039    -26.50328098
 H     -4.95790554     -3.67077461    -27.25811494
 H     -4.14547419     -5.09328431    -25.63656368
 H     -5.36833457     -4.46642018    -24.50522795
 H     -4.78147009     -2.16335133    -24.83434410
 H     -3.28293583     -2.71067537    -25.62370974
 H     -2.94124666     -4.07074304    -23.42352686
 H     -4.25430021     -3.06844285    -22.76054014
 H     -3.30650011     -0.97572025    -23.24674241
 H     -1.74900450     -1.78707929    -23.53686412
 H     -1.47364416     -2.98310221    -21.65450501
 H     -2.74408164     -2.01859505    -20.86458019
 H     -2.46531521     -0.01836057    -21.04066682
 H     -0.76051696     -0.26732150    -21.48782231
 H     -0.14294929     -1.64886679    -19.72249559
 H     -1.63427721     -1.18088228    -18.87090988
 H     -1.17622847      1.19625652    -19.09522159
 H      0.48952498      0.76902033    -19.55457043
 H      1.26470741     -0.53201009    -18.03967892
 H     -0.04600598     -0.05021682    -16.93597048
 H     -0.23501891      1.98231194    -16.78763694
 H      1.38738702      2.21008394    -17.48347137
 H      1.86658194      0.45674703    -15.45050580
 H      0.21021360      0.88295193    -14.95749468
 H      0.12796183      3.02355365    -14.78670415
 H      1.90607239      3.10307973    -14.77042126
 H      2.35677320      1.58674217    -13.10897847
 H      0.64944385      1.65452793    -12.61028192
 H      0.88749475      4.17486353    -12.47124456
 H      2.64481080      3.91200778    -12.57619127
 H      2.93245850      2.42563627    -10.85587057
 H      1.31218305      2.84317661    -10.24871803
 H      1.80268935      5.23046130    -10.22555162
 H      3.52278860      4.81388075    -10.41525103
 H      4.02321529      3.40563626     -8.88364096
 H      2.54110614      3.82696262     -7.99251627
 H      2.78265260      6.12030596     -7.92696460
 H      4.48759745      5.93165465     -8.40219131
 H      5.01961900      4.37505017     -6.66359886
 H      3.49273263      4.82043007     -5.86452349
 H      3.54907193      7.00977797     -5.71840734
 H      5.29615470      6.99151949     -6.05845898
 H      6.02497675      5.49084299     -4.51562518
 H      4.47116320      5.63660040     -3.65965504
 H      5.03331887      8.20124521     -3.72742022
 H      6.66470013      7.68350824     -4.21610241
 H      7.24843608      6.25331642     -2.60931826
 H      5.92290808      6.86282179     -1.58963920
 H      6.90370734      9.19926581     -2.01050040
 H      8.33792100      8.35524236     -2.64210334
 H      8.40352629      7.12020027     -0.39719272
 H      7.23644829      8.33600790      0.17552662
 H      8.38652817     10.25622912     -0.35183738
 H      9.86420544      9.28751160     -0.56706502
 H     10.06429615      8.11197030      1.26066763
 H      8.89043728      9.17183398      2.07850228
 H     11.55910995      9.33498407      0.36837228
 H     11.13579316      7.65962317      0.79526268
 H     11.15889956      7.84872859      3.09758461
 H     12.01426628      9.40151189      2.93796486
 H     13.64134789      9.33524249      1.76094206
 H     13.68911297      7.55974712      1.87756685
 H     13.54467858      6.52125707      3.23932769
 H     14.00392303      7.85921542      4.31971126
 H     15.71404254      8.81505270      3.62518273
 H     16.08245384      7.43408994      2.56429554
 H     15.84388784      5.93097585      4.59374062
 H     15.91008684      7.40711247      5.56976527
 H     17.48882184      5.86106987      3.28342278
 H     16.13881027      4.91523649      3.95508835
 H     17.23535757      5.02560187      6.21170651
 H     18.69840692      5.59161988      5.37064951
 H     19.28279747      4.42034291      3.84523686
 H     18.27957996      3.08080252      4.45141575
 H     19.50221858      3.49869632      6.70272638
 H     20.62678975      4.50308890      5.75678669
 H     21.06904972      2.61273669      4.21484563
 H     20.28224759      1.55621392      5.41191233
 H     21.95625814      2.52242278      7.10561427
 H     22.82798065      3.17148181      5.69597286
 H     22.89402922      0.81861776      4.76226235
 H     22.39654962      0.27064716      6.38106096
 H     24.09745117      1.32483746      7.59954897
 H     24.98092322      1.58677252      6.07667871
 H     25.11187722     -0.32323451      5.08933612
 H     24.67681983     -1.14946673      6.60470144
 H     26.41821231     -0.00312102      7.86939914
 H     27.12826746      0.49627813      6.31547223
 H     27.46962647     -0.69511862      4.93768931
 H     27.40828953     -2.06698747      6.07015578
 H     28.97632501     -1.02550894      7.61482289
 H     29.37766685      0.13473538      6.32601549
 H     29.88052324     -1.65382077      4.73331080
 H     29.89565359     -2.78286798      6.10927960
 H     31.64492106     -1.08163684      7.08076062
 H     31.68381283     -0.40394432      5.43531632
 H     32.14827587     -2.20417662      4.17968074
 H     32.64329346     -3.08885248      5.64275041
 H     34.14873231     -1.55290451      6.49971339
 H     34.15656333     -0.72021449      4.92655330
 H     34.65380502     -2.61716825      3.61330082
 H     35.11194410     -3.47992302      5.10126233
 H     36.64316765     -1.85829553      5.88821664
 H     36.62256705     -1.11227431      4.27226658
 H     37.17677338     -3.26644136      3.20570538
 H     37.59820495     -3.87426118      4.82472272
 H     39.37714116     -3.51231134      5.14767289
 H     39.28860298     -1.76917797      4.05475087
 H     39.76889671     -4.05413625      3.16394743
 H     39.87439507     -4.59638719      4.85601737
 H     41.51342928     -2.92955048      5.46326982
 H     41.76961666     -2.63015478      3.72747118
 H     42.11765730     -4.16148537      2.58276215
 H     42.54550271     -5.15881064      3.99363326
 H     44.04133054     -3.85578450      5.05746848
 H     44.20244731     -2.85850118      3.59195354
 H     44.66309805     -4.71494213      2.14118741
 H     44.94723891     -5.71016078      3.58931395
 H     46.26481592     -4.87069345      4.89018305
 H     47.07626083     -4.30867489      3.09514063
 H     47.31578036     -5.00191236      1.90562326
 H     48.11437248     -5.95386147      3.55680697
 H     48.89661145     -5.36770066      4.50358232
 H     49.18137922     -4.15264796      3.23440112
 H     49.66938885     -5.07517326      1.43259666
 H     49.67624239     -6.43063084      1.87002291
 H     50.06819509     -7.34121049      1.25849315
 H     51.27535541     -7.12095897      1.81806365
 H     52.13261465     -7.81094553      1.50492881
 H     50.97957398     -8.37909394      0.76358509
 H     51.03499870     -9.47857309      1.47137155
 H     52.91149961     -8.69487910      1.17676696
 H     53.85223549     -9.35389920      0.75613140
 H     52.87802636    -10.04772796     -0.19894219
 H     54.78860540    -10.02829973      0.77742498
 H     54.04594303    -10.32717862      1.53351850
 H     54.46092417    -11.13241402      2.34365940
 H     54.63417594    -11.21734183      2.23008466
 H     56.32278046    -11.21061794      2.68261032
 H     55.34318067    -11.87183363      2.96039704
 H     56.13193984    -12.62357130      3.68368095
 H     56.90175964    -12.35040307      3.38304669
 H     57.77487433    -12.54030105      4.38268315
 H     56.73041001    -13.32781983      4.47560914
 H     58.46321918    -13.54648311      5.03494057
 H     58.51889625    -13.44557710      5.02966071
 H     57.82424923    -14.91134063      5.91970625
 H     58.25905024    -14.89156411      4.41152845
 H     58.34026935    -16.30678026      4.70286211
 H     57.58037523    -16.10518897      5.96215430
 H     57.50213771    -17.41803726      6.08074445
 H     58.16720646    -17.62909007      4.97593412
 H     58.30000526    -18.85878088      5.08674024
 H     57.90689280    -18.86277349      6.06926233
 H     58.58996816    -19.96911209      5.05409171
 H     59.32669069    -19.30181613      5.61183794
 H     60.30363884    -18.71342853      5.50668622
 H     59.59364064    -19.72346611      4.22450319
 H     60.12905372    -20.46801333      5.75003554
1502
Final Conformation Chain 7 (Simulation Frame 8)
 C      0.00000000      0.00000000      0.00000000
 C      1.54000000      0.00000000      0.00000000
 C      2.16637443      0.02010909     -1.40671628
 C      3.58478597      0.61813092     -1.45230773
 C      4.18180966      0.70708845     -2.86908197
 C      5.58319061      1.34363887     -2.91943089
 C      6.33746102      1.09412783     -4.23868083
 C      7.59616007      1.96378070     -4.41469384
 C      8.54326314      1.47701678     -5.52719403
 C      9.95100603      2.09857011     -5.46776819
 C      9.95319652      3.63255683     -5.33182722
 C     11.35269832      4.26793150     -5.42823138
 C     11.39451125      5.75462971     -5.02875662
 C     12.70828832      6.46658516     -5.40119353
 C     13.94422003      5.93145986     -4.65439119
 C     15.25877241      6.64002404     -5.03054122
 C     16.50062479      6.07780665     -4.31408169
 C     17.81937131      6.76516212     -4.71414431
 C     19.05134472      6.25225335     -3.94553121
 C     20.28067466      7.17438907     -4.04559935
 C     21.39647337      6.84234943     -3.03746101
 C     22.67312226      7.68487414     -3.21612197
 C     23.81134571      7.31019437     -2.24882551
 C     24.98931930      8.30214013     -2.25349681
 C     26.15661871      7.89269591     -1.33623593
 C     27.54464771      8.28449751     -1.87611277
 C     28.71848010      7.72219194     -1.05299069
 C     29.98265160      7.43096078     -1.88284297
 C     31.10225775      6.72798889     -1.09296158
 C     32.33256370      6.36010866     -1.94302710
 C     33.29035718      5.36550065     -1.26112788
 C     34.68858852      5.30180405     -1.90338316
 C     35.49503278      4.04557949     -1.52503477
 C     36.85793785      4.34838191     -0.87511133
 C     37.72105855      3.09900970     -0.61880733
 C     39.19853577      3.40986773     -0.31544559
 C     40.13901959      2.20124490     -0.47768318
 C     41.61275311      2.50604146     -0.15086739
 C     42.54816732      1.28986351     -0.28319819
 C     44.00217517      1.56893915      0.14056821
 C     44.93481379      0.34941464      0.01996481
 C     46.37131617      0.60846679      0.51083433
 C     47.37487646     -0.49231954      0.12001956
 C     48.84994126     -0.06637953      0.23984840
 C     49.85384016     -1.17510533     -0.12691324
 C     51.32432166     -0.80057756      0.13579022
 C     52.29357174     -1.99630976      0.08701743
 C     53.01046117     -2.16676420     -1.26524543
 C     53.73598522     -3.51585454     -1.42389629
 C     54.62932355     -3.60328291     -2.67525671
 C     55.42239121     -4.91854750     -2.78805191
 C     56.43281036     -4.94304989     -3.94996962
 C     57.14198123     -6.29747917     -4.13489669
 C     57.27231150     -7.11843670     -2.83850063
 C     58.12054451     -8.39503916     -2.98812329
 C     58.31591760     -9.17478997     -1.67457160
 C     58.88442309    -10.59306129     -1.86668607
 C     59.48535297    -11.20554096     -0.58787727
 C     60.77054479    -12.01950555     -0.82734255
 C     61.58634904    -12.29228826      0.45001919
 C     61.63080416    -11.10537757      1.43025730
 C     62.56312394    -11.32368618      2.63637553
 C     62.34385967    -10.32351034      3.78666744
 C     63.63784288     -9.66325965      4.29781953
 C     63.43094372     -8.73379318      5.50814380
 C     64.73423371     -8.35012483      6.23328778
 C     64.54476478     -8.00719341      7.72261634
 C     65.85069727     -7.64133636      8.45219771
 C     65.64285660     -7.12944923      9.88968643
 C     66.93169649     -6.63142173     10.56973080
 C     66.68838247     -5.82685440     11.86010659
 C     67.97218473     -5.49720724     12.64418855
 C     67.73645446     -4.63380526     13.89741170
 C     66.75423724     -3.46795184     13.67915699
 C     66.03859354     -3.00347021     14.96122988
 C     64.90712144     -1.98838924     14.71428548
 C     64.15477152     -1.56636759     15.99000775
 C     63.18285271     -0.38975375     15.78372231
 C     61.78321552     -0.81108046     15.29885166
 C     60.78766016      0.35660609     15.16855328
 C     61.16362326      1.38209629     14.08290988
 C     60.17482260      2.55643353     13.96123287
 C     60.64515748      3.67570685     13.01380882
 C     59.61208192      4.79954810     12.81049693
 C     60.02290280      5.84490798     11.75690833
 C     58.85993350      6.33545866     10.87460314
 C     58.11659668      5.20807481     10.13429509
 C     56.77424747      5.64272907      9.51722599
 C     55.89798328      4.47162121      9.03528465
 C     54.60624829      4.90887840      8.31986389
 C     53.40119611      3.98708093      8.58394468
 C     53.64935474      2.51166808      8.21901426
 C     52.36184925      1.68915409      8.02562258
 C     51.30023336      2.38347699      7.15241733
 C     50.20199664      1.43806436      6.63119657
 C     49.06543479      2.15352101      5.87757270
 C     47.82195093      1.27654602      5.64037494
 C     46.56093389      2.07002545      5.25072585
 C     45.42917436      1.20194647      4.67007167
 C     44.26676722      2.01089927      4.06508820
 C     42.94105396      1.23226519      3.97669524
 C     41.69487951      2.12891277      3.85556573
 C     40.38717879      1.35391633      3.60878778
 C     39.13260551      2.24505434      3.54946711
 C     37.82260580      1.46809342      3.32179966
 C     36.60163017      2.36560501      3.04740676
 C     35.33548058      1.59190304      2.63527757
 C     34.24540022      2.47061587      1.99403769
 C     32.84111686      1.83871478      2.01104457
 C     31.71925805      2.79321227      1.56163679
 C     30.30940540      2.17692468      1.62570785
 C     29.18881109      3.12731166      1.16458638
 C     27.76905444      2.62249685      1.48247483
 C     26.66143170      3.31110908      0.66358225
 C     25.23814252      2.83804001      1.01294393
 C     24.12652022      3.57448018      0.24252086
 C     22.71112959      3.03163002      0.51378286
 C     21.58211610      3.92631150     -0.03071102
 C     20.17606003      3.52351967      0.45133158
 C     19.03158181      4.25366728     -0.27575443
 C     17.62553053      3.85100290      0.20640862
 C     16.51697377      4.83970570     -0.20000085
 C     15.09139390      4.34001119      0.09937756
 C     13.97945855      5.26401742     -0.43110550
 C     12.58009536      4.62108893     -0.43616723
 C     11.50339840      5.46974366     -1.13767189
 C     10.18520235      4.71773181     -1.39927722
 C      9.05500499      5.60748943     -1.94935475
 C      7.88508527      4.82172338     -2.57020865
 C      6.64747520      5.68340329     -2.88234490
 C      5.37455053      4.86806391     -3.17642736
 C      4.15215656      5.72763327     -3.54857449
 C      2.83230028      4.93822039     -3.62861647
 C      2.86214970      3.76780913     -4.62903963
 C      1.47992405      3.39148777     -5.19422496
 C      1.53178957      2.37998043     -6.35429516
 C      0.16522530      2.10882587     -7.01047904
 C      0.21092752      1.07001803     -8.14643220
 C     -1.16228314      0.76801500     -8.77467314
 C     -1.08779013     -0.03284431    -10.08794202
 C     -2.41747534     -0.09058602    -10.86266980
 C     -3.56489892     -0.76521394    -10.08814006
 C     -4.78345027     -1.12269867    -10.95931011
 C     -5.78114101     -2.07834512    -10.27890357
 C     -7.17840029     -2.08994141    -10.92630764
 C     -8.17413307     -3.05055343    -10.25003790
 C     -9.55110970     -3.11100434    -10.93697389
 C    -10.58278232     -3.98220732    -10.19653012
 C    -12.03024519     -3.79194127    -10.68668325
 C    -12.91448283     -5.04288928    -10.52903540
 C    -14.14684128     -5.05926665    -11.45241204
 C    -15.06646124     -6.27752962    -11.24812189
 C    -16.47437538     -6.10721143    -11.84842974
 C    -17.34416634     -7.37595877    -11.77532788
 C    -18.83852565     -7.09756117    -11.52837639
 C    -19.72958271     -8.35151304    -11.60064000
 C    -21.13377248     -8.15764421    -10.99875466
 C    -22.08586919     -9.34479566    -11.23493949
 C    -23.41678013     -9.24275022    -10.46691422
 C    -24.28190489    -10.51461943    -10.54112913
 C    -25.47823380    -10.51588688     -9.57138919
 C    -26.52009880    -11.61171552     -9.86341130
 C    -27.55749009    -11.80458981     -8.74170777
 C    -28.56954191    -12.93347375     -9.01184137
 C    -29.33098760    -13.40509289     -7.75909405
 C    -30.57614559    -14.25743929     -8.06680689
 C    -31.42460992    -14.59714625     -6.82732818
 C    -32.81896720    -15.16101789     -7.15810991
 C    -33.62170455    -15.61104496     -5.92332719
 C    -34.86167569    -16.46081334     -6.25793934
 C    -35.53413292    -17.09894619     -5.02822891
 C    -36.81863273    -17.88372666     -5.35346707
 C    -37.48410309    -18.53255136     -4.12555188
 C    -38.27490163    -19.81457016     -4.44596638
 C    -39.05422560    -20.38595660     -3.24689521
 C    -39.91263659    -21.61829738     -3.58758095
 C    -40.38161131    -22.41488663     -2.35587145
 C    -41.21672693    -23.66280245     -2.69776037
 C    -41.79725621    -24.38438238     -1.46735061
 C    -42.91630033    -25.38861774     -1.80029445
 C    -43.36924514    -26.24202800     -0.60107306
 C    -44.35062208    -27.37000558     -0.97007966
 C    -44.60651759    -28.37498404      0.16839993
 C    -45.67832574    -29.43156010     -0.15790406
 C    -45.73647451    -30.59619337      0.84800252
 C    -46.34371218    -31.88982674      0.27409042
 C    -46.26709799    -33.09527391      1.22940575
 C    -46.52168678    -34.45227492      0.54725268
 C    -46.98731587    -35.55996803      1.51047930
 C    -46.90243685    -36.97980250      0.92016952
 C    -47.68429852    -38.03843215      1.71991672
 C    -47.61371661    -39.45499955      1.11995422
 C    -48.07584704    -40.56602450      2.08102603
 C    -48.00325748    -41.98279813      1.48179049
 C    -48.23398293    -43.10892085      2.50658967
 C    -48.20534246    -44.52389337      1.89943854
 C    -48.68216012    -45.62799654      2.86131228
 C    -48.93916752    -46.98469083      2.17945614
 C    -49.08483464    -48.16177611      3.16172461
 C    -49.22493279    -49.53452693      2.47796464
 C    -49.45264978    -50.70148597      3.45671465
 C    -49.21225848    -52.09207449      2.84021195
 C    -49.49396637    -53.26102302      3.80239696
 C    -49.04997498    -54.63465431      3.26610532
 C    -49.14380559    -55.77125141      4.30096901
 C    -48.82425274    -57.16560088      3.73063968
 C    -49.25106374    -58.32912709      4.64477268
 C    -48.86250779    -59.72030800      4.11069408
 C    -49.18423271    -60.87480669      5.07776483
 C    -48.70790117    -62.25447791      4.58662778
 C    -49.58330131    -63.42687675      5.06699802
 C    -49.24049544    -64.77574112      4.40771884
 C    -49.84862834    -65.99567967      5.12432495
 C    -49.67175491    -67.32218666      4.36229150
 C    -50.17333795    -68.55828414      5.13175721
 C    -50.27778736    -69.83156458      4.27184602
 C    -50.91807293    -71.02817512      4.99969051
 C    -51.37940999    -72.15844637      4.06093868
 C    -52.15262636    -73.28555153      4.77042471
 C    -52.04309936    -74.65479862      4.07417314
 C    -52.94608810    -75.74230058      4.68536118
 C    -52.77293330    -77.13249376      4.04584546
 C    -53.35631782    -78.28483500      4.88451833
 C    -53.40632835    -79.63477201      4.14508002
 C    -53.61918355    -80.84785738      5.06958884
 C    -54.12516864    -82.10792685      4.34308762
 C    -55.65140960    -82.30099678      4.41317705
 C    -56.20095588    -83.32118878      3.39887574
 C    -57.73078961    -83.49101564      3.44753367
 C    -58.25553473    -84.68050912      2.62209572
 C    -59.72902873    -85.03296773      2.89811814
 C    -60.14354041    -86.42903992      2.39735621
 C    -61.51190559    -86.90197852      2.92224269
 C    -61.84582055    -88.36401252      2.57216072
 C    -63.34807419    -88.63059426      2.36295231
 C    -63.65803885    -89.99127161      1.71173879
 C    -65.12031269    -90.14847767      1.25496590
 C    -65.51893577    -91.59730319      0.91791356
 C    -66.85940895    -91.72025307      0.16983938
 C    -67.36035496    -93.16835276      0.01602009
 C    -68.51336726    -93.32851844     -0.99220092
 C    -69.23289518    -94.68761856     -0.91018605
 C    -70.19260221    -94.96007681     -2.08335651
 C    -70.55045651    -96.44654395     -2.26762735
 C    -71.46847173    -96.72513398     -3.47229978
 C    -71.53917380    -98.20963732     -3.87584783
 C    -72.80430445    -98.58314437     -4.67054080
 C    -72.85127183   -100.05617950     -5.11726395
 C    -74.22891276   -100.51024318     -5.63449858
 C    -74.27120983   -101.97818576     -6.09813155
 C    -75.67644595   -102.47075918     -6.49092016
 C    -75.68702447   -103.84545704     -7.18496187
 C    -77.04680183   -104.56603130     -7.12683898
 C    -77.07496283   -105.91189902     -7.87480092
 C    -78.15269237   -106.88799454     -7.36751739
 C    -78.61595264   -107.91192642     -8.42039603
 C    -79.81329071   -108.77137257     -7.97392781
 C    -79.94811968   -110.10226442     -8.73691407
 C    -81.10581830   -110.99124075     -8.24594055
 C    -81.48005884   -112.12571208     -9.21780413
 C    -82.58214215   -113.06360501     -8.69114558
 C    -83.16480338   -114.00736348     -9.75952091
 C    -84.34757112   -114.86011635     -9.26406859
 C    -85.03289160   -115.68352842    -10.37038157
 C    -85.96976130   -116.78553265     -9.84174007
 C    -86.90909388   -117.37490288    -10.91033589
 C    -87.76751197   -118.55133354    -10.40960713
 C    -88.04883506   -119.62177735    -11.48040467
 C    -88.81569660   -120.84878466    -10.95316997
 C    -88.64505413   -122.11255805    -11.81651113
 C    -88.63300035   -123.42478144    -11.01058031
 C    -87.87221737   -124.57443952    -11.69694431
 C    -88.00393522   -125.92990521    -10.97794279
 C    -87.35677746   -127.10532952    -11.73369707
 C    -87.15997312   -128.36911853    -10.87596436
 C    -86.85844800   -129.63957466    -11.69243471
 C    -86.93957876   -130.94280452    -10.87597299
 C    -86.62590524   -132.21218980    -11.68952689
 C    -87.16240765   -133.50988683    -11.05727094
 C    -86.57907572   -134.79482349    -11.67392451
 C    -87.01975031   -136.08728690    -10.96192435
 C    -86.38575687   -137.36709094    -11.53790521
 C    -86.91548601   -138.66767853    -10.90587756
 C    -86.22298772   -139.94247977    -11.42252826
 C    -86.54088658   -141.20512959    -10.60018056
 C    -85.73706678   -142.44812421    -11.02496063
 C    -85.83624432   -143.62574049    -10.03754800
 C    -84.77054379   -144.71615655    -10.25405478
 C    -84.95549931   -145.95847948     -9.36297386
 C    -83.89316820   -147.05135353     -9.58360688
 C    -84.02147876   -148.25174754     -8.62747371
 C    -82.94744454   -149.33565950     -8.83528459
 C    -81.55004492   -148.93897963     -8.32389496
 C    -80.58297724   -150.12611991     -8.15934084
 C    -79.11156842   -149.71359737     -7.96860218
 C    -78.30075272   -149.66241941     -9.27686771
 C    -76.96015427   -148.91454278     -9.15408190
 C    -76.05233350   -149.04900279    -10.39076373
 C    -74.79758561   -148.15722860    -10.34664438
 C    -73.90245914   -148.27327983    -11.59439464
 C    -72.59508029   -147.46436986    -11.50481118
 C    -71.48749036   -147.95679189    -12.45474017
 C    -70.19224021   -147.12624879    -12.39051254
 C    -68.92781844   -147.90519897    -12.79803461
 C    -67.62738798   -147.08680906    -12.69450403
 C    -66.34500655   -147.93579940    -12.77396006
 C    -65.05319622   -147.10821109    -12.90783934
 C    -63.79930970   -147.81032251    -12.35429786
 C    -62.51696894   -146.96191017    -12.44031342
 C    -62.47262563   -145.79069006    -11.44137542
 C    -61.25959112   -144.85922218    -11.62169418
 C    -61.38194625   -143.51927576    -10.87257950
 C    -60.39113918   -142.44162598    -11.35067186
 C    -60.52274872   -141.09734126    -10.61095738
 C    -59.32383631   -140.15188940    -10.81178022
 C    -59.33076273   -138.92510606     -9.88089104
 C    -58.31190480   -137.83783438    -10.26995252
 C    -58.16112156   -136.71765568     -9.22397734
 C    -57.22217018   -135.57703145     -9.65865732
 C    -57.36354070   -134.29455932     -8.81789600
 C    -56.40108390   -133.16553945     -9.23092271
 C    -56.45519067   -131.92954617     -8.31386596
 C    -55.44383196   -130.82920533     -8.68535433
 C    -55.75734909   -129.45496713     -8.06505089
 C    -54.62474577   -128.42348546     -8.22270655
 C    -55.05480215   -126.97250786     -7.93754780
 C    -53.89551459   -125.95909593     -7.96301563
 C    -54.34719217   -124.49426706     -8.11087952
 C    -53.18623359   -123.49108375     -8.24278265
 C    -53.62803370   -122.07062559     -8.64116846
 C    -52.47610517   -121.05035997     -8.70214995
 C    -52.89100120   -119.66867626     -9.24104828
 C    -51.86313427   -118.55507632     -8.96721487
 C    -52.17250031   -117.22723585     -9.68326818
 C    -51.37945898   -116.02362005     -9.14105564
 C    -51.68910893   -114.69570780     -9.85685305
 C    -50.94931087   -113.47978576     -9.26877785
 C    -50.98619576   -112.22952516    -10.16715858
 C    -49.90670492   -111.18412734     -9.83034571
 C    -49.99042115   -109.90161613    -10.67873041
 C    -49.14333720   -108.73544944    -10.13641683
 C    -49.41391759   -107.38832596    -10.83186243
 C    -48.79407601   -106.17618057    -10.11207082
 C    -49.42113506   -104.82588177    -10.50588560
 C    -48.80726506   -103.61460108     -9.77955048
 C    -49.39757673   -102.25963304    -10.21220941
 C    -48.93891377   -101.07146194     -9.34648558
 C    -49.34001035    -99.69505248     -9.90881870
 C    -48.64456417    -98.50850391     -9.21595718
 C    -49.39891859    -97.17299492     -9.35367121
 C    -48.57517791    -95.94196699     -8.93221951
 C    -48.99504054    -94.63712187     -9.63414158
 C    -48.03603695    -93.45738114     -9.38893978
 C    -48.61750362    -92.08589081     -9.77946608
 C    -47.67215483    -90.90249485     -9.50109643
 C    -48.06330403    -89.60346901    -10.22988593
 C    -47.15201102    -88.40495624     -9.90629332
 C    -47.26645212    -87.24221870    -10.90956031
 C    -46.25637221    -86.10505201    -10.66833327
 C    -46.27310802    -85.01185809    -11.75288247
 C    -45.27677363    -83.86481112    -11.50148430
 C    -45.32129515    -82.75205795    -12.56515634
 C    -44.32886579    -81.60229207    -12.31075035
 C    -44.53975668    -80.37948190    -13.22281412
 C    -43.58336733    -79.20820136    -12.93122996
 C    -43.88064569    -77.93811877    -13.74983597
 C    -43.14207843    -76.68299227    -13.24906071
 C    -43.17150936    -75.50265510    -14.23776593
 C    -42.53244112    -74.21222669    -13.69188471
 C    -42.18014268    -73.17948104    -14.77858716
 C    -41.29764681    -72.02059589    -14.27880095
 C    -40.63730600    -71.20500301    -15.40590266
 C    -39.76904560    -70.03522025    -14.90657093
 C    -38.95610429    -69.34086711    -16.01499329
 C    -38.14692789    -68.12388031    -15.52942487
 C    -37.27280456    -67.47730968    -16.62004617
 C    -36.76228298    -66.06952372    -16.26073239
 C    -35.81446117    -65.46012418    -17.31043045
 C    -35.56351843    -63.95180346    -17.12713743
 C    -34.68771335    -63.32426739    -18.22748462
 C    -34.48965874    -61.80423239    -18.07960639
 C    -33.30410427    -61.24543974    -18.88819243
 C    -33.04863053    -59.74280390    -18.66814996
 C    -31.81372072    -59.20182104    -19.41241826
 C    -31.39395690    -57.78416431    -18.98154969
 C    -30.10432010    -57.28060896    -19.65598942
 C    -29.69864182    -55.85307601    -19.24468078
 C    -28.49151400    -55.29637509    -20.02219381
 C    -28.34814548    -53.76506692    -19.94383092
 C    -27.07282417    -53.22027326    -20.61342440
 C    -27.08521858    -51.69680221    -20.83810718
 C    -25.76795287    -51.13669256    -21.40616369
 C    -25.75878608    -49.60584676    -21.57357663
 C    -24.37884464    -49.02307581    -21.93098348
 C    -24.29991624    -47.48885682    -21.82354793
 C    -22.96263787    -46.89526711    -22.30410783
 C    -22.96822154    -45.36053135    -22.43120999
 C    -21.61728757    -44.76316720    -22.86679404
 C    -21.24045849    -43.46394172    -22.13085042
 C    -19.95820932    -42.79423152    -22.65898422
 C    -19.22797916    -41.92886735    -21.61518886
 C    -18.16288915    -40.99122595    -22.21352980
 C    -17.35322586    -40.21078116    -21.16141227
 C    -16.53559557    -39.04157157    -21.74109289
 C    -15.81602368    -38.19217662    -20.67697611
 C    -15.02751219    -37.00178310    -21.25387550
 C    -14.28126631    -36.17161077    -20.19296504
 C    -13.42876162    -35.02974697    -20.77690238
 C    -12.45179259    -34.39829577    -19.76774387
 C    -11.69739011    -33.17036139    -20.31056433
 C    -10.77589153    -32.49457696    -19.27820985
 C    -10.00288069    -31.28139730    -19.82798195
 C     -9.26782143    -30.46542145    -18.74841199
 C     -8.50827171    -29.24284323    -19.29612242
 C     -8.06744052    -28.24198558    -18.21189375
 C     -7.10109764    -27.15513611    -18.71839121
 C     -6.57884644    -26.21733668    -17.61413312
 C     -5.70904997    -25.05859466    -18.13602491
 C     -5.20249369    -24.10990975    -17.03375558
 C     -4.52119489    -22.83628372    -17.56789851
 C     -3.63173425    -22.12109524    -16.53399077
 C     -3.07114132    -20.77067383    -17.01741355
 C     -2.18169664    -20.05547611    -15.98349848
 C     -1.57488417    -18.73283019    -16.48746912
 C     -1.06613620    -17.80925713    -15.36506621
 C     -0.43308396    -16.49947254    -15.87034749
 C      0.18633071    -15.63322718    -14.75789774
 C      0.35723663    -14.15119947    -15.13997759
 C      0.95453176    -13.28024155    -14.01914271
 C      1.23857456    -11.82626779    -14.43971377
 C      2.09929678    -11.03993167    -13.43351659
 C      2.09445553     -9.51683227    -13.66099138
 C      2.42967442     -8.69453097    -12.40279868
 C      2.17404369     -7.18359321    -12.55550758
 C      2.58274877     -6.35172273    -11.32564918
 C      2.60302631     -4.83230753    -11.57578168
 C      3.01525295     -4.00065351    -10.34695265
 C      3.20026786     -2.50007761    -10.63959827
 C      3.87100200     -1.71687626     -9.49578388
 C      4.01867524     -0.20898075     -9.77154423
 C      4.62745983      0.58518435     -8.60095331
 C      4.59286209      2.11250559     -8.79509974
 C      5.29864102      2.90218076     -7.67711529
 C      5.63808868      4.35589156     -8.05540115
 C      6.43198555      5.11495576     -6.97598033
 C      7.07934370      6.41975318     -7.47601144
 C      7.58844883      7.33814823     -6.34952909
 C      8.18592483      8.66748105     -6.84701948
 C      8.89163629      9.48639790     -5.75023029
 C     10.42284839      9.32292518     -5.73391608
 C     11.09899718      9.88179561     -4.46818045
 C     12.60453839     10.16046444     -4.63337530
 C     13.42949617      9.92296070     -3.35484621
 C     14.82557814     10.57249589     -3.38052026
 C     15.53057377     10.59640729     -2.01157563
 C     16.51229812      9.43035930     -1.79214593
 C     17.44433125      9.61585101     -0.58032620
 C     18.72997266      8.77044773     -0.64372546
 C     19.73019297      9.06553247      0.48944899
 C     20.91327540      8.08170068      0.55262310
 C     21.98771889      8.45982858      1.58905472
 C     22.97878288      7.32465554      1.90650446
 C     24.21657597      7.77818780      2.70260544
 C     25.29567364      6.69028105      2.85625152
 C     26.61554028      7.19880633      3.46531152
 C     27.85174345      6.37620376      3.05698967
 C     29.19278227      7.07859413      3.33958951
 C     30.42961952      6.21358959      3.03364708
 C     31.76626401      6.97029271      3.14492108
 C     33.00692959      6.05861500      3.11038627
 C     34.34291445      6.82132068      3.03950264
 C     35.58592955      5.91387587      3.09479627
 C     36.92144603      6.68065688      3.10132380
 C     38.15922804      5.78441818      2.91092456
 C     39.43516161      6.55325417      2.52043159
 C     40.71697873      5.70061200      2.55975337
 C     41.99196614      6.46772964      2.16284327
 C     43.28269098      5.63431185      2.26793458
 C     44.54558198      6.37192579      1.78561519
 C     45.83176136      5.52856244      1.86359502
 C     47.08507494      6.24681191      1.32981345
 C     48.37881571      5.41978180      1.44752510
 C     48.86401820      5.21847525      2.89516256
 C     49.17243428      6.53029731      3.64054998
 C     49.58761114      6.33287287      5.11032947
 C     49.79740376      7.64779962      5.88399264
 C     50.23011861      7.45054510      7.34872760
 C     50.05008579      8.70132781      8.22891554
 C     51.08130717      8.82047351      9.36645093
 C     51.12775052      7.59694734     10.30048880
 C     52.18085275      7.70252407     11.41916177
 C     53.62351040      7.87124737     10.90742810
 C     53.94706703      9.28958540     10.40222683
 C     55.22918607      9.37486314      9.55340502
 C     55.09629942      8.74757431      8.15324436
 C     53.98201614      9.36973181      7.29133206
 C     53.86942116      8.76351954      5.88015204
 C     52.80191026      9.43246087      4.99441055
 C     52.43598544      8.62400071      3.73580370
 C     51.37736373      9.29869728      2.84378093
 H     -0.36333333      0.00000000      1.02766186
 H     -0.36333333     -0.88998127     -0.51383093
 H     -0.36333333      0.88998127     -0.51383093
 H      1.88274777     -0.22116295     -1.01079717
 H      1.88274777     -0.60666706     -0.83819988
 H      3.22703521      0.25038660     -1.30636207
 H      3.23970928      0.17833075     -1.30174868
 H      4.21956933     -0.04927861     -2.03515814
 H      3.80907828      0.89014338     -2.48371559
 H      4.74030605      1.63982462     -2.94772689
 H      5.23230743      0.98438469     -2.78155351
 H      5.67636923      1.89364119     -3.85586839
 H      5.66975064      1.90888285     -3.84738919
 H      6.51910021      2.05660026     -4.71696320
 H      7.32736953      1.54315874     -4.15773410
 H      8.35700033      1.36756446     -4.91842821
 H      7.69233250      2.21788298     -5.47028983
 H      9.04142037      2.34572216     -5.95764767
 H      9.53844374      1.87478848     -5.32846496
 H      9.99978589      2.90704445     -6.19721303
 H      9.93367379      2.91837970     -4.74963740
 H     10.66041634      3.90625260     -4.54886440
 H     10.59642525      4.04463371     -6.10935500
 H     11.25248981      5.24892642     -5.89267429
 H     11.43740708      5.02968197     -4.65320839
 H     12.35942569      5.95770549     -4.56421346
 H     12.29060677      5.92404979     -4.43175608
 H     13.39955403      6.37035168     -4.56394157
 H     13.44207651      5.70939200     -5.67744236
 H     14.72806816      5.73472727     -5.38581337
 H     14.70988785      6.70723867     -4.65886721
 H     15.07299404      7.71365441     -5.06061150
 H     16.08215241      5.94519210     -4.86515097
 H     17.26066118      5.86115691     -5.06475311
 H     17.03848603      6.90873041     -3.85760497
 H     17.65244308      7.84213189     -4.73340759
 H     18.59240916      6.00127670     -4.79775974
 H     19.00320352      5.16396855     -3.90786671
 H     19.01453956      6.65284811     -2.93248174
 H     19.94978670      8.20326517     -3.90408209
 H     20.71119499      7.06483446     -5.04096362
 H     21.53598738      5.76139462     -3.02432574
 H     22.06865714      7.69820473     -2.97597375
 H     22.97877447      8.05568205     -2.23776712
 H     23.20205657      7.32292645     -4.09778084
 H     23.88623432      6.22338555     -2.21224281
 H     23.55907298      7.69053022     -1.25897546
 H     24.58510817      9.31433572     -2.24032703
 H     25.56097760      8.15107916     -3.16918637
 H     26.34948711      6.82967242     -1.48074490
 H     25.85922619      8.07080948     -0.30282737
 H     27.49030681      9.30616720     -2.25206238
 H     27.79745600      7.60944774     -2.69372868
 H     28.50698990      6.67780205     -0.82359659
 H     28.79015169      8.29055932     -0.12567105
 H     30.15270352      8.27201679     -2.55500897
 H     29.80817586      6.52789646     -2.46776437
 H     30.65448146      5.93100250     -0.49932103
 H     31.56481277      7.45898481     -0.42979657
 H     32.57703428      7.21129131     -2.57849720
 H     32.07498640      5.50364353     -2.56610126
 H     32.69533271      4.57314334     -0.80701799
 H     33.84065642      5.89701826     -0.48475183
 H     35.02277087      6.32075286     -2.09874301
 H     34.60878685      4.75875555     -2.84509969
 H     34.83417270      3.18128340     -1.59103634
 H     35.76444641      4.11575524     -0.47118864
 H     36.71793042      5.13863780     -0.13755215
 H     37.53930447      4.69367114     -1.65268118
 H     37.67772122      2.46492969     -1.50433791
 H     37.30309666      2.56253423      0.23301538
 H     39.23635899      4.24185861      0.38773332
 H     39.68620844      3.69861350     -1.24652091
 H     39.87781975      1.68529617     -1.40162666
 H     39.98543062      1.53143555      0.36840539
 H     41.64599953      3.09258087      0.76726452
 H     42.03189808      3.08986346     -0.97036076
 H     42.30037866      0.76570227     -1.20621269
 H     42.37497001      0.63013136      0.56701130
 H     43.98512518      2.13409222      1.07245409
 H     44.47745382      2.16593187     -0.63776969
 H     44.73824278     -0.13936429     -0.93426525
 H     44.70675209     -0.33834317      0.83426024
 H     46.31840228      1.15254112      1.45385249
 H     47.04964123      0.48397889     -0.33324972
 H     47.20377971     -0.75738788     -0.92332347
 H     47.19205536     -1.36238324      0.75062690
 H     49.37155073     -0.80482995      0.84871171
 H     49.08217587      0.60187192     -0.58937238
 H     49.50826453     -1.66250613     -1.03856994
 H     50.55622954     -1.28836163      0.69887255
 H     51.38674388     -0.32178348      1.11301061
 H     51.64175931     -0.09745990     -0.63424803
 H     52.04639508     -2.60255181     -0.78446079
 H     52.15946144     -2.58350362      0.99548746
 H     53.94623273     -2.69835019     -1.09247993
 H     52.29570315     -2.56756948     -1.98397772
 H     53.07574343     -4.30458813     -1.06323009
 H     54.64012471     -3.49240976     -0.81555253
 H     55.19639013     -2.67600213     -2.75702365
 H     54.78977441     -4.65576898     -2.90898435
 H     54.75262838     -5.74429913     -2.54794361
 H     56.23781212     -4.89016657     -2.06529105
 H     56.96577336     -3.99229617     -3.96082347
 H     55.88033552     -5.06053884     -4.88220773
 H     56.39629244     -7.08849642     -4.05527290
 H     56.84861643     -6.95276899     -3.31475503
 H     57.12675081     -8.17063332     -3.08302947
 H     58.04819888     -6.66460036     -2.22195270
 H     59.01558807     -8.14693538     -3.55859811
 H     57.53447574     -9.13385143     -3.53473085
 H     57.35638560     -9.22517108     -1.15992601
 H     59.03142664     -8.63196359     -1.05692582
 H     59.70154698    -10.54023230     -2.58614255
 H     58.09253565    -11.22905975     -2.26231246
 H     58.80403677    -11.00792402      0.23968287
 H     60.44282603    -10.72222786     -0.39357392
 H     61.41177596    -11.45609435     -1.50519978
 H     60.49496439    -12.96667746     -1.29104591
 H     60.89755752    -12.59621814      1.23824053
 H     61.02646621    -11.90837104      1.30280215
 H     60.62580261    -10.69165504      1.51335684
 H     62.30235359    -10.34952603      1.02305978
 H     63.49591201    -11.75631553      2.27465982
 H     62.08044242    -12.02126194      3.32085096
 H     61.27125002    -10.21820310      3.94951378
 H     62.76233157     -9.36198570      3.48925926
 H     64.23523559     -9.36706712      3.43555975
 H     64.18808492    -10.39762020      4.88607821
 H     62.76799714     -9.23336168      6.21456658
 H     62.96214943     -7.81419209      5.15790711
 H     65.48199153     -8.09512280      5.48233358
 H     65.07429797     -9.21269546      6.80637435
 H     63.88410214     -8.75297284      8.16469994
 H     64.08000034     -7.02364941      7.79142923
 H     66.42213058     -6.96680604      7.81456709
 H     66.42000303     -8.55639160      8.61549147
 H     64.91595499     -7.77557487     10.38186090
 H     65.25029502     -6.11388388      9.83847662
 H     67.48093150     -6.01783632      9.85562027
 H     67.53308847     -7.49894379     10.84145341
 H     65.93598103     -6.34788329     12.45215471
 H     66.31464294     -4.84088302     11.58391971
 H     68.72920605     -5.16005409     11.93613030
 H     68.31548166     -6.40650360     13.13757211
 H     66.87008433     -5.02894182     14.42785481
 H     66.82420060     -4.05601151     13.74892852
 H     65.89897206     -3.84121139     13.11586420
 H     67.26160088     -2.69610401     13.10042297
 H     66.77559047     -2.94166632     15.76192695
 H     65.28267300     -3.74502796     15.21964088
 H     64.31707658     -2.33272414     13.86494425
 H     65.35720889     -1.02441099     14.47707835
 H     64.88855260     -1.37243756     16.77234813
 H     63.50790802     -2.38915318     16.29446053
 H     62.22193842     -0.79130039     15.46200188
 H     63.76771531      0.52486175     15.68618140
 H     61.46412996     -1.67493922     15.88197467
 H     61.85398911     -1.08868115     14.24717255
 H     61.35266389      1.28860711     15.15290467
 H     60.47808327      0.65641577     16.16974072
 H     61.47303028      0.83839972     13.19029500
 H     61.99691351      1.98075936     14.45078200
 H     59.92920957      2.90310346     14.96502279
 H     59.27131328      2.19431606     13.47068027
 H     61.04482697      3.21476073     12.11054088
 H     61.43323441      4.23907038     13.51346500
 H     59.19305345      5.05986861     13.78247861
 H     58.82029566      4.42410482     12.16225557
 H     60.42151093      5.31888350     10.88943511
 H     60.79947956      6.47769271     12.18657334
 H     58.00078650      6.52953450     11.51670982
 H     58.00443361      5.68055101     11.03987832
 H     57.95076903      4.38939111     10.83455090
 H     58.74649717      4.86294643      9.31440987
 H     56.91887480      6.60415776      9.02444021
 H     56.04683438      5.75248826     10.32154130
 H     55.91057594      3.69625901      9.80128392
 H     56.32742990      4.07886033      8.11364780
 H     54.85328810      5.71442436      7.62836765
 H     53.90628608      5.27615483      9.07037101
 H     53.37316160      3.75619546      9.64884184
 H     53.75196580      2.95506741      8.58099063
 H     54.63395970      2.22764511      8.59047629
 H     53.63015822      2.41927725      7.13310661
 H     51.50779335      2.34153268      8.20753103
 H     51.92879942      1.49459262      9.00680232
 H     51.79864966      2.81261988      6.28321220
 H     50.84192619      3.18005085      7.73852706
 H     49.88479188      0.79544505      7.45248919
 H     50.62573805      0.82681596      5.83437877
 H     49.50928523      2.88471702      5.20196247
 H     48.43970263      2.66653502      6.60789858
 H     47.59985094      0.74008243      6.56285985
 H     48.05243996      0.56144003      4.85069258
 H     46.84148829      2.81591239      4.50705798
 H     46.18172334      2.57019311      6.14186650
 H     45.33187902      0.30835022      5.28660987
 H     45.70373263      0.91490748      3.65502173
 H     44.68676800      2.81748875      3.46416161
 H     43.68146900      2.43321378      4.88189690
 H     42.79278523      0.70014221      4.91635556
 H     43.01927836      0.51381682      3.16072167
 H     41.90624778      2.91314852      3.12865601
 H     41.50036739      2.57877380      4.82916221
 H     40.36674037      0.49410146      4.27841503
 H     40.38293239      1.00927987      2.57471444
 H     39.36163910      3.11923660      2.94000095
 H     38.88951875      2.56263836      4.56344403
 H     37.82766711      0.59069994      3.96852608
 H     37.78890097      1.15098816      2.27949057
 H     36.89714761      3.13897586      2.33841665
 H     36.29946307      2.82967278      3.98625507
 H     35.23080352      0.72997938      3.29423910
 H     35.46162780      1.25054553      1.60782347
 H     34.72208147      3.14022867      1.27815104
 H     33.77156190      3.05762625      2.78080072
 H     32.67132877      1.40728003      2.99752116
 H     32.81110223      1.04988040      1.25942003
 H     32.05766090      3.32535131      0.67258586
 H     31.53476019      3.50725795      2.36425707
 H     30.21212350      1.64116909      2.56995473
 H     30.20379721      1.47596743      0.79769466
 H     29.51585912      3.62550139      0.25192732
 H     29.02624593      3.86999537      1.94567118
 H     27.76194612      2.23949801      2.50294598
 H     27.52907174      1.81572700      0.78992107
 H     26.98974006      3.37178660     -0.37402647
 H     26.51801384      4.31680203      1.05869362
 H     25.15052992      2.78736128      2.09823454
 H     25.09390624      1.84386413      0.58996614
 H     24.42580347      3.64929262     -0.80291333
 H     24.02273777      4.57465677      0.66320600
 H     22.60516122      2.87176507      1.58677582
 H     22.60302535      2.08058420     -0.00768174
 H     21.85153221      4.24306623     -1.03827313
 H     21.49645503      4.80075831      0.61435097
 H     20.22695930      3.31412382      1.51981773
 H     19.87632419      2.62131263     -0.08184839
 H     19.25196333      4.25901842     -1.34322965
 H     18.99086882      5.27895448      0.09198001
 H     17.63361398      3.81643724      1.29583043
 H     17.39907452      2.85997269     -0.18688110
 H     16.66827541      5.11407290     -1.24399819
 H     16.60394116      5.72816686      0.42543775
 H     15.08327985      3.90583081      1.09913831
 H     14.83641089      3.57300918     -0.63191690
 H     14.24018698      5.56679634     -1.44522858
 H     13.93063088      6.14440014      0.20970814
 H     12.43880959      4.10016812      0.51081738
 H     12.53544452      3.90374490     -1.25563281
 H     11.92152464      5.85267020     -2.06860568
 H     11.24537500      6.30379298     -0.48507274
 H      9.92604519      4.15757608     -0.50085464
 H     10.34386064      4.02533181     -2.22602372
 H      9.47085617      6.24822172     -2.72693429
 H      8.67674700      6.22425528     -1.13411198
 H      7.64034690      3.99119705     -1.90806884
 H      8.20745325      4.43335001     -3.53630648
 H      6.98308587      6.60751785     -3.35295913
 H      6.14564763      5.91547918     -1.94297816
 H      5.30045928      4.06993814     -2.43777606
 H      5.46778709      4.43421849     -4.17201015
 H      4.47383314      6.49370079     -4.25409893
 H      3.77842334      6.20287509     -2.64161876
 H      2.77821504      4.27265759     -2.76710562
 H      3.03571670      3.97742611     -4.10147596
 H      3.80185360      3.23071426     -4.50025418
 H      2.81330646      4.17783290     -5.63779869
 H      0.95593466      4.31007676     -5.45828818
 H      0.92362574      2.86619847     -4.41788524
 H      2.23651939      1.59147460     -6.09026023
 H      1.88422447      2.89869551     -7.24582435
 H     -0.34209816      3.06303494     -7.15263369
 H     -0.42019712      1.48286706     -6.33701326
 H      0.82513186      0.23110324     -7.81920903
 H      0.66805190      1.53636235     -9.01916370
 H     -1.68248679      1.71286476     -8.93198516
 H     -1.73028071      0.15225115     -8.07731122
 H     -0.36837752     -0.84104544     -9.95619821
 H     -0.74343687      0.63497834    -10.87758354
 H     -2.85537841      0.90757424    -10.86679229
 H     -3.22402959     -0.25258329    -10.14759838
 H     -3.55561096     -0.38896773     -9.06517744
 H     -3.38795301     -1.84073406    -10.08131325
 H     -4.42320273     -1.57241673    -11.88455352
 H     -5.32275392     -0.20349585    -11.18804082
 H     -5.93462164     -1.74068847     -9.25394908
 H     -5.34707389     -3.07815612    -10.27092234
 H     -7.05437592     -2.12508382    -12.00865831
 H     -7.69221038     -1.16945576    -10.64916985
 H     -8.08388966     -2.93331336     -9.17012546
 H     -7.90906774     -4.07059257    -10.52817552
 H     -9.39450458     -3.17106877    -12.01399158
 H    -10.09326643     -2.19580035    -10.69913416
 H    -10.52339597     -3.75394451     -9.13235469
 H    -10.32645237     -5.02919845    -10.35840823
 H    -12.02387481     -3.77698886    -11.77656207
 H    -12.39599029     -2.83580842    -10.31232981
 H    -12.73360753     -5.46828643     -9.54190754
 H    -12.62704368     -5.76439350    -11.29382975
 H    -13.83327209     -4.74562096    -12.44810313
 H    -14.87738006     -4.35096600    -11.06161380
 H    -15.19611607     -6.43333017    -10.17713365
 H    -14.58182889     -7.15008155    -11.68616824
 H    -16.37272757     -5.67216316    -12.84266347
 H    -17.03909497     -5.42743829    -11.21038565
 H    -17.23319976     -7.81082551    -10.78201155
 H    -16.98385583     -8.08209884    -12.52342048
 H    -19.14464528     -6.27331536    -12.17258879
 H    -18.96564344     -6.80962244    -10.48480926
 H    -19.23576034     -9.15486224    -11.05395038
 H    -19.83619648     -8.63636761    -12.64734501
 H    -21.52518878     -7.20045996    -11.34327112
 H    -21.04213521     -8.14302363     -9.91271192
 H    -21.53958210    -10.26696563    -11.03676543
 H    -22.40327621     -9.32742549    -12.27755689
 H    -23.79313117     -8.22470176    -10.56710019
 H    -23.22322277     -9.45676889     -9.41580454
 H    -23.63591065    -11.37824457    -10.38319540
 H    -24.72567059    -10.56977111    -11.53517657
 H    -25.95699950     -9.53769794     -9.61644239
 H    -25.10210872    -10.69022960     -8.56330460
 H    -25.99076415    -12.54320390    -10.06399599
 H    -27.08733835    -11.31866046    -10.74684665
 H    -27.89125767    -10.82115196     -8.41072560
 H    -27.07411203    -12.32211705     -7.91308770
 H    -28.02559494    -13.79719866     -9.39420371
 H    -29.27672044    -12.58674366     -9.76535101
 H    -29.64544186    -12.52530493     -7.19767472
 H    -28.65206387    -14.00150192     -7.14961983
 H    -30.31433582    -14.98018677     -8.83958870
 H    -31.36035039    -13.59730279     -8.43740458
 H    -31.52739331    -13.69482816     -6.22453666
 H    -30.90079637    -15.36062524     -6.25215934
 H    -32.71054434    -15.89890318     -7.95301228
 H    -33.44646844    -14.34082081     -7.50684898
 H    -33.52061366    -14.84763645     -5.15190766
 H    -33.19963345    -16.54936340     -5.56344597
 H    -34.58022808    -17.19563902     -7.01220617
 H    -35.63011137    -15.80164293     -6.66179695
 H    -35.59534835    -16.34648718     -4.24199859
 H    -34.91312361    -17.92835438     -4.68980684
 H    -36.63426357    -18.49074319     -6.23982984
 H    -37.61391745    -17.16813366     -5.56215072
 H    -37.49086525    -17.80430713     -3.31455582
 H    -36.89067672    -19.39828746     -3.83153463
 H    -37.67527231    -20.42811322     -5.11835734
 H    -39.20207672    -19.53003675     -4.94344711
 H    -39.55252546    -19.56113707     -2.73751325
 H    -38.34250017    -20.85547921     -2.56785512
 H    -39.31926097    -22.28778482     -4.21031038
 H    -40.78722821    -21.28324590     -4.14519192
 H    -40.73187283    -21.70812127     -1.60360847
 H    -39.53059861    -22.97140248     -1.96322979
 H    -40.73070516    -24.18528701     -3.52170983
 H    -42.20893640    -23.33641190     -3.00935240
 H    -42.20609445    -23.63369941     -0.79101758
 H    -40.98798782    -24.91915378     -0.97015426
 H    -42.60685421    -25.97140896     -2.66787585
 H    -43.81910616    -24.82791229     -2.04247419
 H    -43.47499196    -25.58806276      0.26451752
 H    -42.59993108    -26.98786778     -0.40112579
 H    -43.98420888    -27.86199042     -1.87107483
 H    -45.32517817    -26.92463746     -1.17004882
 H    -44.75426452    -27.81589139      1.09235137
 H    -43.72817210    -29.01297242      0.26627753
 H    -45.50070855    -29.79918694     -1.16854873
 H    -46.65655596    -28.95295404     -0.11205769
 H    -45.67950798    -30.18260473      1.85487851
 H    -44.87774605    -31.24410434      0.67222765
 H    -45.92086256    -32.05683733     -0.71656879
 H    -47.42209053    -31.75469561      0.19078540
 H    -46.55750689    -32.76200478      2.22574623
 H    -45.23683992    -33.45052065      1.25104048
 H    -45.96606436    -34.47421277     -0.39024529
 H    -47.58836703    -34.53667716      0.33947994
 H    -47.74504339    -35.14176866      2.17309404
 H    -46.12949278    -35.88526136      2.09905707
 H    -45.94577325    -37.08131835      0.40773486
 H    -47.71374955    -37.10169131      0.20252419
 H    -48.65778597    -37.62222486      1.97913416
 H    -47.12884015    -38.25855772      2.63156947
 H    -46.58151678    -39.65416661      0.83186395
 H    -48.24999630    -39.48469508      0.23543948
 H    -48.99153169    -40.23589344      2.57157175
 H    -47.29751933    -40.71797757      2.82883365
 H    -47.05183628    -42.08591504      0.96000067
 H    -48.82169816    -42.09663431      0.77094861
 H    -49.08265255    -42.83384957      3.13284495
 H    -47.34045871    -43.19848092      3.12440312
 H    -47.35933858    -44.58610028      1.21496229
 H    -49.13200883    -44.67852430      1.34673725
 H    -49.58332120    -45.27815344      3.36491780
 H    -47.89839963    -45.80231946      3.59849003
 H    -48.11375124    -47.18709079      1.49694444
 H    -49.86866509    -46.91376008      1.61456403
 H    -49.72581547    -47.84447638      3.98425999
 H    -48.09611893    -48.41111828      3.54691252
 H    -48.49084429    -49.59370173      1.67440231
 H    -50.22863345    -49.60806644      2.05930378
 H    -50.19304369    -50.39099177      4.19394611
 H    -48.50916919    -50.91745993      3.95801259
 H    -48.29319205    -52.05352739      2.25546327
 H    -50.05076921    -52.32575173      2.18416720
 H    -50.43045909    -53.05897053      4.32225866
 H    -48.68053524    -53.31290799      4.52609423
 H    -48.05763831    -54.52717559      2.82813700
 H    -49.75535143    -54.94612744      2.49569728
 H    -50.09618533    -55.68131208      4.82344746
 H    -48.32651238    -55.65504911      5.01274765
 H    -47.93748683    -57.08383453      3.10210131
 H    -49.67027571    -57.49027041      3.12488822
 H    -50.25234943    -58.11974655      5.02118570
 H    -48.55276181    -58.38272927      5.47999793
 H    -47.83653705    -59.67303044      3.74566137
 H    -49.53038199    -59.96972074      3.28617159
 H    -50.18387176    -60.71496222      5.48183351
 H    -48.45683809    -60.85491360      5.88930740
 H    -47.69618860    -62.14839032      4.19511394
 H    -49.37375511    -62.58284422      3.78855880
 H    -50.62940051    -63.14571946      4.94564301
 H    -49.37394748    -63.60096013      6.12244388
 H    -48.15609954    -64.88543868      4.39539151
 H    -49.61598670    -64.76238252      3.38452391
 H    -50.88545942    -65.76678588      5.37067622
 H    -49.28689420    -66.16921914      6.04216961
 H    -48.64711290    -67.37181990      3.99385522
 H    -50.36188506    -67.32745339      3.51861346
 H    -51.14035672    -68.31788614      5.57355298
 H    -49.45814082    -68.78294349      5.92303543
 H    -49.37779227    -69.90787015      3.66169334
 H    -51.14912942    -69.73699585      3.62383385
 H    -51.79532903    -70.67156047      5.53945688
 H    -50.19225271    -71.42638882      5.70871156
 H    -50.59451319    -72.33498713      3.32549979
 H    -52.28700006    -71.83283429      3.55265033
 H    -52.86820185    -72.83147437      5.45589218
 H    -51.44026662    -73.88723310      5.33489161
 H    -51.00239237    -74.81330432      3.79149862
 H    -52.66384526    -74.63446291      3.17842708
 H    -53.92989193    -75.30920840      4.86608525
 H    -52.50878009    -76.05853442      5.63238698
 H    -51.70661679    -77.32464965      3.92691182
 H    -53.25154419    -77.12132074      3.06660761
 H    -54.33713590    -77.98046289      5.24983121
 H    -52.69269123    -78.46303841      5.73065265
 H    -52.45903562    -79.77580110      3.62465013
 H    -54.21803492    -79.59773762      3.41853966
 H    -54.40166276    -80.59926958      5.78654796
 H    -52.68746591    -81.04134044      5.60115873
 H    -53.55116894    -82.22752952      3.42421899
 H    -55.17391438    -81.95788505      4.08672885
 H    -56.12777326    -81.34047684      4.21676139
 H    -55.90878755    -82.63544417      5.41816538
 H    -55.54868800    -84.19447324      3.40344526
 H    -56.18742336    -82.86275655      2.41005990
 H    -58.18357256    -82.50165023      3.51267725
 H    -57.98367941    -84.06570753      4.33853086
 H    -57.61366954    -85.54038708      2.81371768
 H    -58.20190962    -84.41520684      1.56623633
 H    -60.30287808    -84.10679176      2.92966149
 H    -59.78703327    -85.52949567      3.86672305
 H    -59.36178609    -87.13749867      2.67130213
 H    -60.23494674    -86.39062851      1.31187500
 H    -62.21477820    -86.07267469      2.84271113
 H    -61.39881312    -87.18326875      3.96923166
 H    -60.96033348    -88.97181097      2.75815449
 H    -62.10431489    -88.41271525      1.51437591
 H    -63.75727296    -87.82559667      1.75251373
 H    -63.83520001    -88.63075523      3.33804636
 H    -63.04008660    -90.74986843      2.19211976
 H    -63.40259203    -89.93105970      0.65380616
 H    -65.42233544    -89.23070912      0.75040358
 H    -65.74105313    -90.29865562      2.13827100
 H    -65.12683081    -92.25079590      1.69720874
 H    -65.06945139    -91.86267972     -0.03897676
 H    -66.88699350    -90.96043815     -0.61119863
 H    -67.66619321    -91.54039236      0.88036685
 H    -67.22903884    -93.67958000      0.96969865
 H    -66.75661652    -93.66072836     -0.74632245
 H    -68.27413412    -92.74596398     -1.88186254
 H    -69.42366335    -92.93876558     -0.53662026
 H    -69.40209571    -94.92300249      0.14055920
 H    -68.58599936    -95.44516233     -1.35262616
 H    -69.69343641    -94.67198064     -3.00852357
 H    -71.08426799    -94.34840719     -1.94590680
 H    -70.76701252    -96.87102664     -1.28731213
 H    -69.68957289    -96.95508292     -2.70164061
 H    -71.10047598    -96.15214092     -4.32339207
 H    -72.47569335    -96.39393021     -3.21949815
 H    -71.64638219    -98.80633768     -2.97000289
 H    -70.60762754    -98.47344753     -4.37657304
 H    -72.97598628    -97.81357079     -5.42312425
 H    -73.64721281    -98.61049713     -3.97999223
 H    -72.54118030   -100.67888424     -4.27810839
 H    -72.15265554   -100.18612502     -5.94379249
 H    -74.61902945    -99.73622288     -6.29540820
 H    -74.89457640   -100.62720563     -4.77933094
 H    -73.74803788   -102.58599026     -5.35991423
 H    -73.75805373   -102.04965791     -7.05712193
 H    -76.15143269   -101.70162215     -7.09994875
 H    -76.25445457   -102.62054185     -5.57901491
 H    -75.01846359   -104.51053611     -6.63833935
 H    -75.32000635   -103.71807676     -8.20337827
 H    -77.82841144   -103.84220691     -7.35763036
 H    -77.19049139   -104.94580016     -6.11529119
 H    -76.16590472   -106.46031446     -7.62791257
 H    -77.09720385   -105.70861287     -8.94544562
 H    -79.07986102   -106.33225774     -7.22746413
 H    -77.82437554   -107.29399862     -6.41071609
 H    -77.73486619   -108.30252129     -8.92953483
 H    -79.25382932   -107.39880987     -9.14006591
 H    -80.54682468   -108.11812482     -7.50138650
 H    -79.45817750   -109.50349520     -7.24867540
 H    -78.95991329   -110.55608101     -8.81173797
 H    -80.32594900   -109.88751895     -9.73652869
 H    -81.98471050   -110.36225970     -8.10440839
 H    -80.81786901   -111.43316464     -7.29205980
 H    -80.56014834   -112.59008628     -9.57308047
 H    -82.01702648   -111.69141702    -10.06110334
 H    -83.36996398   -112.45296518     -8.25006085
 H    -82.14824888   -113.70591789     -7.92480963
 H    -82.33907238   -114.42129619    -10.33825058
 H    -83.81195772   -113.42482692    -10.41522085
 H    -85.01746853   -114.21781240     -8.69241913
 H    -83.95668610   -115.64514541     -8.61673692
 H    -84.25881641   -116.14436607    -10.98400707
 H    -85.62724994   -115.00609718    -10.98350886
 H    -86.57034897   -116.36660086     -9.03434265
 H    -85.35706557   -117.59946718     -9.45416486
 H    -86.32928814   -117.55226311    -11.81613314
 H    -87.69271378   -116.64609797    -11.11741865
 H    -88.16610654   -118.29172799     -9.42887917
 H    -87.12755916   -119.42922828    -10.32094368
 H    -87.12074190   -119.82393574    -12.01507754
 H    -88.78939205   -119.22536981    -12.17505307
 H    -89.62929940   -120.49772592    -10.31841944
 H    -88.12876673   -121.45417124    -10.36178647
 H    -87.59121597   -122.20965564    -12.07746552
 H    -89.23446116   -121.98913367    -12.72506260
 H    -89.43551050   -123.38213013    -10.27419839
 H    -87.67395153   -123.50379499    -10.49864064
 H    -86.93664124   -124.17857555    -12.09202534
 H    -88.48403225   -124.94828318    -12.51793364
 H    -89.04803480   -126.06917885    -10.69765915
 H    -87.38711180   -125.90277010    -10.07967081
 H    -86.38104152   -126.78328321    -12.09746285
 H    -87.99396424   -127.36084346    -12.58034082
 H    -88.06975043   -128.53732319    -10.29967238
 H    -86.32602635   -128.19537173    -10.19593140
 H    -86.12232163   -129.38937301    -12.45638307
 H    -87.78163257   -129.96675260    -12.17074929
 H    -87.83491095   -130.90339426    -10.25554806
 H    -86.05782638   -131.00304299    -10.23801996
 H    -85.74656646   -132.01726755    -12.30342316
 H    -87.47874324   -132.42580803    -12.33383628
 H    -88.18182332   -133.32909247    -10.71638225
 H    -86.53295007   -133.76091305    -10.20353270
 H    -85.50398020   -134.66036823    -11.79305220
 H    -87.03709099   -134.94430902    -12.65166481
 H    -88.09032550   -136.02342587    -10.76726943
 H    -86.48212778   -136.15809964    -10.01638346
 H    -85.32460396   -137.17988313    -11.70224555
 H    -86.86721913   -137.58945032    -12.49019214
 H    -88.00023158   -138.59404470    -10.82838495
 H    -86.48570682   -138.76404792     -9.90883052
 H    -85.14884649   -139.76002405    -11.45462997
 H    -86.58716417   -140.14626188    -12.42947829
 H    -87.61155927   -141.22090473    -10.39643772
 H    -85.99285330   -141.14859957     -9.65966800
 H    -84.69878516   -142.15093450    -11.17243797
 H    -86.14673429   -142.81624785    -11.96557613
 H    -86.87897761   -143.73671365     -9.74007152
 H    -85.23160469   -143.39047389     -9.16167099
 H    -83.80872179   -144.22861605    -10.41312296
 H    -85.03989239   -145.28702321    -11.14268440
 H    -86.01093989   -146.23070388     -9.36922314
 H    -84.65281908   -145.70049290     -8.34812037
 H    -82.91562830   -146.57256002     -9.64081287
 H    -84.10800483   -147.55263449    -10.52735612
 H    -85.07349933   -148.53035241     -8.56638326
 H    -83.66914384   -147.94476028     -7.64273063
 H    -82.05364165   -148.85965299     -9.23856388
 H    -83.18740242   -149.88597692     -9.74504882
 H    -81.66253934   -148.47578455     -7.34364227
 H    -81.12249895   -148.21724068     -9.01988155
 H    -80.67158437   -150.76474823     -9.03820524
 H    -80.87636437   -150.68671557     -7.27178436
 H    -79.07622480   -148.88971438     -7.25581354
 H    -78.72090303   -149.38260608     -8.93085231
 H    -78.90426843   -149.16305703    -10.03482946
 H    -78.09440986   -150.68512678     -9.59245014
 H    -76.47285962   -149.23353108     -8.23272942
 H    -77.16733310   -147.84557423     -9.10425052
 H    -76.66446825   -148.91066185    -11.28197237
 H    -75.62553400   -150.05195957    -10.39522449
 H    -74.36135679   -148.22841753     -9.35028273
 H    -75.10167166   -147.12804286    -10.53745421
 H    -74.54145473   -148.25742476    -12.47730645
 H    -73.37085141   -149.22370520    -11.54765241
 H    -72.16189881   -147.62136375    -10.51698188
 H    -72.83562102   -146.40893889    -11.63250463
 H    -71.93350566   -148.14973970    -13.43041506
 H    -71.07813739   -148.88355205    -12.05268823
 H    -69.95675711   -146.93898129    -11.34285869
 H    -70.36757217   -146.17799581    -12.89862177
 H    -69.15352752   -148.47893205    -13.69691489
 H    -68.66890260   -148.58654021    -11.98757998
 H    -67.64050849   -146.54029121    -11.75150557
 H    -67.60033286   -146.37992950    -13.52377437
 H    -66.46170786   -148.65818410    -13.58182215
 H    -66.22481967   -148.46447410    -11.82836069
 H    -65.10404030   -146.27723684    -12.20427935
 H    -64.99854993   -146.72026137    -13.92499656
 H    -63.81003353   -148.84688564    -12.69122795
 H    -63.84296600   -147.78169992    -11.26554864
 H    -62.75465602   -145.94791239    -12.11873396
 H    -62.18885101   -146.94106841    -13.47954595
 H    -62.81143974   -146.15452394    -10.47136000
 H    -63.14993495   -145.01313008    -11.79457870
 H    -61.13438792   -144.66170023    -12.68631112
 H    -60.37543886   -145.37018181    -11.24051832
 H    -61.76002729   -143.72027071     -9.87020444
 H    -62.09198339   -142.89011370    -11.40933120
 H    -60.37744810   -142.44794016    -12.44056758
 H    -59.40047399   -142.69528055    -10.97338969
 H    -60.62093897   -141.30104618     -9.54467272
 H    -61.42157414   -140.59552155    -10.96927266
 H    -59.05471272   -140.15922859    -11.86800871
 H    -58.48826641   -140.52775747    -10.22131757
 H    -59.58858819   -139.25895833     -8.87581956
 H    -60.08900549   -138.22819750    -10.23794337
 H    -58.36055232   -137.69296918    -11.34918720
 H    -57.31656559   -138.18657585     -9.99467222
 H    -58.10632765   -137.17589426     -8.23649821
 H    -59.04111757   -136.07679678     -9.27881256
 H    -57.45226764   -135.31877907    -10.69232113
 H    -56.19477267   -135.93527524     -9.59372860
 H    -57.41314284   -134.57773230     -7.76649089
 H    -58.29025544   -133.79733430     -9.10436947
 H    -56.40012088   -133.09680574    -10.31875300
 H    -55.40097315   -133.42303743     -8.88224913
 H    -56.46924720   -132.27105621     -7.27884263
 H    -57.37362877   -131.38328136     -8.52872921
 H    -55.46385947   -130.69628743     -9.76703438
 H    -54.45114036   -131.15816522     -8.37802914
 H    -56.02812363   -129.60443283     -7.01985180
 H    -56.60195932   -129.02173279     -8.60081351
 H    -54.25120976   -128.47820760     -9.24524082
 H    -53.82504453   -128.68388578     -7.52933105
 H    -55.66389542   -126.96690750     -7.03362633
 H    -55.65068433   -126.61989991     -8.77938630
 H    -53.27195586   -126.17337940     -8.83097710
 H    -53.30853408   -126.08686640     -7.05349455
 H    -55.19182748   -124.32690792     -7.44253672
 H    -54.66274160   -124.33531633     -9.14202608
 H    -52.45677287   -123.90096332     -8.94134246
 H    -52.72368985   -123.37140064     -7.26307390
 H    -54.50252610   -121.80449849     -8.04741817
 H    -53.89505033   -122.07846419     -9.69792798
 H    -51.63406420   -121.51441157     -9.21568973
 H    -52.18597231   -120.79960215     -7.68183459
 H    -53.83352310   -119.38664982     -8.77177910
 H    -53.03160022   -119.74928259    -10.31893256
 H    -50.86959907   -118.94278235     -9.19231892
 H    -51.91884037   -118.28924821     -7.91159550
 H    -53.23577711   -117.01607556     -9.56945353
 H    -51.93665585   -117.34511583    -10.74089841
 H    -50.34259490   -116.33029187     -9.00334113
 H    -51.80480645   -115.73826827     -8.17889459
 H    -52.76932070   -114.61581789     -9.97875521
 H    -51.21332170   -114.71578410    -10.83732409
 H    -49.91236573   -113.76354548     -9.08898580
 H    -51.42268505   -113.21493428     -8.32333056
 H    -52.00143763   -112.10885467    -10.54507733
 H    -50.30394417   -112.38741888    -11.00244435
 H    -48.96208449   -111.70502798     -9.67396553
 H    -50.19740272   -110.67511881     -8.91137612
 H    -51.03503427   -109.59549063    -10.73503870
 H    -49.62378873   -110.12837354    -11.67986064
 H    -48.16720143   -109.12577618     -9.84848626
 H    -49.64450200   -108.32685766     -9.25892803
 H    -50.49216039   -107.26613036    -10.93462767
 H    -48.95540057   -107.41472466    -11.82037912
 H    -47.77619955   -106.43460365     -9.82010333
 H    -49.38580067   -105.96739824     -9.22079540
 H    -50.50465074   -104.94328600    -10.52349299
 H    -49.06804995   -104.56173836    -11.50271015
 H    -47.72287481   -103.72488927     -9.78540608
 H    -49.16682384   -103.61364036     -8.75056236
 H    -50.48157833   -102.35983261    -10.26698694
 H    -49.00505636   -102.01417143    -11.19901048
 H    -47.86508250   -101.16128934     -9.18242027
 H    -49.45829997   -101.12391585     -8.38962271
 H    -50.37706606    -99.74908767    -10.24002205
 H    -48.69762608    -99.47245476    -10.76081207
 H    -47.58900613    -98.75241368     -9.09593529
 H    -49.09926310    -98.36992609     -8.23506724
 H    -50.45744664    -97.35669086     -9.16962183
 H    -49.26526809    -96.80725533    -10.37174394
 H    -47.57429224    -96.03893094     -9.35284508
 H    -48.51221917    -95.92783803     -7.84413102
 H    -50.08360212    -94.58122634     -9.63107888
 H    -48.63582596    -94.67032561    -10.66271457
 H    -47.01336034    -93.81913812     -9.49554394
 H    -48.18961961    -93.09649734     -8.37194655
 H    -49.64185978    -92.03042405     -9.41106698
 H    -48.61789943    -92.01083514    -10.86687883
 H    -46.67191066    -91.17661490     -9.83646162
 H    -47.65794020    -90.72060174     -8.42647424
 H    -49.13991295    -89.46537449    -10.13017057
 H    -47.80688444    -89.71120663    -11.28380320
 H    -46.11661594    -88.74456815     -9.93314044
 H    -47.39280608    -88.05222478     -8.90344823
 H    -48.32269883    -87.07240050    -11.11837764
 H    -46.75625790    -87.53094777    -11.82849305
 H    -45.28086084    -86.54932466    -10.47059764
 H    -46.58081475    -85.53775857     -9.79597143
 H    -47.31142053    -84.76863708    -11.97838339
 H    -45.79044724    -85.40799703    -12.64630987
 H    -44.32612956    -84.29841768    -11.19106329
 H    -45.66962327    -83.23904885    -10.70011626
 H    -46.36544198    -82.51980150    -12.77471385
 H    -44.84304326    -83.12451588    -13.47105381
 H    -43.36957722    -82.03429778    -12.02573016
 H    -44.71149904    -80.99433867    -11.49094278
 H    -45.60772906    -80.16638085    -13.26888962
 H    -44.17560990    -80.62847253    -14.21955921
 H    -42.57939466    -79.61078980    -12.79683719
 H    -43.90653380    -78.72295255    -12.01025384
 H    -44.95715850    -77.76752290    -13.73900873
 H    -43.54961562    -78.10563866    -14.77475361
 H    -42.10810306    -76.95534931    -13.03736147
 H    -43.62389981    -76.34497090    -12.33162422
 H    -44.18432667    -75.40891987    -14.62957556
 H    -42.41533359    -74.77990019    -13.93129645
 H    -41.59714714    -74.47537479    -13.19784194
 H    -43.21568892    -73.77206926    -12.96556943
 H    -43.01870291    -73.11157905    -15.47162833
 H    -41.29615220    -73.53029454    -15.31111952
 H    -40.50519068    -72.43682902    -13.65681761
 H    -41.91635521    -71.35223459    -13.67997453
 H    -41.38526888    -71.01655130    -16.17605685
 H    -39.82422236    -71.79692321    -15.82617099
 H    -39.16148410    -70.39027604    -14.07416213
 H    -40.43036211    -69.24074629    -14.56077966
 H    -39.60643997    -69.19651301    -16.87773624
 H    -38.12630834    -69.99179566    -16.29036706
 H    -37.65866598    -68.38897239    -14.59164744
 H    -38.83825987    -67.29868248    -15.35851955
 H    -37.86464668    -67.39913167    -17.53202813
 H    -36.41367783    -68.12388778    -16.79875830
 H    -36.40935562    -66.08575725    -15.22957830
 H    -37.59388575    -65.37044132    -16.34916669
 H    -36.23552773    -65.64222188    -18.29918895
 H    -34.84813693    -65.95792400    -17.22972853
 H    -35.38694537    -63.75984404    -16.06880216
 H    -36.45507449    -63.41428127    -17.45008897
 H    -35.02968052    -63.69811666    -19.19257279
 H    -33.65581401    -63.63429845    -18.06266805
 H    -34.27479614    -61.58676420    -17.03335516
 H    -35.41531885    -61.30800707    -18.37117767
 H    -33.32851280    -61.68923247    -19.88345734
 H    -32.38063109    -61.53212052    -18.38509064
 H    -33.11429675    -59.53681469    -17.59980713
 H    -33.82186955    -59.18302010    -19.19430918
 H    -31.82199203    -59.60204710    -20.42624798
 H    -30.92085058    -59.54857662    -18.89218421
 H    -31.43047480    -57.73173894    -17.89342377
 H    -32.10428042    -57.07323926    -19.40359953
 H    -30.15366966    -57.52668385    -20.71670228
 H    -29.25705588    -57.79514720    -19.20267525
 H    -29.80958374    -55.76314702    -18.16407694
 H    -30.36970739    -55.15032355    -19.73855322
 H    -28.62480894    -55.53340510    -21.07772649
 H    -27.59023616    -55.78440786    -19.65121907
 H    -28.50871928    -53.45822923    -18.91030942
 H    -29.11197852    -53.31636064    -20.57890711
 H    -26.94795532    -53.72267228    -21.57264440
 H    -26.22330268    -53.44928172    -19.97002067
 H    -27.46197998    -51.21995204    -19.93325097
 H    -27.75509903    -51.47844142    -21.66977944
 H    -25.43320377    -51.79479668    -22.20800034
 H    -25.02581008    -51.13006729    -20.60786538
 H    -26.18887168    -49.16037398    -20.67653685
 H    -26.37442091    -49.35172438    -22.43642979
 H    -23.93129550    -49.65004899    -22.70215427
 H    -23.75532272    -49.04564976    -21.03722129
 H    -24.78754938    -47.18458509    -20.89740937
 H    -24.83101798    -47.05805738    -22.67233694
 H    -22.68771698    -47.38267997    -23.23949396
 H    -22.20429107    -47.10345923    -21.54934549
 H    -23.45323767    -44.94521320    -21.54782435
 H    -23.53999973    -45.09226024    -23.31957946
 H    -21.22236816    -45.36792649    -23.68313028
 H    -20.93387517    -44.80673621    -22.01876736
 H    -21.45109295    -43.59762182    -21.06978362
 H    -21.85687667    -42.65582417    -22.52464561
 H    -19.99017965    -42.80404078    -23.74847110
 H    -19.10192458    -43.37458806    -22.31538164
 H    -19.19796902    -42.47880656    -20.67456871
 H    -19.79276117    -41.00660229    -21.47899618
 H    -18.58152826    -40.52032718    -23.10296538
 H    -17.29670447    -41.59080617    -22.49340059
 H    -17.07503605    -40.89903183    -20.36327603
 H    -17.98753493    -39.42222347    -20.75653109
 H    -17.16614843    -38.49801871    -22.44469319
 H    -15.67469888    -39.45329854    -22.26781653
 H    -15.35250432    -38.86606807    -19.95647620
 H    -16.55867332    -37.57487179    -20.17149985
 H    -15.64813576    -36.51042061    -22.00320139
 H    -14.12344354    -37.38610842    -21.72616135
 H    -13.78902324    -36.85832149    -19.50432498
 H    -15.01246500    -35.57360032    -19.64906066
 H    -14.01527497    -34.52075489    -21.54177437
 H    -12.53842119    -35.46452278    -21.23117533
 H    -11.96617556    -35.20087574    -19.21263895
 H    -13.02419069    -33.77563033    -19.08017702
 H    -12.40998720    -32.53545540    -20.83706197
 H    -10.93517104    -33.51722313    -21.00828134
 H    -10.22501866    -33.27243020    -18.74945338
 H    -11.39779515    -31.94535399    -18.57132230
 H    -10.69219292    -30.67191585    -20.41234572
 H     -9.20467872    -31.64752141    -20.47368062
 H     -8.76680498    -31.16083446    -18.07500033
 H    -10.00691553    -29.88930974    -18.19169375
 H     -9.15303834    -28.73039563    -20.01010663
 H     -7.61144663    -29.59623504    -19.80496328
 H     -7.64926647    -28.80367716    -17.37658959
 H     -8.94619149    -27.69151049    -17.87592662
 H     -7.47361352    -26.78304363    -19.67279108
 H     -6.12054945    -27.60869657    -18.86298770
 H     -6.30019465    -26.82413538    -16.75259466
 H     -7.38266208    -25.53642118    -17.33425011
 H     -6.19446614    -24.63461753    -19.01506674
 H     -4.73549581    -25.46035660    -18.41688010
 H     -4.84746131    -24.71357108    -16.19850411
 H     -6.03658893    -23.48986148    -16.70523577
 H     -5.12790942    -22.43846253    -18.38136995
 H     -3.53657815    -23.10810697    -17.94834824
 H     -3.03491819    -22.87257195    -16.01708329
 H     -4.27841728    -21.61475738    -15.81738556
 H     -3.87570623    -20.22047788    -17.50532719
 H     -2.27675794    -20.96731893    -17.73740365
 H     -1.50698749    -20.79064400    -15.54486912
 H     -2.82424445    -19.64252287    -15.20587264
 H     -2.35458898    -18.17271809    -17.00364239
 H     -0.77291762    -18.96827941    -17.18712140
 H     -0.51250784    -18.41478430    -14.64747824
 H     -1.92901173    -17.36072889    -14.87275713
 H     -1.07074319    -16.09065933    -16.65416026
 H      0.54848977    -16.73053172    -16.28414053
 H      0.75603405    -16.28362459    -14.09417994
 H     -0.62278980    -15.16287006    -14.19915970
 H     -0.55470499    -13.81752066    -15.63507449
 H      1.19635259    -14.06993772    -15.83090519
 H      1.79079148    -13.81981077    -13.57458142
 H      0.18492435    -13.11739400    -13.26463286
 H      0.38221699    -11.45966466    -15.00571187
 H      2.12390412    -11.82010741    -15.07552318
 H      2.92422380    -11.67778309    -13.11611940
 H      1.47918205    -10.79232830    -12.57197709
 H      1.06836354     -9.20190101    -13.85086904
 H      2.70897582     -9.29877791    -14.53444264
 H      3.28053678     -9.16027252    -11.90558842
 H      1.56511297     -8.71536385    -11.73932337
 H      1.20973906     -7.04686457    -13.04491728
 H      2.96181613     -6.76422246    -13.18132126
 H      3.55820646     -6.69938002    -10.98547759
 H      1.84461734     -6.51536709    -10.54048518
 H      1.70378094     -4.56421642    -12.13038508
 H      3.48294701     -4.59510025    -12.17375515
 H      3.87707983     -4.47968583     -9.88232112
 H      2.18206692     -3.99130855     -9.64423385
 H      2.36755187     -2.16640214    -11.25874669
 H      4.13433191     -2.37008218    -11.18615617
 H      4.71577821     -2.30055484     -9.13003470
 H      3.14308158     -1.58978906     -8.69448449
 H      3.08258393      0.15534479    -10.19474627
 H      4.82264906     -0.06984622    -10.49429431
 H      5.47770205      0.02485685     -8.21208155
 H      3.87043878      0.68325817     -7.82287834
 H      3.60935057      2.38737317     -9.17622032
 H      5.35445722      2.38235136     -9.52671174
 H      6.24597076      2.41056997     -7.45578928
 H      4.66394465      2.88357093     -6.79116146
 H      4.77287873      4.79081109     -8.55575777
 H      6.48556167      4.34275088     -8.74076007
 H      7.21948837      4.45902000     -6.60491755
 H      5.75180114      5.36304235     -6.16117838
 H      6.34756941      6.95570307     -8.08046501
 H      7.94019749      6.16093398     -8.09248802
 H      8.11391442      6.72429087     -5.61797933
 H      6.72725565      7.80995229     -5.87640413
 H      7.52667582      9.07377578     -7.61410183
 H      9.16472488      8.46236214     -7.28058228
 H      9.50553221      8.80816710     -5.15757966
 H      8.12926482      9.93353568     -5.11229805
 H     10.78431628      9.37736688     -6.76079342
 H     10.65858178      8.34370929     -5.31718353
 H     10.51650408      9.56864052     -3.60173041
 H     11.09929129     10.96993862     -4.53177846
 H     12.75753120     10.66134101     -5.58931247
 H     13.13159122      9.20636083     -4.63465103
 H     13.10337802      8.98479523     -2.90585568
 H     13.23490310     10.74334474     -2.66404699
 H     14.72591096     11.58375820     -3.77487415
 H     15.46428477      9.98620585     -4.04113955
 H     15.38270218      9.62834724     -1.53293826
 H     15.05796779     11.36177399     -1.39598045
 H     17.10444492      9.30563087     -2.69873569
 H     15.93364896      8.52503412     -1.60870256
 H     16.84956198      9.98150181      0.25672159
 H     18.20053950     10.35675125     -0.83977934
 H     19.13885208      8.84346869     -1.65148811
 H     18.46916324      7.73356775     -0.43169165
 H     19.17699346      9.13175058      1.42629767
 H     20.21015054     10.02204790      0.28252157
 H     21.28181775      7.92329695     -0.46087816
 H     20.55227149      7.13721941      0.95972419
 H     21.48607521      8.75592468      2.51034768
 H     22.55851663      9.30259107      1.19912995
 H     23.27887387      6.85913805      0.96770796
 H     22.46979978      6.58969590      2.53009931
 H     23.88588617      8.44121237      3.50206944
 H     24.87696561      8.32337643      2.02825028
 H     25.42784700      6.19998737      1.89176083
 H     24.94685558      5.96259066      3.58898112
 H     26.37680550      7.84148355      4.31270263
 H     27.14219380      7.77813955      2.70695204
 H     27.79493338      6.18069984      1.98617183
 H     27.82967547      5.43161262      3.60046053
 H     29.14597789      7.51865512      4.33570982
 H     29.32905338      7.86750621      2.59989504
 H     30.27390434      5.72002320      2.07435307
 H     30.52484816      5.46227637      3.81758582
 H     31.74421379      7.57329891      4.05266406
 H     31.86386597      7.62299571      2.27742316
 H     32.87046724      5.32400412      2.31677119
 H     33.08315316      5.54703230      4.06985128
 H     34.30378043      7.64786033      3.74901003
 H     34.45992283      7.21456453      2.02966685
 H     35.41831302      5.06241791      2.43523275
 H     35.70781384      5.56157685      4.11906656
 H     36.83438760      7.51473387      3.79762575
 H     37.10189311      7.06329385      2.09677027
 H     37.95019487      5.07732527      2.10816385
 H     38.33387540      5.23958290      3.83869221
 H     40.17545682      6.41109407      3.30773935
 H     39.34811069      6.85396656      1.47635583
 H     40.50425882      4.74012005      2.09038629
 H     40.99157697      5.54247150      3.60267589
 H     41.97707275      7.43770911      2.65985235
 H     41.98237692      6.61280755      1.08258384
 H     43.09189323      4.65121826      1.83755892
 H     43.53601784      5.52629499      3.32257095
 H     44.52612773      7.38444337      2.18876489
 H     44.52310502      6.41394231      0.69665724
 H     45.61227791      4.53244080      1.47931819
 H     46.13167095      5.45674420      2.90905969
 H     47.08709431      7.26579045      1.71682594
 H     47.59303010      5.57856606      0.63445093
 H     48.16511688      4.40117181      1.12369411
 H     48.22671451      4.65152506      2.20564568
 H     48.00354716      4.95971632      3.51219854
 H     48.72924152      6.15560989      3.43526802
 H     48.36795720      7.23717988      3.43748924
 H     50.03614132      6.36382443      4.28428667
 H     50.48797124      6.91918489      5.29387755
 H     49.22519750      7.18441381      5.68620654
 H     49.29171102      7.56391708      6.84593784
 H     50.72288891      7.56617785      6.45400590
 H     51.00235505      6.68182727      7.37742926
 H     49.45956629      7.87299860      7.99361687
 H     50.17049479      8.40698868      9.27149223
 H     51.00543020      9.22343074      8.28207191
 H     50.62055734      8.45948989     10.28596190
 H     51.31580146      7.81746446      9.72294116
 H     52.15060326      7.22091167     10.32215534
 H     52.17225781      7.35665051     10.49888728
 H     53.10937989      7.25981744     11.05867848
 H     52.91363697      8.45588424     11.13006707
 H     53.59927768      8.49347805     10.01280988
 H     53.80445450      8.93235537     10.73593747
 H     55.03064812      9.39719164     10.35351416
 H     54.20883747      9.22581506      9.34604996
 H     54.94429185      9.37540418      8.50129524
 H     54.94138380      9.49051258      8.50846719
 H     54.04845665      8.49693255      7.98800442
 H     55.06148859      9.55241106      7.41899235
 H     54.39463774      9.59462901      6.30783591
 H     53.44334601      8.56351976      6.79337963
 H     52.81243452      8.66327016      5.63351606
 H     53.64042478      9.56645114      5.17946559
 H     53.08577576      9.29329160      3.95126516
 H     52.34444485      8.66491142      4.37015639
 H     51.35354882      8.49803895      3.71204245
 H     51.87768537      9.27346457      3.06156507
 H     51.73968931     10.27636483      2.52599743
 H     50.45170174      9.41957334      3.40648766
 H     51.19141595      8.67769866      1.96749095
1502
Final Conformation Chain 8 (Simulation Frame 9)
 C      0.00000000      0.00000000      0.00000000
 C      1.54000000      0.00000000      0.00000000
 C      2.16637443      1.39855623      0.15262874
 C      3.68254386      1.43835902     -0.11429071
 C      4.51737986      0.62557288      0.89269864
 C      6.03412288      0.67119795      0.63000308
 C      6.88718254      0.12009020      1.78765997
 C      8.40541679      0.24025338      1.55934974
 C      8.87382603     -0.26634064      0.18255808
 C     10.33775302      0.07963635     -0.14731722
 C     10.78580572     -0.36685875     -1.55141511
 C     12.30318420     -0.25545439     -1.78964109
 C     12.81117828      1.19191141     -1.92629486
 C     14.33513691      1.30552426     -2.11666870
 C     15.14615285      1.07731410     -0.82757084
 C     16.66416380      1.27096102     -1.00003429
 C     17.43400991      1.39971927      0.32750414
 C     18.96535156      1.41203818      0.16489720
 C     19.72825304      1.79598450      1.44636767
 C     21.23594046      1.48652939      1.39425082
 C     22.03114578      2.04225684      2.59025062
 C     23.53860593      1.73157644      2.53885422
 C     24.32370251      2.23326101      3.76504179
 C     25.84928791      2.27308165      3.55863564
 C     26.65012493      2.51642711      4.85132395
 C     28.08413076      1.95617745      4.81461430
 C     28.72709544      1.78910209      6.20396028
 C     29.71503945      0.61162715      6.29945591
 C     30.29406558      0.39258731      7.70954466
 C     31.49890795     -0.56570093      7.75002303
 C     31.98854352     -0.89662323      9.17211566
 C     33.41161594     -1.48294354      9.22401333
 C     33.73699590     -2.22235875     10.53511707
 C     34.95818930     -1.65907630     11.28545005
 C     35.16967083     -2.26807235     12.68402053
 C     36.60419548     -2.11590406     13.22307883
 C     36.79112992     -2.63384482     14.66126967
 C     38.23877546     -2.53910877     15.17793926
 C     38.45505459     -3.18767535     16.55786126
 C     39.90050441     -3.08419951     17.07898272
 C     40.08557974     -3.59836381     18.51876819
 C     41.52030968     -3.44835452     19.05788525
 C     41.76527578     -4.17010120     20.39604569
 C     43.25357149     -4.33223016     20.75700285
 C     43.49799747     -5.02632328     22.10981129
 C     44.97680492     -5.06022581     22.53827266
 C     45.19211901     -5.43239905     24.01703124
 C     45.42904780     -6.93507841     24.25665485
 C     45.34889447     -7.35366392     25.73650674
 C     45.76685437     -8.81255480     25.99832140
 C     45.74498270     -9.21319404     27.48513337
 C     46.28709454    -10.62804754     27.76064076
 C     46.16628398    -11.06980650     29.23096516
 C     46.20288215     -9.90658668     30.23951869
 C     46.25378623    -10.35542699     31.71177924
 C     46.35856112     -9.19387118     32.71746823
 C     46.17943443     -9.61930405     34.18665865
 C     46.72775497     -8.60210629     35.20462392
 C     47.41995038     -9.24437758     36.42115716
 C     48.28895532     -8.26778452     37.23521883
 C     49.08952587     -7.27393132     36.37327765
 C     50.07150763     -6.39928769     37.17472031
 C     50.63635970     -5.20520168     36.38307598
 C     52.16623149     -5.05735731     36.47917155
 C     52.72203685     -3.81540124     35.75790494
 C     54.17785191     -3.47551657     36.12760877
 C     54.52781464     -1.98249947     35.98609542
 C     55.97755057     -1.63927097     36.37604407
 C     56.38863268     -0.19196482     36.04753775
 C     57.88045170      0.10532148     36.28773947
 C     58.36677981      1.42182823     35.65378761
 C     59.79897869      1.81946326     36.05664336
 C     60.29852919      3.11697251     35.39443567
 C     59.95844099      3.22683716     33.89648047
 C     59.85102268      4.67477035     33.38310847
 C     59.30814893      4.79141087     31.94669520
 C     59.22521799      6.23759030     31.42392612
 C     58.89586326      6.34325332     29.92327266
 C     57.38844184      6.31580366     29.60938229
 C     57.05744081      6.46518581     28.11281178
 C     57.58415774      5.31333617     27.23679142
 C     57.24977040      5.46074596     25.74077823
 C     57.91965118      4.40462123     24.84219029
 C     57.49129145      4.47664950     23.36471952
 C     58.03475259      3.32543094     22.49814822
 C     57.04363667      2.82182118     21.43247169
 C     55.71972849      2.28838596     22.01067062
 C     54.61338324      2.08568205     20.95876221
 C     53.19782415      1.96683867     21.55346273
 C     52.10542682      1.65659168     20.51326328
 C     50.72510479      2.24484491     20.86006185
 C     50.17815528      1.79503145     22.22758300
 C     48.65320096      1.95160856     22.37454533
 C     47.85120007      1.43668317     21.16489810
 C     46.35608176      1.20922217     21.45555725
 C     45.52446980      0.84509001     20.21160014
 C     44.00236821      0.93773874     20.42659540
 C     43.18962585      1.02554327     19.12147463
 C     41.69626190      0.68914886     19.28970930
 C     40.93092991      0.55427138     17.96016990
 C     39.40149876      0.66261959     18.10404847
 C     38.66621521      0.94395966     16.78049044
 C     37.13106668      0.90483355     16.89619757
 C     36.39583380      1.18069040     15.57145774
 C     34.86454183      1.26605644     15.71094807
 C     34.11607461      1.33608327     14.36688964
 C     32.58312508      1.27227018     14.49953062
 C     31.85393879      0.93955203     13.18454546
 C     30.39822664      1.43926906     13.13177208
 C     29.70774105      1.21473645     11.77367975
 C     28.28100653      1.78889531     11.69386605
 C     27.57499620      1.52781389     10.35036842
 C     26.32944462      2.40284627     10.11687412
 C     25.45104632      1.94068603      8.93940890
 C     24.11688238      2.70010684      8.81739817
 C     23.31323059      2.35480045      7.54991748
 C     21.89581568      2.95633839      7.52370525
 C     21.27304342      3.03118533      6.11723711
 C     19.88191745      3.69085216      6.08247776
 C     19.11789840      3.47243422      4.76332329
 C     17.77060160      4.21468901      4.68950483
 C     17.18129500      4.30336758      3.26948587
 C     15.72058793      4.78927527      3.22672398
 C     15.10848175      4.81003509      1.81375014
 C     13.56955753      4.86554321      1.79854869
 C     12.95436172      4.80137090      0.38822389
 C     11.43498791      4.55035792      0.37844165
 C     10.79961025      4.60800697     -1.02319020
 C      9.38769445      3.99749593     -1.09647067
 C      8.67516512      4.22687529     -2.44231133
 C      7.16243608      3.94051550     -2.40697122
 C      6.42712984      4.29515613     -3.71278697
 C      4.90396041      4.07602776     -3.65330879
 C      4.49176303      2.63344235     -3.30597513
 C      3.10108601      2.23499202     -3.83404214
 C      2.76405136      0.74388176     -3.64803715
 C      1.42910062      0.31893821     -4.28751310
 C      1.10158992     -1.17632602     -4.11862963
 C     -0.26535614     -1.58732356     -4.69667763
 C     -0.42163172     -3.10330394     -4.91799511
 C     -1.65483134     -3.49023812     -5.75531262
 C     -2.99907162     -3.17485965     -5.07329026
 C     -4.21331628     -3.84577853     -5.74192901
 C     -5.51527180     -3.74014306     -4.92623729
 C     -6.79287803     -3.98067850     -5.75174623
 C     -8.08664232     -3.98588836     -4.91643382
 C     -9.35763281     -4.28740196     -5.73207635
 C    -10.66213874     -4.18397256     -4.92018558
 C    -11.93825291     -4.18582800     -5.78223500
 C    -13.19477567     -4.67773925     -5.04009358
 C    -14.31329704     -5.18405562     -5.96969224
 C    -15.58029020     -5.65042600     -5.22886365
 C    -16.82588321     -5.76236087     -6.12751188
 C    -18.05561818     -6.36319969     -5.42157661
 C    -19.39447612     -5.73786320     -5.85518206
 C    -20.63339547     -6.44866461     -5.27947362
 C    -21.93677724     -5.63867504     -5.40875179
 C    -23.20100129     -6.41664200     -4.99874571
 C    -24.47270374     -5.55121842     -4.92515962
 C    -25.68911566     -6.27559193     -4.31916866
 C    -26.87428034     -5.34680982     -3.99613852
 C    -28.19359396     -6.08962718     -3.71465332
 C    -29.28297713     -5.21026643     -3.07311690
 C    -30.58508048     -5.96481157     -2.74633181
 C    -31.50219613     -5.22964680     -1.75132847
 C    -32.93795170     -5.78383038     -1.69577191
 C    -33.90550762     -4.93315743     -0.85209479
 C    -35.39068312     -5.28492647     -1.05730758
 C    -36.34930891     -4.52598751     -0.12101262
 C    -37.77969981     -5.09591208     -0.09330237
 C    -38.66984832     -4.50055154      1.01339608
 C    -40.12231448     -5.01190009      0.99183898
 C    -41.02022637     -4.39368853      2.07957456
 C    -42.16723215     -5.31171914      2.54130776
 C    -43.14343109     -4.64602464      3.52897495
 C    -44.33944312     -5.53320841      3.92147994
 C    -45.09643841     -5.04701883      5.17135107
 C    -46.27285572     -5.95175922      5.58255315
 C    -47.10827853     -5.39985901      6.75262788
 C    -48.47357805     -6.09038533      6.92792940
 C    -49.23970345     -5.65216523      8.18991792
 C    -50.51316952     -6.47287587      8.46617544
 C    -51.13625081     -6.21534825      9.85075091
 C    -52.47535017     -6.94059819     10.07971694
 C    -52.96061086     -6.91332182     11.54101022
 C    -53.92407837     -8.05901386     11.90256258
 C    -54.29550524     -8.11733402     13.39596166
 C    -54.93718978     -9.44819039     13.83031440
 C    -55.77394752     -9.34885096     15.11933270
 C    -56.12741069    -10.71171276     15.74324896
 C    -57.23300367    -10.64299286     16.81308154
 C    -57.60071288    -12.00866222     17.42245592
 C    -58.41423770    -11.91402525     18.72661128
 C    -58.77408794    -13.27959500     19.34088081
 C    -59.37337207    -13.19116948     20.75673372
 C    -59.77176550    -14.55336760     21.35447862
 C    -60.59274655    -14.45141458     22.65339959
 C    -61.24469567    -15.77718324     23.08802562
 C    -61.77627184    -15.76954957     24.53335205
 C    -62.31875395    -17.13029207     25.00842364
 C    -62.93559562    -17.10073535     26.41917974
 C    -63.12164909    -18.49289080     27.05075499
 C    -63.78876978    -18.46704646     28.43851652
 C    -63.77986869    -19.82585875     29.16318881
 C    -64.25664219    -19.75874863     30.62598861
 C    -64.37811138    -21.13369043     31.30890903
 C    -65.17893436    -21.11125822     32.62411979
 C    -65.23586372    -22.47035720     33.34606786
 C    -65.93340157    -22.42202305     34.71818475
 C    -65.89987387    -23.75696149     35.48526705
 C    -67.11801143    -23.98481054     36.39950208
 C    -67.18326204    -25.39435166     37.01637824
 C    -68.17375613    -25.51970104     38.18890073
 C    -68.38224037    -26.96396780     38.68106722
 C    -69.27517348    -27.07713962     39.93065219
 C    -69.72896068    -28.51409688     40.24819117
 C    -70.73523484    -28.61088751     41.40993292
 C    -71.48218372    -29.95572429     41.48121697
 C    -72.58711627    -30.00249093     42.55291512
 C    -72.88212782    -31.41641291     43.08713680
 C    -74.09595981    -31.48832515     44.03214502
 C    -74.34757255    -32.88794871     44.62319910
 C    -75.28409103    -32.89252966     45.84570151
 C    -75.73320969    -34.29842149     46.28542938
 C    -76.33443421    -34.34931833     47.70230573
 C    -77.18760268    -35.60181346     47.97609304
 C    -78.70019630    -35.38296970     47.78696886
 C    -79.51556428    -36.68646850     47.69941365
 C    -81.02319829    -36.46825791     47.47352906
 C    -81.87103649    -37.74441045     47.62910888
 C    -83.38755811    -37.48473423     47.69491508
 C    -84.20300939    -38.67099033     48.24212224
 C    -85.66031050    -38.31965588     48.59487932
 C    -86.42215137    -39.45140058     49.30926888
 C    -87.93097314    -39.48172718     49.00245107
 C    -88.63478567    -40.77712019     49.44765311
 C    -90.06609248    -40.93203110     48.90087764
 C    -90.88448092    -42.03821206     49.59240065
 C    -92.18704331    -42.40584830     48.85770696
 C    -93.10323240    -43.35982193     49.64646032
 C    -94.23503957    -43.97919927     48.80563677
 C    -95.33308741    -44.66371865     49.64069614
 C    -96.30765009    -45.52084824     48.81174713
 C    -97.09697669    -46.55081371     49.64104482
 C    -98.03625209    -47.44030888     48.80548509
 C    -98.54890695    -48.68542022     49.55280212
 C    -99.85219401    -49.26938352     48.97658193
 C   -100.34019534    -50.54108072     49.69508103
 C   -101.77892204    -50.95286159     49.33162267
 C   -102.25745738    -52.23950544     50.02958509
 C   -103.73753601    -52.57830017     49.77231988
 C   -104.15639426    -53.97398225     50.27054601
 C   -105.67358349    -54.13511536     50.47976587
 C   -106.09934142    -55.55027443     50.91295753
 C   -107.43607072    -55.59608556     51.67627668
 C   -108.16786539    -56.94748937     51.57736117
 C   -109.57999418    -56.94156928     52.19173667
 C   -110.09906669    -58.33788907     52.58219124
 C   -111.48453241    -58.32569395     53.25445312
 C   -112.16329363    -59.70669112     53.31552699
 C   -113.51348192    -59.70880973     54.05619365
 C   -114.33122270    -60.99955710     53.86417478
 C   -115.73197240    -60.95441854     54.50250289
 C   -116.60950042    -62.17667946     54.17444372
 C   -117.85701303    -62.30992923     55.06750407
 C   -118.90319801    -63.30792313     54.53731057
 C   -120.09907275    -63.52346021     55.48336943
 C   -120.67680279    -64.95053650     55.44757463
 C   -121.80148426    -65.19681894     56.47033391
 C   -122.02136867    -66.68176635     56.81411005
 C   -122.44048821    -66.93112991     58.27484844
 C   -122.06730251    -68.32848566     58.80374289
 C   -122.63519137    -68.64179593     60.20050304
 C   -122.38013752    -70.08584579     60.67089390
 C   -122.61173901    -70.30391930     62.17768011
 C   -122.71272881    -71.78480668     62.58801365
 C   -123.22329663    -72.00336803     64.02438110
 C   -123.31205531    -73.48380886     64.43913023
 C   -124.24792536    -73.74452032     65.63402638
 C   -124.09121266    -75.14331971     66.25884747
 C   -124.93450356    -75.36000457     67.52908686
 C   -124.72757480    -76.73485484     68.19133094
 C   -125.65808828    -76.99934663     69.38957498
 C   -125.39480561    -78.33821106     70.10352475
 C   -126.11823231    -78.47993766     71.45562215
 C   -125.74161201    -79.75230591     72.23718224
 C   -126.23499949    -79.76039706     73.69598426
 C   -125.56454633    -80.83000315     74.57804739
 C   -126.15736439    -80.93449680     75.99552679
 C   -125.48872831    -82.00597906     76.87669167
 C   -126.01676723    -82.04653296     78.32276576
 C   -125.33445864    -83.10489380     79.20929119
 C   -123.89888570    -82.73875033     79.62961167
 C   -123.36174935    -83.56705420     80.81155805
 C   -121.84204192    -83.44014007     81.02599246
 C   -121.01612448    -84.52833218     80.31514908
 C   -119.51255210    -84.20993710     80.21770849
 C   -118.65528532    -85.38409154     79.70971733
 C   -117.18526552    -85.01457806     79.43750126
 C   -116.33385220    -86.18264375     78.90616530
 C   -114.84164824    -85.84277162     78.73465937
 C   -113.91588011    -87.07341478     78.72624522
 C   -112.42785258    -86.73642591     78.51693075
 C   -111.46044077    -87.77985941     79.10596464
 C   -109.97253254    -87.42171115     78.93432855
 C   -109.02018069    -88.27229748     79.79521695
 C   -107.53017742    -88.08136427     79.45604920
 C   -106.57835737    -88.36741257     80.63240586
 C   -105.09227742    -88.12571546     80.30875655
 C   -104.71246870    -86.63860964     80.18281367
 C   -103.26346468    -86.39927575     79.71944919
 C   -102.98034267    -84.95391391     79.26959248
 C   -101.68803019    -84.79566055     78.44710581
 C   -101.40149520    -83.34925055     78.00281333
 C    -99.96097672    -83.11933437     77.50920916
 C    -99.59716376    -81.63660125     77.30736119
 C    -98.27674316    -81.41354814     76.54687665
 C    -97.80656263    -79.94724426     76.52489470
 C    -96.54294090    -79.70727400     75.67797417
 C    -96.30569176    -78.23046722     75.31143004
 C    -95.01802794    -77.98474175     74.50325873
 C    -94.71727100    -76.49731644     74.24113052
 C    -93.39272436    -76.24790980     73.49616573
 C    -93.27751993    -74.84276170     72.87657977
 C    -91.86921396    -74.50167619     72.35510592
 C    -91.82502628    -73.27216571     71.42884924
 C    -90.40297781    -72.85165684     71.01345733
 C    -90.35774242    -71.92467670     69.78453033
 C    -88.93324821    -71.58933879     69.30498395
 C    -88.88275042    -70.88269096     67.93761464
 C    -87.46392649    -70.48471315     67.49023076
 C    -87.39682775    -69.89980717     66.06721188
 C    -86.07875979    -69.16834845     65.75214836
 C    -85.91378194    -68.78543114     64.26966509
 C    -84.80007115    -67.75419218     64.00929132
 C    -84.64888240    -67.35571854     62.52943974
 C    -83.58727316    -66.26863259     62.27878072
 C    -83.18944922    -66.11089676     60.79943778
 C    -81.85458872    -65.37350041     60.58497545
 C    -81.49716404    -65.14284782     59.10489202
 C    -80.35456505    -64.13373719     58.88634383
 C    -80.15781750    -63.71896542     57.41635921
 C    -79.22955626    -62.50485618     57.22696589
 C    -79.37585601    -61.81180657     55.85953084
 C    -78.44987069    -60.59577126     55.67135720
 C    -78.57185556    -59.92317776     54.29137979
 C    -77.80885861    -58.59060329     54.17441427
 C    -77.75605818    -58.02251434     52.74399927
 C    -76.75578749    -56.86517006     52.56619953
 C    -77.06475057    -55.94878601     51.36770794
 C    -75.91986906    -54.98489942     51.00470794
 C    -75.89146166    -54.57703562     49.51997223
 C    -74.62687681    -53.80085542     49.10769870
 C    -74.74114419    -53.09689410     47.74278793
 C    -73.49153638    -52.28765455     47.34881881
 C    -73.40912174    -51.95370434     45.84772418
 C    -72.19167314    -51.09239928     45.46357249
 C    -71.84876889    -51.12658436     43.96262344
 C    -70.54991717    -50.38300701     43.59975030
 C    -70.14362679    -50.51737159     42.12040102
 C    -68.85383153    -49.75999295     41.75378707
 C    -68.46755477    -49.86404255     40.26665428
 C    -67.18389807    -49.09738138     39.89779640
 C    -66.93099088    -48.99173016     38.38238366
 C    -65.67410519    -48.18261492     38.01201777
 C    -65.50331579    -47.94802935     36.49960228
 C    -64.43828674    -46.89350547     36.14563549
 C    -64.04608123    -46.87471589     34.65653449
 C    -63.07068261    -45.74407016     34.27992098
 C    -62.36953469    -45.94745379     32.92396128
 C    -61.19850699    -44.97933517     32.67288268
 C    -60.25770850    -45.41614503     31.53459653
 C    -59.09362444    -44.44181312     31.27539466
 C    -58.04120344    -44.97279920     30.28440333
 C    -56.91518422    -43.97045874     29.96976971
 C    -55.84859124    -44.51093279     28.99927128
 C    -54.94439960    -43.42191603     28.39257533
 C    -53.82162902    -43.96995595     27.49222069
 C    -53.12672954    -42.89654113     26.63402763
 C    -52.06464256    -43.45648602     25.66964546
 C    -51.42502091    -42.39383067     24.75682141
 C    -50.09800587    -42.83743512     24.11351264
 C    -49.41167048    -41.74303621     23.27516022
 C    -48.04529249    -42.15941097     22.69962287
 C    -47.23476260    -40.99319208     22.10416105
 C    -45.82441191    -41.38893959     21.62887708
 C    -45.01687932    -40.22446581     21.02597417
 C    -43.66077448    -40.64523371     20.42970742
 C    -43.05429267    -39.61198153     19.46214876
 C    -41.64221407    -39.97295377     18.96482285
 C    -41.16460223    -39.12880932     17.76861757
 C    -39.71182456    -39.41131876     17.34291172
 C    -39.21866848    -38.53367324     16.17752105
 C    -37.71096034    -38.66193246     15.89122451
 C    -37.16583428    -37.60081857     14.91732776
 C    -35.69279580    -37.81223630     14.52101956
 C    -35.21669253    -36.90397407     13.37211339
 C    -33.73383540    -37.08960571     13.00025909
 C    -32.99617155    -35.77365412     12.69086701
 C    -31.55590678    -35.96776479     12.18139822
 C    -30.62392362    -34.77591504     12.46862904
 C    -29.30891755    -34.80180696     11.66757432
 C    -28.33376352    -33.66551929     12.02747005
 C    -27.18013866    -33.48842031     11.02278820
 C    -26.27340331    -32.27893462     11.31702513
 C    -25.13381183    -32.08805447     10.29894064
 C    -24.20721053    -30.89843359     10.61169005
 C    -23.00937768    -30.76842203      9.65257929
 C    -21.92074168    -29.79359997     10.13857684
 C    -20.78670555    -29.56385292      9.12231982
 C    -19.74002293    -28.52893431      9.57508794
 C    -18.60378319    -28.30219765      8.56061776
 C    -17.70438133    -27.09544162      8.88683271
 C    -16.56444137    -26.87236693      7.87570732
 C    -15.89391648    -25.49013319      7.98260095
 C    -14.60440071    -25.35356937      7.15187873
 C    -13.88630584    -24.00260452      7.32747408
 C    -12.65731762    -23.82349155      6.41692122
 C    -11.94735191    -22.46699301      6.58263302
 C    -10.86889965    -22.19035195      5.51867322
 C     -9.88312392    -21.07110884      5.90226294
 C     -8.89554633    -20.69514108      4.78202246
 C     -7.90146361    -19.58477735      5.16995538
 C     -6.86717108    -19.25988799      4.07620684
 C     -6.15867841    -17.90584129      4.26645845
 C     -5.12298836    -17.58183236      3.17377170
 C     -4.32377684    -16.29088673      3.43129904
 C     -3.62032947    -15.72984781      2.18150021
 C     -2.82462307    -14.43655596      2.43810792
 C     -1.99777733    -13.95963311      1.22960856
 C     -0.99231118    -12.84115736      1.56074272
 C     -0.39774750    -12.14636392      0.32164785
 C      0.10759909    -10.71615657      0.58760229
 C      0.44595100     -9.92388068     -0.68888385
 C      1.01167524     -8.51677841     -0.42126602
 C      1.62717704     -7.84279990     -1.66163310
 C      2.24218227     -6.45887101     -1.38215250
 C      2.98743821     -5.85022341     -2.58454249
 C      3.83798919     -4.61508995     -2.23438773
 C      4.58026217     -4.00418909     -3.43747999
 C      5.38926540     -2.73866682     -3.09752830
 C      5.97331194     -2.01936768     -4.32760894
 C      6.84134342     -0.79473032     -3.98353820
 C      7.75777325     -0.33390531     -5.13218813
 C      8.73770002      0.78757248     -4.74023015
 C      9.87187001      1.01221509     -5.75747847
 C     10.64708717      2.32677017     -5.55112130
 C     11.74250267      2.57979243     -6.60356826
 C     12.65243104      3.78051740     -6.28436626
 C     13.99167948      3.39480601     -5.62920191
 C     14.77203658      4.58896399     -5.04900408
 C     16.26721759      4.30520028     -4.81339441
 C     16.85921761      5.03710854     -3.59460555
 C     18.39815115      5.01949599     -3.54007708
 C     19.00024977      6.00736907     -2.52362047
 C     19.31618001      5.38077791     -1.15279167
 C     20.09680857      6.30967269     -0.20443860
 C     20.76100967      5.58171878      0.97899708
 C     21.59259961      6.50095984      1.89280999
 C     22.13456100      5.80509393      3.15520790
 C     23.34356517      6.51544532      3.79184738
 C     23.74919048      5.95129666      5.16618518
 C     25.01965496      6.59144766      5.75586874
 C     25.52094231      5.91542029      7.04555785
 C     26.96390204      6.29185420      7.42995963
 C     27.67018782      5.24588451      8.31240385
 C     29.19134639      5.45315684      8.43370842
 C     29.93076483      4.28421621      9.11078905
 C     31.43038015      4.54385816      9.34603346
 C     32.16918670      3.37606190     10.02575162
 C     33.70038920      3.42798791      9.86979460
 C     34.47244443      2.86360833     11.07685981
 C     35.99928220      2.82250185     10.88019594
 C     36.77997609      2.37492920     12.12991422
 C     38.29580724      2.63392984     12.04760615
 C     39.11802607      1.88460179     13.11253041
 C     40.62938299      2.17469497     13.05555495
 C     41.45477225      1.40556984     14.10378159
 C     42.92641673      1.18803479     13.70560950
 C     43.73936941      0.37627739     14.73116197
 C     44.69300299     -0.65489199     14.09959827
 C     43.97670741     -1.83883879     13.42373540
 C     43.10961243     -2.67613854     14.38221096
 C     42.20718105     -3.70387712     13.67441789
 C     41.25996059     -3.08945605     12.62710698
 C     40.32146818     -4.10969520     11.95632829
 C     39.21455111     -3.47166024     11.09653413
 C     39.65327847     -2.19321528     10.35849835
 C     38.51841127     -1.49494974      9.58642216
 C     37.93492886     -2.33489081      8.43505459
 C     36.92771108     -1.57420058      7.55274926
 C     37.49442408     -0.28965069      6.92000291
 C     37.55614230      0.90921680      7.88463113
 C     38.50366280      2.03352809      7.42666932
 C     38.22609911      3.39548536      8.08971592
 C     39.49302397      4.22355885      8.37396176
 C     39.21497537      5.58830636      9.03104108
 C     37.97766275      6.31328173      8.46973174
 C     37.52029104      7.51710616      9.31425402
 C     36.37461913      8.32780721      8.68037729
 H     -0.36333333      0.00000000      1.02766186
 H     -0.36333333     -0.88998127     -0.51383093
 H     -0.36333333      0.88998127     -0.51383093
 H      1.88274777      1.02714461     -0.12489161
 H      1.88274777      0.89165688     -0.52494950
 H      3.17437236      1.36966977     -0.26114142
 H      3.14578945      1.38951286     -0.32566452
 H      4.18751825      1.69990652      0.81559841
 H      4.15265000      0.63964674      0.45943301
 H      5.34854481      0.16660080      0.35733945
 H      5.56852831      0.87373827      0.74572626
 H      6.45231012     -0.30751572      0.86524548
 H      6.44941280     -0.31281809      0.84759609
 H      7.63529311     -0.55445174      1.37121821
 H      7.90837733      0.48007757      1.66247894
 H      8.68982432     -0.45732686      0.77157175
 H      8.56997444      0.73710805      0.60323458
 H      9.39894599      0.54540492     -0.32084849
 H      9.94458503     -0.08190880      0.09560940
 H     10.82779241     -0.82097136     -0.51727283
 H     10.39075764      0.38446030     -1.19248365
 H     11.37435187      0.43627034     -1.99492057
 H     11.66447617     -1.00297472     -1.44466916
 H     12.47419347      0.48754971     -2.56861524
 H     12.65701557      0.66332303     -1.32193242
 H     13.69437204      1.30595768     -1.29775510
 H     13.59733874      1.35036815     -1.18809218
 H     14.78046265      1.58022555     -1.16046569
 H     14.79928433      0.40706682     -1.70992381
 H     15.97380953      0.40636581     -1.05759870
 H     16.09426142      1.60692767     -0.92084258
 H     16.82999811      2.17530841     -1.58548692
 H     17.16025755      0.91027707     -0.09898042
 H     18.19691027      0.62180917      0.35814583
 H     18.13475509      2.22983124      0.23822751
 H     19.21639426      2.06990579     -0.66714112
 H     19.40700516      0.93957987      1.04229405
 H     19.28176427      1.26080516      2.28441948
 H     19.61953302      2.86941516      1.60137278
 H     21.61842224      1.80750587      0.42534330
 H     21.36861758      0.40968165      1.49863345
 H     21.47124772      1.83204413      3.50152707
 H     23.07812458      2.12293254      2.29797193
 H     24.08528646      2.64933793      2.75554349
 H     23.68021833      0.67910426      2.78451299
 H     23.75483141      1.98536882      4.66116407
 H     24.42574446      3.31568642      3.68730707
 H     26.05138595      2.70491107      2.57844192
 H     26.22620301      1.25080461      3.59001499
 H     26.23106287      1.88838597      5.63748634
 H     26.54325717      3.56518571      5.12842444
 H     28.52754069      2.21203940      3.85231377
 H     28.03115342      0.87196346      4.91347485
 H     27.99153409      1.33812749      6.87004691
 H     28.99803889      2.77669768      6.57724915
 H     30.34869749      0.62309225      5.41263798
 H     29.14210891     -0.31531117      6.32467398
 H     29.47995104      0.46996614      8.43019022
 H     31.02733488      1.17519380      7.90433486
 H     32.16825910     -0.30963284      6.92874465
 H     31.13210692     -1.58334261      7.61599914
 H     31.11809464     -1.10213675      9.79515896
 H     32.51823784     -0.02789529      9.56305773
 H     34.04779333     -0.89789277      8.55986430
 H     33.37054259     -2.51397104      8.87273669
 H     32.88662140     -2.85372913     10.79267222
 H     33.78302414     -1.48877141     11.33999658
 H     34.88848830     -0.57130717     11.28575486
 H     35.85872891     -1.96530174     10.75313963
 H     35.03493696     -3.34730336     12.61185961
 H     34.41887666     -1.85231308     13.35599697
 H     36.93858847     -1.09756610     13.02491444
 H     37.24617696     -2.81890555     12.69227880
 H     36.28425073     -3.59490784     14.74805303
 H     36.33386689     -1.91883936     15.34521245
 H     38.63761531     -1.56266793     14.90300279
 H     38.82650140     -3.32044145     14.69607055
 H     37.94332852     -4.15003089     16.56826445
 H     38.01890495     -2.53604603     17.31499581
 H     40.25727752     -2.06976514     16.90083709
 H     40.51710457     -3.78933769     16.52159201
 H     39.54506805     -4.53961662     18.61871943
 H     39.66288522     -2.86226819     19.20257560
 H     41.88467921     -2.45627264     18.79122369
 H     41.89626112     -4.43935771     19.31219450
 H     41.31425722     -5.16075660     20.33873835
 H     41.28336590     -3.59674203     21.18795613
 H     43.40821731     -3.93488946     21.76015042
 H     43.67642961     -5.11317919     20.12501423
 H     42.83212745     -5.88651916     22.17895001
 H     44.15635971     -4.39398610     22.70546963
 H     45.40983795     -4.07716793     22.35339540
 H     45.49252033     -5.80439430     21.93135349
 H     44.50106976     -6.23572403     24.27241312
 H     44.91341454     -4.57542603     24.63023680
 H     45.99702452     -7.04955942     25.17990808
 H     44.47736678     -7.45438136     24.14383776
 H     44.48059323     -6.86926350     26.18317125
 H     46.25394281     -7.01209599     26.23882024
 H     46.67541867     -9.01578799     25.43148175
 H     45.32071091     -9.13323048     26.93971564
 H     44.82665337     -8.82987520     27.92992312
 H     46.60451237     -8.75655231     27.97583396
 H     47.20046981    -10.76391543     27.18151597
 H     45.53933516    -11.35107536     27.43477779
 H     45.17469527    -10.79542439     29.59091833
 H     45.80962609    -10.22171358     29.81545942
 H     45.50764992    -10.13207068     31.04816516
 H     47.22931121     -9.54673684     30.31059243
 H     46.97936776    -11.16418229     31.79864873
 H     45.26630977    -10.72147769     31.99284351
 H     45.65615270     -8.41626883     32.41737326
 H     47.37416483     -8.79973897     32.68128927
 H     46.75843608    -10.52761062     34.35350070
 H     45.12281621     -9.82547168     34.35740067
 H     46.41807828     -7.60452691     34.89311834
 H     47.81601595     -8.66330766     35.19811055
 H     48.06483419    -10.04736220     36.06416895
 H     46.65134997     -9.65855128     37.07370107
 H     47.73316753     -7.33880006     37.36245012
 H     48.17510401     -7.27093574     36.80927236
 H     48.43089586     -6.88637579     35.59603430
 H     49.91886882     -7.81053633     35.91246822
 H     50.59643320     -7.03693135     37.88603157
 H     49.49744647     -5.64713537     37.71584938
 H     49.81586648     -4.73355751     35.84229631
 H     51.37109867     -5.58233472     35.67171860
 H     52.61427950     -6.04332636     36.35581023
 H     52.41154455     -4.66783039     37.46719497
 H     52.08439243     -2.96492857     35.99916378
 H     52.69066590     -3.99997246     34.68410360
 H     54.75602484     -4.39953812     36.12809423
 H     54.18521774     -3.04178480     37.12757002
 H     53.71442481     -1.39760624     36.41551000
 H     54.62072945     -1.75132400     34.92495229
 H     56.63682288     -2.38891981     35.93845223
 H     56.05777301     -1.67463155     37.46251266
 H     55.57940653      0.47171760     36.35213370
 H     56.53672866     -0.11379819     34.97047807
 H     58.46404443     -0.72283047     35.88564015
 H     58.04658277      0.17877004     37.36249794
 H     57.62580971      2.19475446     35.85786690
 H     58.45005144      1.27354859     34.57713587
 H     60.42947192      0.93204183     36.00131265
 H     59.77704977      2.18617221     37.08287124
 H     59.50080684      3.85788096     35.44729130
 H     59.75839080      3.25359570     34.45758743
 H     58.92279663      2.91707578     33.75652104
 H     60.61632366      2.55477633     33.34545904
 H     60.68807359      5.24449437     33.78666801
 H     58.91457785      5.09848031     33.74593207
 H     58.45354670      4.12209201     31.84786560
 H     60.09364062      4.48197581     31.25723691
 H     60.14753781      6.75259336     31.69262297
 H     58.38071968      6.72885267     31.90723129
 H     57.81191700      6.33496742     29.80885300
 H     59.78495955      6.06609336     29.35688927
 H     56.87883871      6.96867393     30.31801836
 H     57.03077001      5.29383083     29.73485102
 H     57.96824599      6.28767042     27.54095323
 H     57.21601054      7.50554376     27.82889104
 H     57.36926229      4.37206822     27.74269121
 H     58.66253582      5.43004754     27.12918489
 H     57.44487016      6.49181678     25.44594091
 H     56.19194977      5.23723056     25.60237164
 H     57.81650815      3.43129145     25.32186795
 H     58.97672108      4.65394700     24.74977878
 H     57.49422581      5.52248386     23.05760084
 H     56.48099921      4.07617948     23.28085444
 H     57.90888236      2.39312262     23.04865515
 H     59.09553145      3.50180617     22.31999103
 H     56.58884203      3.68754276     20.95102805
 H     56.05245441      3.20233589     21.67918261
 H     55.37630849      2.98256493     22.77766362
 H     55.91028344      1.31433012     22.46123031
 H     55.05329755      1.59957886     20.08796999
 H     54.22882787      3.06467723     20.67278037
 H     53.07996035      2.73811993     22.31460223
 H     53.10108407      0.98379914     22.01430397
 H     52.47609814      0.87545751     19.84953730
 H     51.91353963      2.56189954     19.93733187
 H     50.86554166      3.27047511     21.20132446
 H     50.55802421      2.11939804     21.92985023
 H     50.98610238      1.85584715     22.95670778
 H     49.84477692      0.76095998     22.14008978
 H     48.26320563      2.38763019     21.45482321
 H     48.42809853      3.01043419     22.50228408
 H     48.26540897      0.47456061     20.86348284
 H     47.96311878      2.15180532     20.34992908
 H     45.98354850      2.06220091     22.02278404
 H     46.25717937      0.30367612     22.05414281
 H     46.07776267      0.10442890     19.63420241
 H     45.39040482      1.74618474     19.61313972
 H     43.78774513      1.86132297     20.96420969
 H     43.68882082      0.08530032     21.02920372
 H     43.58894539      0.29384629     18.41914747
 H     43.30970581      2.02759439     18.70968055
 H     41.33032970      1.19218841     20.18477625
 H     41.59977165     -0.38943673     19.41397819
 H     41.53931679     -0.03322581     17.27255631
 H     40.77930726      1.55237342     17.54919194
 H     39.17806898      1.49625296     18.76980709
 H     39.03224268     -0.26339602     18.54478085
 H     39.08849134      0.29889623     16.00998668
 H     38.83152217      1.98726520     16.51162773
 H     36.84131505      1.44623313     17.79676988
 H     36.82026803     -0.13635665     16.98237854
 H     36.88915392      0.61460315     14.78134352
 H     36.46857922      2.24641299     15.35456270
 H     34.63344872      1.86942158     16.58881280
 H     34.47636374      0.25719801     15.85102817
 H     34.55339116      0.60002717     13.69229669
 H     34.25044747      2.33478012     13.95137967
 H     32.28216392      1.92831968     15.31630564
 H     32.30193655      0.24592411     14.73542628
 H     32.38482891      0.12285640     12.69539933
 H     31.87835906      1.82270344     12.54615119
 H     30.37152651      2.45846430     13.51729531
 H     29.79123124      0.79441801     13.76724333
 H     29.94171174      0.20619043     11.43280934
 H     30.10495801      1.93968858     11.06321293
 H     28.28764616      2.78593068     12.13429355
 H     27.61855375      1.14202438     12.26903064
 H     27.75300128      0.49087668     10.06545541
 H     28.00851605      2.19006496      9.60097930
 H     26.56981666      3.42564532     10.40705233
 H     25.52322593      2.02647606     10.74652234
 H     25.34300000      0.85757689      8.99685954
 H     25.95538907      2.20674612      8.01045766
 H     24.31382115      3.76327565      8.95519220
 H     23.44953061      2.34920237      9.60454980
 H     23.32900335      1.27290039      7.41822288
 H     23.79643963      2.83169937      6.69717107
 H     21.95731887      3.99313982      7.85440174
 H     21.27071347      2.39098694      8.21488176
 H     21.46517433      2.08752589      5.60665648
 H     21.75381126      3.84359399      5.57230181
 H     19.91103482      4.58520063      6.70488679
 H     19.15817970      2.98635690      6.49234369
 H     19.22328698      2.42646083      4.47534254
 H     19.56609807      4.10677156      3.99857942
 H     17.91654781      5.22794680      5.06381532
 H     17.05599492      3.69192074      5.32523325
 H     17.28326899      3.32760501      2.79452408
 H     17.75181097      5.04257020      2.70717721
 H     15.62196384      5.63857352      3.90279037
 H     15.07899127      3.97685237      3.56793177
 H     15.38090648      3.88339221      1.30855935
 H     15.52824958      5.65684360      1.27078577
 H     13.24584280      5.60143797      2.53459739
 H     13.18838162      3.88264972      2.07554203
 H     13.46897256      4.02294564     -0.17509644
 H     13.10987437      5.76459008     -0.09770267
 H     10.97742796      5.18765910      1.13513584
 H     11.25877330      3.50439171      0.62944585
 H     11.43918196      4.05658540     -1.71237978
 H     10.74662961      5.65175875     -1.33282753
 H      8.81860848      4.34556537     -0.23444467
 H      9.48101700      2.91224958     -1.05608174
 H      9.38674025      4.03145926     -3.24454160
 H      8.35392479      5.26750066     -2.48707177
 H      6.75100549      4.38267922     -1.49960354
 H      7.01856435      2.86033403     -2.38229490
 H      7.02258866      3.93271531     -4.55074010
 H      6.33837289      5.37989835     -3.77242352
 H      4.53741338      4.47217687     -2.70630871
 H      4.71184126      3.14956589     -3.11214463
 H      5.11638973      2.28734842     -2.48247013
 H      4.66482432      2.00735116     -4.18128057
 H      3.01126585      2.58614450     -4.86201309
 H      2.34716188      2.72287617     -3.21624973
 H      3.06103373      0.44829098     -2.64179286
 H      3.33420707      0.16990468     -4.37849780
 H      1.36824889      0.76310331     -5.28104943
 H      0.61627223      0.69950674     -3.66898452
 H      1.31786870     -1.46038070     -3.08875758
 H      1.74009603     -1.74548978     -4.79424976
 H     -0.37816725     -1.12031365     -5.67508215
 H     -1.04433915     -1.22177626     -4.02760317
 H     -0.03280345     -3.61969159     -4.04035260
 H      0.16361859     -3.38397362     -5.79367005
 H     -1.71591677     -2.81418381     -6.60814270
 H     -2.51419777     -2.93779919     -5.37531187
 H     -2.93705380     -2.17728837     -4.63842783
 H     -3.16197516     -3.90664549     -4.28205584
 H     -3.95385471     -4.88092775     -5.96384290
 H     -4.42809170     -3.31784391     -6.67104501
 H     -5.60389270     -2.71998583     -4.55270610
 H     -5.44986262     -4.43056953     -4.08532533
 H     -6.62928031     -4.84774124     -6.39169778
 H     -6.97195159     -3.10120651     -6.37026194
 H     -8.04777508     -3.14902517     -4.21911801
 H     -8.13096441     -4.92153008     -4.35902003
 H     -9.14636163     -5.12277392     -6.39962273
 H     -9.60397143     -3.40440323     -6.32176316
 H    -10.61649390     -3.28071799     -4.31178790
 H    -10.73162867     -5.05647445     -4.27056138
 H    -11.83829227     -4.96212106     -6.54083697
 H    -12.02593905     -3.21341544     -6.26682240
 H    -13.21392578     -4.21394567     -4.05387414
 H    -13.12683887     -5.76016679     -4.93130380
 H    -13.86251750     -5.81314684     -6.73724813
 H    -14.78607229     -4.32111730     -6.43864962
 H    -15.81480766     -4.91803457     -4.45639724
 H    -15.37062496     -6.61394937     -4.76436048
 H    -16.53553732     -6.25381152     -7.05609980
 H    -17.18291714     -4.75580104     -6.34537437
 H    -18.14371962     -5.90434212     -4.43679853
 H    -17.89662518     -7.43572884     -5.30976229
 H    -19.39236862     -5.64215533     -6.94097005
 H    -19.47316208     -4.74901164     -5.40342870
 H    -20.45258293     -6.65142918     -4.22387267
 H    -20.76710241     -7.38996581     -5.81255383
 H    -21.97893050     -5.21500134     -6.41215784
 H    -21.91389623     -4.83307317     -4.67487028
 H    -22.98991998     -6.94950478     -4.07159851
 H    -23.43207374     -7.13442488     -5.78582465
 H    -24.50027973     -4.90709776     -5.80404990
 H    -24.41787349     -4.93716987     -4.02625026
 H    -25.35828463     -6.81979633     -3.43458265
 H    -26.07117817     -6.98044816     -5.05761699
 H    -27.01763686     -4.66881263     -4.83748787
 H    -26.62577430     -4.77160240     -3.10424101
 H    -27.97869280     -6.93342583     -3.05896945
 H    -28.58895316     -6.45689113     -4.66170575
 H    -29.30610292     -4.25545998     -3.59838810
 H    -29.01843063     -5.04414457     -2.02883787
 H    -30.32293548     -6.91681117     -2.28472943
 H    -31.11841764     -6.14796181     -3.67912731
 H    -31.54826168     -4.17938450     -2.03929906
 H    -31.06605996     -5.31469315     -0.75601326
 H    -32.88457746     -6.87228683     -1.67310619
 H    -33.46366296     -5.46449943     -2.59563602
 H    -33.74435361     -3.88392794     -1.09957580
 H    -33.67709811     -5.09730087      0.20098926
 H    -35.48921696     -6.37046223     -1.05552232
 H    -35.70522388     -4.89313895     -2.02460621
 H    -36.04438797     -3.47988050     -0.09302435
 H    -36.26526707     -4.95576787      0.87714859
 H    -37.71469693     -6.18207985     -0.02916044
 H    -38.27824391     -4.81593374     -1.02129263
 H    -38.52191761     -3.42074111      1.02842760
 H    -38.35813142     -4.92331311      1.96849044
 H    -40.10349934     -6.09120646      0.84069752
 H    -40.64043399     -4.53730536      0.15852510
 H    -40.82924689     -3.32106611      2.11286089
 H    -40.75446172     -4.83996547      3.03785742
 H    -41.76704289     -6.31573626      2.68236868
 H    -42.92726003     -5.32995097      1.76020263
 H    -43.37133032     -3.64479925      3.16331163
 H    -42.65345362     -4.57538401      4.50007329
 H    -43.96835026     -6.53707799      4.12796468
 H    -45.03142445     -5.56758315      3.08000491
 H    -45.23143563     -3.96830452      5.09228663
 H    -44.49086069     -5.27405855      6.04874983
 H    -45.94405392     -6.98933146      5.52395952
 H    -47.09127505     -5.78980682      4.88108240
 H    -47.28310249     -4.33821102      6.57815688
 H    -46.53688707     -5.52771184      7.67201107
 H    -48.32814698     -7.16645003      6.83287911
 H    -49.13782199     -5.74224972      6.13692902
 H    -49.17233729     -4.56737877      8.27238084
 H    -48.76487198     -6.11259354      9.05631324
 H    -50.27998098     -7.52740972      8.31892915
 H    -51.27923149     -6.16721797      7.75355892
 H    -51.14126391     -5.14015534     10.02973438
 H    -50.51706850     -6.70583005     10.60184402
 H    -52.37732645     -7.96384622      9.71714996
 H    -53.24666840     -6.42479664      9.50777555
 H    -52.82372890     -5.90388751     11.92883196
 H    -52.35161715     -7.60970126     12.11744959
 H    -53.52735730     -8.98482549     11.48592698
 H    -54.89434428     -7.84526015     11.45423968
 H    -54.51474524     -7.10467538     13.73442334
 H    -53.43973179     -8.50732179     13.94701642
 H    -54.36706709    -10.26446162     13.38673646
 H    -55.96033830     -9.47386217     13.45533699
 H    -56.38856183     -8.45057390     15.06061666
 H    -55.09163758     -9.26757767     15.96546968
 H    -55.23452555    -11.33675234     15.72977120
 H    -56.90473626    -11.17543363     15.13593693
 H    -58.03059413    -10.00000360     16.44090648
 H    -56.80801478    -10.20812133     17.71772025
 H    -56.67801281    -12.54743752     17.63796870
 H    -58.18373482    -12.56550451     16.68889468
 H    -59.18956880    -11.15964012     18.59295216
 H    -57.74248430    -11.60659592     19.52806906
 H    -57.88943423    -13.91536499     19.30504336
 H    -59.56730729    -13.72663854     18.74166871
 H    -60.10905422    -12.38696387     20.76791894
 H    -58.56965087    -12.95809740     21.45516743
 H    -58.96909872    -15.26324921     21.15474346
 H    -60.68475087    -14.88950969     20.86298477
 H    -61.35239148    -13.68133282     22.51918458
 H    -59.92101555    -14.16219857     23.46162701
 H    -60.50788562    -16.57311324     22.97982954
 H    -62.09162932    -15.97429382     22.43079597
 H    -62.30593760    -14.83136813     24.69879018
 H    -60.92538456    -15.83093683     25.21182271
 H    -61.61834220    -17.90572400     24.69821613
 H    -63.28375615    -17.30018614     24.53092310
 H    -63.56482344    -16.21433827     26.49963208
 H    -62.12577477    -17.03863577     27.14611429
 H    -62.21667158    -19.07376179     26.87269711
 H    -63.96725205    -18.97952980     26.56471166
 H    -64.63233049    -17.77779967     28.40051405
 H    -63.05829539    -18.10765331     29.16332251
 H    -62.78943839    -20.26717643     29.05189404
 H    -64.52037391    -20.47118137     28.69063116
 H    -65.14904138    -19.13423599     30.66731221
 H    -63.46668457    -19.30361562     31.22341718
 H    -63.49378743    -21.71985949     31.05895506
 H    -65.26617351    -21.63213502     30.92032358
 H    -66.07324185    -20.50731390     32.47060962
 H    -64.55916421    -20.65331620     33.39501152
 H    -64.23745122    -22.90750792     33.33296366
 H    -65.92345725    -23.11852948     32.80275595
 H    -66.84196488    -21.82789872     34.62005737
 H    -65.26013529    -21.94174437     35.42821639
 H    -64.89459421    -24.17122938     35.40848874
 H    -66.61046499    -24.43872200     35.01797393
 H    -68.01639866    -23.70404361     35.84980187
 H    -67.01336983    -23.34499151     37.27573364
 H    -66.18772940    -25.65893924     37.37276029
 H    -67.48901905    -26.09479201     36.23920646
 H    -69.09758634    -25.01124781     37.91301476
 H    -67.73685117    -25.03195428     39.06028879
 H    -67.40758994    -27.44740248     38.74775638
 H    -68.99906304    -27.48895297     37.95166997
 H    -70.13900875    -26.42644186     39.79470713
 H    -68.70037510    -26.74229494     40.79412532
 H    -68.87003141    -29.17647126     40.14048465
 H    -70.49839955    -28.79716333     39.52990348
 H    -71.48265257    -27.82786100     41.28211970
 H    -70.19685631    -28.45029909     42.34398855
 H    -70.75975657    -30.75754889     41.32865118
 H    -72.22413881    -29.97842323     40.68303943
 H    -73.15638670    -29.07452281     42.49900450
 H    -72.11272753    -30.08142020     43.53108969
 H    -71.93224428    -31.91757042     43.27331524
 H    -73.43743373    -31.96209401     42.32426887
 H    -74.90375208    -30.89922762     43.59793799
 H    -73.80883571    -31.05929522     44.99214141
 H    -73.39158981    -33.30103680     44.94499908
 H    -74.77144209    -33.51881532     43.84189126
 H    -76.13068090    -32.24026802     45.63136450
 H    -74.73266233    -32.50281012     46.70135628
 H    -74.86365341    -34.95554882     46.27295705
 H    -76.47281467    -34.66089374     45.57149779
 H    -77.01793598    -33.50776202     47.81503687
 H    -75.52192411    -34.25653734     48.42294365
 H    -76.65614468    -36.47030262     47.58701853
 H    -78.13287641    -35.49568801     47.44383843
 H    -78.85260650    -34.82055780     46.86579353
 H    -79.07095217    -34.80316127     48.63222756
 H    -79.16440635    -37.36337416     48.47825050
 H    -79.34028176    -37.13537597     46.72173368
 H    -81.14774704    -35.70464484     46.70575130
 H    -81.46276464    -36.11914331     48.40787397
 H    -81.53286801    -38.27411642     48.51970062
 H    -81.71181753    -38.37080704     46.75139786
 H    -83.64505440    -36.76011393     46.92243785
 H    -83.62199862    -37.06962833     48.67513176
 H    -83.68767900    -39.06642095     49.11743316
 H    -84.25037863    -39.43934886     47.47044787
 H    -86.07129884    -37.71232942     47.78844076
 H    -85.65958723    -37.74302150     49.51986163
 H    -85.77104758    -39.87254174     50.07530019
 H    -86.66277702    -40.21965747     48.57443513
 H    -88.06572585    -39.33729386     47.93049924
 H    -88.40698810    -38.66298684     49.54205649
 H    -88.28539342    -41.03041879     50.44858512
 H    -88.35961271    -41.57224383     48.75471860
 H    -90.06125436    -40.65924556     47.84557454
 H    -90.71789264    -40.25173784     49.44901780
 H    -90.72634257    -41.95995286     50.66802500
 H    -90.52105056    -43.00390593     49.24104082
 H    -91.96904914    -42.48565283     47.79271410
 H    -92.91023171    -41.60696658     49.02167811
 H    -93.14859753    -43.01534336     50.67959948
 H    -92.66679896    -44.35814370     49.61516345
 H    -93.81638513    -44.30272533     47.85266282
 H    -94.98987776    -43.21286176     48.62943764
 H    -95.58169175    -44.01314594     50.47917752
 H    -94.93887276    -45.60748685     50.01752023
 H    -95.72716989    -46.11027226     48.10201333
 H    -96.97522612    -44.85212124     48.26838129
 H    -97.45100039    -46.06141804     50.54838108
 H    -96.42338244    -47.36551335     49.90681780
 H    -97.49763603    -47.76681776     47.91588704
 H    -98.89932617    -46.84409778     48.50928339
 H    -98.84760309    -48.38379251     50.55674501
 H    -97.73378742    -49.40618954     49.61739117
 H    -99.76635011    -49.29289222     47.89022188
 H   -100.67630653    -48.61550738     49.26186169
 H   -100.25215390    -50.38265808     50.76990705
 H    -99.69946022    -51.37075659     49.39642327
 H   -101.89726267    -50.86776833     48.25141222
 H   -102.46702081    -50.26827011     49.82756075
 H   -101.96143495    -52.19137559     51.07751364
 H   -101.76964114    -53.08975336     49.55291560
 H   -103.94251780    -52.43514558     48.71138198
 H   -104.35241612    -51.89386304     50.35675831
 H   -103.73674321    -54.12296149     51.26543203
 H   -103.74673081    -54.71871204     49.58815799
 H   -106.18620631    -53.69421662     49.62482369
 H   -105.95327482    -53.59946709     51.38693382
 H   -105.41149864    -55.89367270     51.68564760
 H   -106.03117508    -56.20882281     50.04706645
 H   -108.14950713    -54.95636453     51.15679088
 H   -107.26941112    -55.21204683     52.68267562
 H   -107.43830210    -57.74388747     51.72428794
 H   -108.60075904    -57.03068793     50.58047547
 H   -110.08835211    -56.03135288     51.87365128
 H   -109.48149511    -56.94230107     53.27727681
 H   -109.29567905    -58.87298038     53.08849706
 H   -110.37156419    -58.86954453     51.67049635
 H   -112.13113225    -57.64984961     52.69477190
 H   -111.36788450    -57.95633897     54.27331040
 H   -111.42063055    -60.44002182     53.62981609
 H   -112.52124040    -59.95713413     52.31690173
 H   -114.08712640    -58.84293575     53.72559681
 H   -113.31795874    -59.62838838     55.12549393
 H   -113.65868452    -61.85057163     53.97172316
 H   -114.75088337    -60.99296863     52.85822174
 H   -116.18533072    -59.99168557     54.26647012
 H   -115.61958496    -61.04804049     55.58264362
 H   -116.00021335    -63.07430180     54.28000598
 H   -116.94941503    -62.08754563     53.14264276
 H   -118.31882157    -61.32694542     55.16010918
 H   -117.53911122    -62.65611696     56.05096352
 H   -118.38256940    -64.20603990     54.20499729
 H   -119.41508181    -62.85043495     53.69068224
 H   -120.42396846    -62.55059452     55.85225305
 H   -119.76733294    -64.13727934     56.32079094
 H   -119.84671445    -65.65682170     55.46222309
 H   -121.23888068    -65.06962364     54.52129892
 H   -122.47856239    -64.34292006     56.44748848
 H   -121.35270000    -65.27827452     57.46031254
 H   -121.04706665    -67.14646522     56.96540621
 H   -122.52410213    -67.15769246     55.97217572
 H   -123.20307120    -66.19965397     58.54226222
 H   -121.56594101    -66.79324870     58.91065971
 H   -121.04669982    -68.55140134     58.49265007
 H   -122.74879138    -69.05544838     58.36193058
 H   -123.67550228    -68.31762190     60.22815106
 H   -122.06030408    -68.08147115     60.93782302
 H   -121.34607732    -70.34336677     60.44175977
 H   -123.04966905    -70.74832298     60.12230343
 H   -123.53895482    -69.80402317     62.45781348
 H   -121.77929236    -69.85641418     62.72070105
 H   -121.92014765    -72.33562338     62.08153950
 H   -123.68227398    -72.16445365     62.26560033
 H   -124.07300647    -71.34119643     64.19057964
 H   -122.42125072    -71.74587440     64.71613205
 H   -122.40277664    -73.98698284     64.11030165
 H   -124.17369334    -73.92824545     63.94097761
 H   -125.16405946    -73.17362096     65.48279073
 H   -123.75048767    -73.39981974     66.54057878
 H   -123.02699712    -75.35915673     66.35350301
 H   -124.55143986    -75.87086200     65.59028697
 H   -125.93288255    -74.96097275     67.34988584
 H   -124.46667256    -74.81405736     68.34834006
 H   -123.65864927    -76.94694394     68.21405577
 H   -125.23435224    -77.48655023     67.58616099
 H   -126.66450390    -76.67990950     69.11904307
 H   -125.30448292    -76.40910595     70.23496198
 H   -124.31794580    -78.45654170     70.22381942
 H   -125.78097167    -79.14237853     69.47719380
 H   -127.14293446    -78.12860850     71.33457122
 H   -125.60409237    -77.85578872     72.18651079
 H   -124.65943004    -79.87455239     72.19203834
 H   -126.22380620    -80.60428489     71.75789048
 H   -127.26586849    -79.40658906     73.71111751
 H   -125.60888103    -79.08015399     74.27334466
 H   -124.49393535    -80.82102810     74.37356862
 H   -125.97736840    -81.80273039     74.31069061
 H   -127.24410879    -80.90907103     75.91527637
 H   -125.81558839    -80.07627893     76.57410371
 H   -124.40881057    -81.92811950     76.75093171
 H   -125.82419177    -82.98628648     76.53822213
 H   -127.10422362    -81.97850108     78.29259527
 H   -125.61371670    -81.18743106     78.85904386
 H   -124.32467520    -83.26806602     78.83271154
 H   -125.70981335    -84.08685882     78.92127462
 H   -123.88794197    -81.69308830     79.93713588
 H   -123.24511095    -82.87078763     78.76749524
 H   -123.62189817    -84.61219679     80.64392887
 H   -123.84305610    -83.21464255     81.72383533
 H   -121.57054347    -82.38795087     80.94063156
 H   -121.33710142    -84.01169833     80.24723946
 H   -121.40732012    -84.65051851     79.30513102
 H   -121.13326539    -85.46183707     80.86555496
 H   -119.17976508    -83.82828530     81.18295183
 H   -119.37332332    -83.44272748     79.45606242
 H   -119.16423530    -85.83714305     78.85894460
 H   -118.56691164    -86.11633528     80.51228147
 H   -116.82522518    -84.40688567     80.26767046
 H   -117.14289934    -84.43317471     78.51648267
 H   -116.90718413    -86.70363721     78.13938221
 H   -116.13108030    -86.86297352     79.73328981
 H   -114.51103350    -85.29575702     79.61759138
 H   -114.73325904    -85.21020779     77.85362885
 H   -114.36817698    -87.83825197     78.09493578
 H   -113.83308315    -87.44701490     79.74686641
 H   -112.17839032    -85.88138502     79.14524091
 H   -112.28009507    -86.47309159     77.46958995
 H   -111.82761190    -88.77275148     78.84625194
 H   -111.45339545    -87.66717610     80.19010155
 H   -109.84258047    -86.36850749     79.18327534
 H   -109.69867539    -87.58515978     77.89202974
 H   -109.33304310    -89.31407719     79.72513015
 H   -109.10148112    -87.93729795     80.82926992
 H   -107.33932871    -87.01463468     79.33872596
 H   -107.32442244    -88.59285216     78.51575934
 H   -106.90415044    -89.28543326     81.12148344
 H   -106.64425742    -87.53768492     81.33618793
 H   -105.00876690    -87.18570091     79.76332218
 H   -104.74236338    -88.94108949     79.67564885
 H   -105.17802014    -86.09513704     81.00500550
 H   -105.09976491    -86.26503373     79.23489875
 H   -103.05063015    -87.07932790     78.89462768
 H   -102.59634636    -86.61907959     80.55295949
 H   -103.43148475    -84.27509888     79.99331963
 H   -103.44073935    -84.80240827     78.29328262
 H   -101.64580568    -85.60328006     77.71630637
 H   -100.83832829    -84.87451088     79.12525720
 H   -101.58272976    -82.68811524     78.85025309
 H   -102.08598638    -83.09755718     77.19273786
 H    -99.68704805    -83.94630964     76.85409468
 H    -99.29957465    -83.10763937     78.37552927
 H    -99.96742964    -81.07317091     78.16383620
 H   -100.08814543    -81.28360071     76.40048324
 H    -98.25300986    -82.09284989     75.69476993
 H    -97.45064925    -81.64507931     77.21923234
 H    -97.92546659    -79.53412660     77.52654117
 H    -98.43672232    -79.39566419     75.82721413
 H    -96.65135596    -80.25031016     74.73911428
 H    -95.68439416    -80.09607763     76.22554082
 H    -96.47885168    -77.62450106     76.20076724
 H    -97.01940840    -77.95072201     74.53654220
 H    -94.94897488    -78.74794350     73.72811051
 H    -94.16713343    -78.07468364     75.17852830
 H    -94.88373046    -75.94573374     75.16641306
 H    -95.40495810    -76.13834616     73.47541074
 H    -93.32071034    -76.96266143     72.67638278
 H    -92.57118685    -76.41108391     74.19369733
 H    -93.62629249    -74.11531815     73.60957607
 H    -93.91596730    -74.80394838     71.99398220
 H    -91.48904555    -75.36317663     71.80611687
 H    -91.22511408    -74.30371315     73.21187075
 H    -92.43810414    -72.48722190     71.87167962
 H    -92.24091514    -73.55617171     70.46216571
 H    -89.84589275    -73.74838941     70.74211453
 H    -89.92462119    -72.37107845     71.86687362
 H    -91.13008881    -71.16427582     69.90016581
 H    -90.56592760    -72.52196003     68.89683018
 H    -88.34600934    -72.50762418     69.30654985
 H    -88.49519337    -70.87673842     70.00384635
 H    -89.65006328    -70.10865914     67.92327231
 H    -89.09536800    -71.61946632     67.16298193
 H    -86.79500596    -71.32266494     67.68639936
 H    -87.14840690    -69.62263905     68.07791745
 H    -88.21564845    -69.19004964     65.94941162
 H    -87.51821758    -70.71602992     65.35507078
 H    -85.25278709    -69.77565728     66.12234435
 H    -86.08613392    -68.20988308     66.27117606
 H    -86.85682329    -68.36831573     63.91641200
 H    -85.68239913    -69.68918429     63.70593445
 H    -83.92374282    -68.04213747     64.59001170
 H    -85.15213333    -66.77796322     64.34265185
 H    -85.64348053    -67.18740108     62.11647025
 H    -84.17021173    -68.17944366     61.99986319
 H    -82.69981926    -66.51536074     62.86157639
 H    -83.98907422    -65.31302780     62.61564181
 H    -84.09779647    -66.12310713     60.19706233
 H    -82.55833408    -66.95529020     60.52232155
 H    -81.12838658    -65.76513233     61.29726393
 H    -82.01473093    -64.31233163     60.77569852
 H    -82.39112911    -64.79632282     58.58638756
 H    -81.17477334    -66.09259869     58.67811630
 H    -79.56217706    -64.35288029     59.60202363
 H    -80.74255939    -63.13171035     59.06938097
 H    -81.13784691    -63.52259925     56.98152282
 H    -79.68467516    -64.54615397     56.88721325
 H    -78.35843039    -62.63600471     57.86886913
 H    -79.77159426    -61.60861663     57.52870995
 H    -80.43834253    -61.71513059     55.63620118
 H    -78.90156207    -62.43915797     55.10482860
 H    -77.45724197    -60.86129599     56.03506704
 H    -78.84456922    -59.76963442     56.26280542
 H    -79.63006596    -59.83519429     54.04531141
 H    -78.07935026    -60.55884073     53.55553257
 H    -76.82414382    -58.71887803     54.62383876
 H    -78.36258830    -57.82923337     54.72377688
 H    -78.74838445    -58.11340477     52.30226686
 H    -77.04565354    -58.61390417     52.16634598
 H    -75.82812005    -57.13317900     53.07187168
 H    -77.17763521    -55.97331338     53.02959587
 H    -78.13440191    -55.73919942     51.36329657
 H    -76.79427270    -56.47720284     50.45353215
 H    -74.98301357    -55.54158072     51.02724051
 H    -75.88942983    -54.19200482     51.75203090
 H    -76.90958060    -54.34222818     49.20948989
 H    -75.52026847    -55.42167562     48.93954232
 H    -73.76128748    -54.29929350     49.54406391
 H    -74.70149845    -52.78842886     49.50459172
 H    -75.71302729    -52.60616752     47.69053214
 H    -74.67330443    -53.85287630     46.96049087
 H    -72.60984397    -52.88897683     47.57047168
 H    -73.47013462    -51.37700759     47.94745400
 H    -74.39205255    -51.61848395     45.51670405
 H    -73.13426060    -52.86075892     45.30939033
 H    -71.31488794    -51.49142367     45.97359922
 H    -72.37424890    -50.07166337     45.79952530
 H    -72.77539681    -51.02875938     43.39703438
 H    -71.38608060    -52.08773599     43.73855405
 H    -69.78669853    -50.64950624     44.33089698
 H    -70.74292546    -49.31141601     43.65015382
 H    -71.03296703    -50.37517120     41.50643605
 H    -69.75013747    -51.52158926     41.96287950
 H    -68.11416029    -49.94574550     42.53255690
 H    -69.08112824    -48.69465245     41.71524067
 H    -69.36610716    -49.71504846     39.66790194
 H    -68.07111805    -50.86293609     40.08458392
 H    -66.43343429    -49.29749352     40.66255730
 H    -67.41313674    -48.03185278     39.88370990
 H    -67.87064223    -48.73087836     37.89544250
 H    -66.59293664    -49.96357091     38.02273816
 H    -64.86232358    -48.48938333     38.67156591
 H    -65.88888464    -47.12537880     38.16765056
 H    -66.46940285    -47.65800044     36.08649332
 H    -65.17841803    -48.88261248     36.04233231
 H    -63.55865129    -47.07396270     36.76351627
 H    -64.84432235    -45.90732166     36.37075009
 H    -64.95701390    -46.93834738     34.06134317
 H    -63.12174812    -46.30645017     34.55269630
 H    -62.29168672    -45.69581684     35.04080009
 H    -63.62363676    -44.80484312     34.26598297
 H    -63.11381881    -46.27780010     32.19938385
 H    -61.61039296    -46.72049294     33.04318502
 H    -60.60102693    -44.92087925     33.58266314
 H    -61.60965992    -43.99604723     32.44441365
 H    -60.86745554    -45.75013545     30.69509730
 H    -59.64775717    -46.24528207     31.89319261
 H    -58.67248000    -44.14750119     32.23670515
 H    -59.48941930    -43.56230217     30.76754928
 H    -58.56236475    -45.42323797     29.43965734
 H    -57.44589514    -45.73244209     30.79101039
 H    -56.59004385    -43.51543669     30.90536507
 H    -57.31622900    -43.20006414     29.31116873
 H    -56.35676723    -45.02149613     28.18123567
 H    -55.22319756    -45.22218504     29.53881087
 H    -54.64865813    -42.73906591     29.18903794
 H    -55.51874613    -42.87824152     27.64247928
 H    -54.24537061    -44.73777248     26.84491794
 H    -53.05687842    -44.41364671     28.12971188
 H    -52.93455942    -42.02685524     27.26237235
 H    -53.79963010    -42.61742728     25.82322537
 H    -52.47242440    -44.34618782     25.18980730
 H    -51.18350623    -43.72860146     26.25072373
 H    -51.19196399    -41.51765241     25.36188019
 H    -52.14823279    -42.12240353     23.98780132
 H    -50.21849028    -43.85708851     23.74760219
 H    -49.32195013    -42.81529031     24.87859244
 H    -49.45111747    -40.80797218     23.83390810
 H    -49.96181177    -41.63146394     22.34081757
 H    -48.13658791    -43.16740366     22.29500466
 H    -47.31697809    -42.15800979     23.51058289
 H    -47.29302953    -40.14917865     22.79143560
 H    -47.68294794    -40.71632710     21.14992016
 H    -45.89877447    -42.32695460     21.07869706
 H    -45.19433564    -41.53161928     22.50679871
 H    -45.14200108    -39.35223120     21.66757478
 H    -45.41627091    -40.00711392     20.03534583
 H    -43.80999810    -41.55371132     19.84618299
 H    -42.97386767    -40.84963939     21.25097312
 H    -43.16149854    -38.62234486     19.90625029
 H    -43.61019333    -39.65202044     18.52541436
 H    -41.63289814    -41.02943561     18.69675693
 H    -40.93742784    -39.79814097     19.77772928
 H    -41.41478208    -38.08594446     17.96340702
 H    -41.69180796    -39.46852496     16.87713151
 H    -39.56160095    -40.49086295     17.33208586
 H    -39.04534665    -38.95908793     18.07734652
 H    -39.53312012    -37.50694775     16.36475073
 H    -39.68083890    -38.89329979     15.25819127
 H    -37.44596363    -39.71892396     15.91663538
 H    -37.16727335    -38.13214126     16.67341742
 H    -37.57798981    -36.63216284     15.20005359
 H    -37.49708830    -37.85687570     13.91094537
 H    -35.54559500    -38.86945009     14.30026872
 H    -35.06617061    -37.52682138     15.36599246
 H    -35.58262161    -35.89441414     13.55915526
 H    -35.64207656    -37.27790018     12.44080909
 H    -33.52086786    -38.15796212     12.96338879
 H    -33.12519820    -36.62434401     13.77562501
 H    -33.27179714    -35.03995216     13.44837078
 H    -33.31837421    -35.42240722     11.71060631
 H    -31.55903699    -36.76811318     11.44144372
 H    -30.92961660    -36.25595742     13.02567638
 H    -30.79075000    -34.45001969     13.49530386
 H    -30.88086984    -33.96723740     11.78443672
 H    -29.54131579    -35.06492940     10.63565492
 H    -28.65952985    -35.56338977     12.09930020
 H    -28.29922086    -33.57449592     13.11311343
 H    -28.71342282    -32.73885338     11.59706431
 H    -27.59181759    -33.54338025     10.01501845
 H    -26.46962511    -34.30182947     11.16988013
 H    -26.06156404    -32.26141590     12.38609819
 H    -26.81021966    -31.37222352     11.03809287
 H    -25.54304759    -32.22104924      9.29747247
 H    -24.37617675    -32.84907374     10.48585975
 H    -23.97812288    -30.91330524     11.67724046
 H    -24.73685665    -29.97779550     10.36674008
 H    -23.36830296    -30.91590542      8.63399140
 H    -22.28670943    -31.54620966      9.89935248
 H    -21.74256294    -29.97918293     11.19777999
 H    -22.28741315    -28.77589584     10.00467266
 H    -21.23225774    -29.42325497      8.13752773
 H    -20.15204759    -30.44995509      9.11082088
 H    -19.49399316    -28.72436248     10.61882027
 H    -20.17922655    -27.53539428      9.48520813
 H    -19.04306424    -28.22162678      7.56631373
 H    -17.93702720    -29.16381615      8.59452964
 H    -17.47627633    -27.11612691      9.95249693
 H    -18.25418954    -26.18440267      8.65057234
 H    -16.97147883    -26.98225193      6.87054773
 H    -15.80274726    -27.63357570      8.04447726
 H    -15.72653296    -25.27101514      9.03714826
 H    -16.57057658    -24.74734279      7.56011601
 H    -14.78231040    -25.78924428      6.16870249
 H    -13.81169287    -25.90622700      7.65614436
 H    -13.86869085    -23.75934399      8.38983655
 H    -14.45170073    -23.24147790      6.78978004
 H    -12.91962510    -24.16580234      5.41586273
 H    -11.84702298    -24.43741230      6.81014368
 H    -11.86186541    -22.25276224      7.64794857
 H    -12.55772046    -21.70015572      6.10565208
 H    -11.26857950    -22.47149958      4.54434677
 H     -9.99803243    -22.80540814      5.74538044
 H     -9.58732352    -21.21613538      6.94128625
 H    -10.39468252    -20.11402085      5.80032977
 H     -9.44960914    -20.62487437      3.84597919
 H     -8.14890733    -21.48540554      4.70384140
 H     -7.52326466    -19.79735491      6.16989354
 H     -8.43511347    -18.63437923      5.17778166
 H     -7.38600629    -19.20545176      3.11915578
 H     -6.13447184    -20.06635856      4.04693145
 H     -5.87864397    -17.80994528      5.31549833
 H     -6.85863127    -17.11280306      4.00329245
 H     -5.55794496    -17.82862526      2.20526459
 H     -4.24084831    -18.19909882      3.34380419
 H     -4.02114646    -16.27824733      4.47836881
 H     -4.97406704    -15.43941783      3.23074142
 H     -4.32037685    -15.77028244      1.34699514
 H     -2.75734623    -16.35869201      1.96260550
 H     -2.25986385    -14.55926606      3.36227742
 H     -3.53242497    -13.61537534      2.55115156
 H     -2.61788891    -14.04010012      0.33681145
 H     -1.13003902    -14.61159818      1.12925031
 H     -0.48457490    -13.10069490      2.48969059
 H     -1.54570397    -11.91194952      1.69649693
 H     -1.20646835    -11.94998812     -0.38227483
 H      0.32596724    -12.82118882     -0.13546081
 H      0.66850632    -10.71908038      1.52220089
 H     -0.75707132    -10.05965960      0.68484834
 H     -0.35180203    -10.08513167     -1.41392745
 H      1.38459052    -10.30563484     -1.09052998
 H      1.75082889     -8.59054827      0.37642433
 H      0.19265831     -7.87360020     -0.09934513
 H      0.95557833     -7.99969485     -2.50569420
 H      2.58701487     -8.31625946     -1.86814552
 H      2.82259021     -6.52129168     -0.46164705
 H      1.43053079     -5.74304874     -1.25207425
 H      2.37711478     -5.99630244     -3.47575864
 H      3.93474440     -6.37629924     -2.70267453
 H      4.38397421     -4.82450117     -1.31452508
 H      3.16707034     -3.77104090     -2.07454686
 H      3.88951624     -3.95905569     -4.27946160
 H      5.41814784     -4.65427150     -3.68935391
 H      5.92935629     -2.91663865     -2.16762085
 H      4.69162804     -1.91251994     -2.96011126
 H      5.20153307     -1.97277496     -5.09590998
 H      6.81804726     -2.60144122     -4.69600090
 H      7.49834679     -1.06194881     -3.15586626
 H      6.18215581      0.01728189     -3.67660520
 H      7.17879677     -0.33902693     -6.05569234
 H      8.58310038     -1.04084696     -5.21685583
 H      9.17354314      0.53918524     -3.77252950
 H      8.17752283      1.71900003     -4.65810685
 H      9.44133540      1.00131073     -6.75878814
 H     10.58635224      0.19480128     -5.66026841
 H     10.85057039      2.44116418     -4.48641073
 H     10.02074684      3.15116688     -5.89195536
 H     11.33371752      2.34638845     -7.58668437
 H     12.58100381      1.91631708     -6.39186966
 H     12.91818277      3.73792624     -5.22811723
 H     12.09264361      4.69564967     -6.47742312
 H     14.40124086      2.53843849     -6.16492027
 H     13.79885095      3.11684300     -4.59302927
 H     14.07233477      5.22449612     -4.50621840
 H     15.20540102      5.15004609     -5.87694257
 H     16.65823308      3.78123456     -5.68555656
 H     16.36069955      3.66755168     -3.93432366
 H     16.15807061      4.94429166     -2.76522150
 H     16.98013163      6.08932429     -3.85213576
 H     18.77900081      5.24194114     -4.53685774
 H     18.71918090      4.02113333     -3.24290390
 H     18.40516379      5.96571255     -1.61134999
 H     18.91021046      7.01474632     -2.93004880
 H     19.80183492      4.41924076     -1.31918166
 H     18.37684343      5.22633489     -0.62185464
 H     19.64810350      7.30196645     -0.25044778
 H     21.12963832      6.36162662     -0.54891428
 H     21.23754193      4.67715062      0.60114333
 H     19.98449982      5.31153088      1.69463033
 H     21.02113263      7.41110296      2.07492257
 H     22.51905371      6.75097981      1.37582564
 H     22.53315352      4.83263501      2.86616179
 H     21.30776748      5.66639911      3.85182560
 H     23.13910398      7.58584952      3.81487907
 H     24.21873673      6.32600279      3.17032806
 H     23.73588578      4.86296286      5.10742688
 H     23.01801393      6.28435731      5.90276611
 H     24.95623737      7.67058913      5.61611219
 H     25.88201185      6.20480232      5.21277946
 H     25.47995859      4.83534923      6.90460805
 H     24.85770316      6.20069410      7.86215609
 H     27.08134736      7.36860020      7.30779314
 H     27.64479475      5.77320709      6.75505943
 H     27.46442229      4.25688354      7.90296812
 H     27.26018248      5.31448337      9.32001976
 H     29.38044149      6.51331302      8.60226676
 H     29.65495517      5.14595081      7.49626970
 H     29.54743658      3.35108008      8.69797382
 H     29.72317511      4.32079573     10.18021341
 H     31.54558383      5.55298953      9.74161150
 H     31.94570772      4.46790904      8.38855279
 H     31.85334716      2.44749055      9.55025122
 H     31.88795004      3.35902299     11.07870728
 H     34.02914860      4.45082934     10.05367682
 H     33.95061712      3.14413980      8.84758316
 H     33.99546362      1.93290159     11.38406377
 H     34.41414895      3.58734304     11.88982334
 H     36.31324310      3.76721651     10.43630095
 H     36.23524493      2.00485287     10.19911463
 H     36.27099976      1.51312688     12.56158521
 H     36.77761304      3.19533449     12.84756984
 H     38.64416387      2.94597420     13.03217508
 H     38.73246723      1.90076812     11.36944545
 H     38.75095373      0.85991242     13.17057854
 H     38.96788019      2.37924183     14.07215921
 H     40.76774229      3.24832548     12.92798449
 H     41.04696236      1.64990966     12.19629489
 H     41.10683022      0.37278370     14.12350767
 H     41.28526859      1.86473802     15.07770823
 H     43.31292677      2.12220877     13.29814298
 H     42.96322142      0.41435421     12.93869113
 H     43.13770982     -0.47536254     15.04867602
 H     43.94487083      1.01608297     15.58936823
 H     45.20564267     -0.18024098     13.26293407
 H     44.37685645     -0.82923108     13.07112501
 H     43.14535018     -1.44711496     12.83764871
 H     42.92820101     -1.82001776     13.72102328
 H     42.54035125     -1.99408191     15.01374913
 H     43.77088690     -3.28013931     15.00349926
 H     42.79593455     -4.20551734     12.90641632
 H     42.13645851     -3.43034587     12.62166959
 H     41.36180519     -3.65361092     11.70003797
 H     40.35126402     -3.69042712     12.59240394
 H     39.29294345     -3.78646902     12.11683291
 H     40.17024652     -3.80675752     10.92024877
 H     39.36272743     -2.39178396     11.09321748
 H     39.64040830     -3.21139355     10.12751044
 H     39.20166302     -2.19805298      9.36647009
 H     38.98038643     -1.38462411     10.64397448
 H     38.67345082     -1.66508969      8.52100434
 H     37.93048392     -2.25821983      9.07665730
 H     36.84756668     -2.30056655      8.50262187
 H     36.86757532     -2.12536247      8.36466784
 H     37.14762757     -0.50886132      7.62195183
 H     37.45437707     -1.20238810      6.67384174
 H     36.91001298      0.55677517      7.28073403
 H     37.65647556      0.44039075      7.71302171
 H     38.56219824      1.32708916      7.84810515
 H     37.48071992      1.82505520      7.29841318
 H     38.57827706      2.76709867      8.22941891
 H     38.66865293      2.70663966      8.26797726
 H     38.87828365      3.49345599      8.95756215
 H     38.77373550      4.16175265      7.54105497
 H     39.32334015      5.24126319      8.02241477
 H     39.41149734      4.64125494      9.37744738
 H     38.95262017      6.29895877      8.24730458
 H     38.13540373      5.72629301      9.09091398
 H     37.32843334      6.57919064      9.30393413
 H     37.95430454      7.32156895      8.88314593
 H     37.55318587      8.40801878      8.68712355
 H     36.57154451      7.87538527      8.91473418
 H     35.51415184      7.67782450      8.52157387
 H     36.70349754      8.73529038      7.72439797
 H     36.09531038      9.14411462      9.34650702
1502
Final Conformation Chain 9 (Simulation Frame 10)
 C      0.00000000      0.00000000      0.00000000
 C      1.54000000      0.00000000      0.00000000
 C      2.16637443     -1.35674687     -0.37214647
 C      3.65193899     -1.48727943      0.01211801
 C      4.22184435     -2.90716769     -0.16316810
 C      5.75721847     -2.98176004     -0.07009675
 C      6.48598095     -2.49138907     -1.33502424
 C      7.94995513     -2.95863906     -1.43530905
 C      8.54183179     -2.86417746     -2.85388545
 C      9.93596260     -3.50305103     -2.99473945
 C     11.08982890     -2.59913113     -2.52238219
 C     10.96474370     -1.13370631     -2.97898243
 C     12.02253026     -0.19516841     -2.36920033
 C     12.14812812      1.15967694     -3.09046259
 C     12.63657213      1.05102539     -4.54690252
 C     12.57271907      2.37583722     -5.32946012
 C     13.00750002      2.25516338     -6.80187424
 C     13.09015289      3.60255681     -7.54302162
 C     13.71554033      3.50776586     -8.94712462
 C     13.53541551      4.77727914     -9.80005549
 C     13.67203154      4.53847990    -11.31528188
 C     13.27449752      5.75012535    -12.17869487
 C     13.12058996      5.42821525    -13.67678911
 C     13.73938100      6.48441193    -14.61121205
 C     13.93921817      5.99959840    -16.05918337
 C     14.31734703      7.11825312    -17.04773290
 C     14.30539844      6.68001169    -18.52401258
 C     14.15119951      7.84316131    -19.52146214
 C     13.84858132      7.39566225    -20.96360181
 C     13.70096149      8.55855040    -21.96235079
 C     13.12381044      8.14192099    -23.32797029
 C     13.13100867      9.26619926    -24.38037067
 C     12.30369535      8.95016032    -25.64024053
 C     13.12173112      8.95781773    -26.94498527
 C     12.34839682      8.44059802    -28.17219260
 C     12.93351073      8.90005711    -29.52057647
 C     12.18336891      8.35127926    -30.74847309
 C     12.67458315      8.92498284    -32.09055088
 C     12.04487545      8.25524482    -33.32607473
 C     12.52522262      8.83868160    -34.66788996
 C     11.95953636      8.11498481    -35.90395712
 C     12.49202975      8.65505459    -37.24424642
 C     11.78157050      8.07341558    -38.48058930
 C     12.04187565      8.85839479    -39.77968471
 C     11.25381805      8.33648287    -40.99548616
 C     11.60527288      9.04089061    -42.31907568
 C     11.04595617      8.33845338    -43.57021387
 C      9.68570983      8.88620281    -44.04063969
 C      8.98912554      8.00944616    -45.09783792
 C      7.75256381      8.66561689    -45.73967517
 C      7.10675643      7.82555531    -46.85718551
 C      5.97653371      8.54997470    -47.61178019
 C      5.28581603      7.68697812    -48.68404228
 C      6.19030087      6.59746771    -49.28941343
 C      5.55515306      5.84146674    -50.47121282
 C      6.48202189      4.79383526    -51.11540414
 C      5.76317044      3.82675797    -52.07436927
 C      6.70517563      3.09483675    -53.04828793
 C      6.12615552      2.91544955    -54.46397008
 C      7.19031158      2.66739633    -55.54916198
 C      8.47958339      3.48845825    -55.36145072
 C      9.48011381      3.35820019    -56.52488174
 C     10.88273753      3.91031473    -56.20957838
 C     11.44909347      4.84047796    -57.29844813
 C     12.88302214      5.32894509    -57.02123264
 C     13.56693753      5.98495261    -58.23511644
 C     15.10348739      5.88318494    -58.21905796
 C     15.78567855      6.51064062    -59.44890128
 C     17.32201631      6.56088651    -59.35540443
 C     17.99498992      7.32794004    -60.50880609
 C     19.46998228      7.68499499    -60.24706330
 C     20.20275131      8.25890919    -61.47395858
 C     21.65388265      8.69034139    -61.19167488
 C     21.83360928      9.45498178    -59.86705289
 C     23.23993148      9.32306212    -59.25349357
 C     23.35603442      9.88866919    -57.82583508
 C     24.76326820      9.76006518    -57.21366347
 C     24.94195508     10.52363386    -55.88828282
 C     24.52056499      9.72272904    -54.64225639
 C     24.78320763     10.45114282    -53.31107938
 C     23.96784697     11.74550525    -53.13384249
 C     24.22932001     12.47308856    -51.80198125
 C     23.56282452     13.85788463    -51.70337285
 C     23.72072443     14.53252346    -50.32804377
 C     22.91041704     15.83270437    -50.17141831
 C     22.26482801     16.00512436    -48.78394357
 C     21.35740416     14.83339893    -48.36532504
 C     20.97402713     14.83991872    -46.87382259
 C     20.31370089     13.53509844    -46.39110809
 C     19.82841676     13.58182908    -44.93031531
 C     20.00715605     12.25563394    -44.16817442
 C     19.27611581     11.06136744    -44.80919523
 C     19.04968940      9.87766248    -43.85045979
 C     18.49228568     10.28445784    -42.47371776
 C     17.89347107      9.11522563    -41.67002808
 C     17.46917355      9.49165378    -40.23829016
 C     17.20461685      8.28058895    -39.32454418
 C     17.16467012      8.62492137    -37.82406444
 C     16.54557263      7.52262109    -36.94471673
 C     16.25556825      7.96433993    -35.49820993
 C     16.09254104      6.79667245    -34.50746537
 C     16.30299151      7.19148804    -33.03388766
 C     16.10279705      6.03222805    -32.04008765
 C     16.48690310      6.37753051    -30.58928485
 C     16.39510870      5.18701039    -29.61674404
 C     16.49720928      5.58197890    -28.13176076
 C     16.17196483      4.43652729    -27.15515610
 C     15.83178637      4.90708265    -25.72881243
 C     15.76676986      3.76955646    -24.69275886
 C     15.60675732      4.25409550    -23.23975579
 C     15.61790577      3.12106858    -22.19681491
 C     15.54377136      3.61111399    -20.73874784
 C     15.69598217      2.49095413    -19.69295926
 C     15.36178584      2.92743181    -18.25441831
 C     15.53113740      1.81209648    -17.20611151
 C     15.21850866      2.25465674    -15.76458326
 C     15.37521577      1.13589189    -14.71796580
 C     15.36313427      1.63489586    -13.26110305
 C     15.80247876      0.57614307    -12.23269704
 C     15.49318690      0.95510447    -10.77244815
 C     15.90295448     -0.11790160     -9.74660777
 C     16.03433908      0.41049819     -8.30607601
 C     16.29146724     -0.68737604     -7.25719218
 C     16.26987220     -0.18155555     -5.80279221
 C     16.04118025     -1.28928702     -4.75769367
 C     15.82441712     -0.76470248     -3.32611244
 C     15.28745420     -1.82380219     -2.34551129
 C     15.09527817     -1.30611785     -0.90791910
 C     14.22027333     -2.21629526     -0.02613477
 C     14.19449183     -1.81192944      1.45960531
 C     13.63674531     -2.90040058      2.39542014
 C     13.62218760     -2.50059458      3.88254597
 C     13.27077931     -3.65583723      4.83833185
 C     11.91142621     -4.31833611      4.54703409
 C     11.26984005     -4.99645672      5.77182780
 C      9.86682504     -5.57278063      5.50537027
 C      9.17215588     -6.13521290      6.75944551
 C      7.73057843     -6.61793227      6.51360721
 C      7.06107884     -7.24645524      7.74986332
 C      5.52183695     -7.23269558      7.70354855
 C      4.85163916     -7.60400681      9.03942388
 C      5.24746117     -8.99293363      9.57403329
 C      4.33979583     -9.51069074     10.70525882
 C      4.57085877    -10.98981036     11.06638906
 C      4.03407574    -11.38701218     12.45408309
 C      4.21198397    -12.87915367     12.79092494
 C      3.62182513    -13.28845861     14.15319584
 C      3.86276993    -14.76402211     14.52232719
 C      3.55004073    -15.10113934     15.99207289
 C      3.16131192    -16.57244267     16.22820086
 C      2.41379343    -16.81810702     17.55200792
 C      2.02874083    -18.29006185     17.79009085
 C      1.67258298    -18.61568030     19.25252861
 C      1.24204413    -20.07635064     19.48204649
 C      1.69364944    -20.65728235     20.83488461
 C      1.14437695    -22.06618059     21.12627006
 C      1.85515902    -22.78806671     22.28612749
 C      1.19337241    -24.11671499     22.69641062
 C      2.00358029    -24.92907392     23.72365749
 C      1.44264772    -26.33819109     23.99075949
 C      2.38252794    -27.24146180     24.81071509
 C      1.70634526    -28.50862384     25.36630248
 C      2.69341166    -29.55797974     25.91050107
 C      2.01983118    -30.84284418     26.42723378
 C      2.98089422    -32.03661741     26.57843993
 C      2.41002697    -33.19861104     27.41239520
 C      3.41923878    -34.32970889     27.68388950
 C      2.97151314    -35.32014386     28.77484337
 C      3.88284298    -36.55383026     28.91303088
 C      3.27666163    -37.68872579     29.75929108
 C      4.06412398    -39.01039396     29.69076169
 C      3.49652950    -40.12500151     30.58914163
 C      4.30721413    -41.43380047     30.55125070
 C      3.46881003    -42.69784828     30.81744934
 C      4.30071386    -43.98883645     30.93096389
 C      3.47205114    -45.23943851     31.27868877
 C      4.20591093    -46.56862476     31.02117429
 C      3.36952098    -47.81956112     31.34860380
 C      4.14614917    -49.14327772     31.22123410
 C      3.44989121    -50.34458526     31.88733099
 C      4.12670652    -51.69811100     31.60186800
 C      3.33680929    -52.91480347     32.11889971
 C      3.87283211    -54.26866248     31.61755619
 C      3.16247774    -55.48957853     32.23103859
 C      3.50387545    -56.82418470     31.54265352
 C      2.43367023    -57.91602662     31.72742909
 C      2.70431079    -59.20094163     30.92285024
 C      1.48304567    -60.13074418     30.79803557
 C      1.84083559    -61.59712754     30.49257489
 C      0.64636286    -62.44880149     30.02408115
 C      0.90767659    -63.96610840     30.05717021
 C     -0.29477330    -64.81866435     29.61123006
 C      0.05922368    -66.28347917     29.29404923
 C     -1.14125567    -67.13330866     28.83771695
 C     -0.75582544    -68.52357548     28.29901322
 C     -1.95941578    -69.39137374     27.88682822
 C     -1.60031606    -70.85861202     27.58706295
 C     -2.82059012    -71.79061246     27.46913745
 C     -2.50271457    -73.16311203     26.84720492
 C     -3.74100316    -74.05036553     26.62132314
 C     -3.41506565    -75.45439639     26.07904820
 C     -4.63063348    -76.19812373     25.49521218
 C     -4.31581101    -77.62273689     25.00229823
 C     -5.47023599    -78.28767365     24.22979446
 C     -5.08995049    -79.62181694     23.56118051
 C     -6.27435977    -80.35128188     22.90038133
 C     -5.98483612    -81.82136032     22.54450854
 C     -7.14190002    -82.52877642     21.81487468
 C     -6.81123283    -83.96170513     21.35773739
 C     -7.92936510    -84.63114751     20.53723319
 C     -7.99897556    -86.16048313     20.70422704
 C     -9.23217618    -86.80693912     20.04626741
 C     -9.13223379    -88.33627646     19.89547342
 C    -10.43594312    -89.00554720     19.42216734
 C    -10.30217803    -90.51554830     19.15086751
 C    -11.64834828    -91.24068067     18.96754073
 C    -11.52468588    -92.77137331     18.85226857
 C    -12.85112493    -93.52464620     19.06378547
 C    -12.70353435    -95.05730578     19.09156396
 C    -13.97006878    -95.81656496     18.65451013
 C    -13.87991064    -97.34295467     18.83782943
 C    -15.10910112    -98.11016374     18.31621560
 C    -14.87235025    -99.62047326     18.13043567
 C    -16.15504376   -100.42600735     17.85220521
 C    -15.89908413   -101.83824572     17.29393336
 C    -17.09293791   -102.79870087     17.44833238
 C    -17.00587190   -103.71247589     18.68487382
 C    -18.33576231   -104.39588242     19.05358372
 C    -18.25652817   -105.28420425     20.30905425
 C    -19.50135299   -106.16234843     20.53460683
 C    -19.31273650   -107.25323389     21.60511732
 C    -20.37762384   -108.36484252     21.56105819
 C    -20.02868754   -109.60057657     22.41123748
 C    -21.00141613   -110.78062262     22.22988028
 C    -21.17738327   -111.64682197     23.49096483
 C    -22.36759602   -112.62150287     23.42031954
 C    -22.71467741   -113.28488632     24.76607468
 C    -23.66589826   -114.48978254     24.64358387
 C    -24.25575824   -114.96113940     25.98577905
 C    -25.03978513   -116.28354302     25.89549897
 C    -25.89238375   -116.59247033     27.14018348
 C    -26.41037178   -118.04147838     27.20071495
 C    -27.47356765   -118.28167154     28.28861283
 C    -28.31693072   -119.55165029     28.07068454
 C    -29.41315266   -119.76518115     29.13101563
 C    -30.47329035   -120.80941870     28.73443523
 C    -31.22798963   -121.42084308     29.92950395
 C    -32.32152527   -122.42901208     29.53028586
 C    -32.86399385   -123.26291218     30.70584465
 C    -33.97378979   -124.25478052     30.31068627
 C    -34.42364201   -125.18038778     31.45632329
 C    -35.69313469   -125.99377722     31.14265794
 C    -35.86946045   -127.24433639     32.02391329
 C    -37.17707020   -128.01495180     31.76332044
 C    -37.11881090   -129.50089595     32.16354020
 C    -38.49288000   -130.11718987     32.48558972
 C    -38.42065233   -131.54738494     33.05209236
 C    -39.72345793   -132.35220352     32.88910578
 C    -39.63029785   -133.80391445     33.39453288
 C    -40.99587658   -134.49044523     33.58286830
 C    -40.90102409   -135.96736146     34.00868685
 C    -42.23505520   -136.56727579     34.49041686
 C    -42.11705119   -138.00525123     35.02884206
 C    -43.41678551   -138.55034921     35.64945376
 C    -43.41649321   -140.07518013     35.86507051
 C    -44.54514135   -140.57802608     36.78425457
 C    -44.61249034   -142.11122000     36.91224086
 C    -46.04063543   -142.66409487     37.07450905
 C    -46.11831059   -144.20199018     37.09559488
 C    -47.50567559   -144.76410905     36.73387575
 C    -47.46000323   -146.09354139     35.95790946
 C    -48.69610854   -146.34615460     35.07482948
 C    -48.73365858   -147.74677105     34.43571795
 C    -50.03221210   -148.04897397     33.66498313
 C    -49.93833514   -149.27302893     32.73521082
 C    -51.30255192   -149.79550878     32.24784301
 C    -51.23633710   -151.17032749     31.55712664
 C    -52.59856854   -151.68675149     31.05789546
 C    -52.64479345   -153.20848412     30.82596216
 C    -53.87319386   -153.68341083     30.02779109
 C    -53.85765659   -155.18564845     29.68920472
 C    -55.05446056   -155.64819435     28.83755247
 C    -55.10297517   -157.16882689     28.59896707
 C    -56.25216905   -157.62225727     27.67953554
 C    -56.13940220   -159.08482510     27.21072965
 C    -57.20282721   -159.49431718     26.17485153
 C    -56.92816545   -160.84981878     25.49752123
 C    -57.76350886   -161.09605392     24.22741508
 C    -57.59568901   -162.50587232     23.63088463
 C    -58.43547567   -162.75403688     22.36408838
 C    -58.19582793   -164.12895076     21.71310390
 C    -59.02091108   -164.36928622     20.43518502
 C    -58.52197885   -163.58094592     19.20995598
 C    -59.06682251   -164.10047585     17.86651486
 C    -58.84338405   -163.13767256     16.68554700
 C    -60.02421302   -162.18485856     16.42213019
 C    -59.67884808   -160.99861543     15.50280964
 C    -60.90029378   -160.16923436     15.06486279
 C    -60.54162389   -158.88349946     14.29685126
 C    -61.76199653   -158.04148554     13.88055431
 C    -61.41141445   -156.81275497     13.02095360
 C    -62.58799927   -156.27773089     12.18369772
 C    -62.24674868   -155.02847482     11.35032668
 C    -63.12212616   -154.85440065     10.09533168
 C    -62.75296471   -153.62867320      9.23922885
 C    -63.38432582   -153.63259864      7.83460515
 C    -63.21185969   -152.30893474      7.06664076
 C    -63.22543317   -152.46713541      5.53484825
 C    -62.99961969   -151.15132445      4.76722217
 C    -61.55434226   -150.62441901      4.83894257
 C    -61.35914585   -149.24095085      4.19124340
 C    -60.02771027   -148.55969259      4.55834893
 C    -59.99168677   -147.05040451      4.25445452
 C    -58.66323444   -146.36752263      4.62927012
 C    -58.48021364   -144.97018567      4.00834111
 C    -57.05901139   -144.39747429      4.16256765
 C    -56.94507708   -142.90189817      3.81346729
 C    -55.49700551   -142.38123386      3.75348887
 C    -55.38621822   -140.86497308      3.50797019
 C    -54.00245857   -140.27616569      3.83980613
 C    -53.87828328   -138.76818405      3.55314975
 C    -52.46121863   -138.20451495      3.76717066
 C    -52.32088041   -136.71205398      3.41437407
 C    -51.07208814   -136.04097389      4.01584675
 C    -50.79317912   -134.62977259      3.46600981
 C    -49.79120027   -133.81674072      4.30661527
 C    -49.41166284   -132.45847007      3.68802642
 C    -48.77842723   -131.47088396      4.68566680
 C    -48.49836553   -130.07666566      4.09463314
 C    -48.12157530   -129.01525988      5.14489353
 C    -47.77208378   -127.63950315      4.54760878
 C    -47.52854131   -126.54287562      5.60102946
 C    -46.82913244   -125.28728144      5.04793772
 C    -46.75354542   -124.11992978      6.04952482
 C    -45.75731524   -123.01552800      5.65024782
 C    -45.66301904   -121.86049296      6.66444814
 C    -44.62077137   -120.78792244      6.29714406
 C    -44.74540507   -119.48795766      7.11332910
 C    -44.03359664   -118.27896935      6.47828894
 C    -44.08744272   -116.99983547      7.33416108
 C    -43.11302359   -115.89857142      6.87664078
 C    -42.98428872   -114.72550708      7.86605849
 C    -41.81252731   -113.77407931      7.56050916
 C    -41.39032615   -112.89696046      8.75382752
 C    -40.21247375   -111.95219945      8.45102340
 C    -39.82437959   -111.03784261      9.62785580
 C    -38.52248521   -110.24647764      9.40332855
 C    -38.24772183   -109.17544565     10.47524065
 C    -37.12190580   -108.19233330     10.10425765
 C    -36.47513671   -107.49478870     11.31534034
 C    -35.57072082   -106.30506742     10.94359423
 C    -35.48188922   -105.22112156     12.03390168
 C    -34.76771465   -103.93411720     11.58093982
 C    -34.34792843   -103.00994803     12.73908095
 C    -33.60057166   -101.74105965     12.28854780
 C    -33.55198051   -100.63090467     13.35475361
 C    -32.75244434    -99.38617079     12.92699260
 C    -33.02957888    -98.13813437     13.78559702
 C    -32.34322214    -96.85904202     13.27136247
 C    -32.72043231    -95.58771392     14.05432949
 C    -32.01971717    -94.31168497     13.55198655
 C    -32.32457749    -93.05757276     14.39214293
 C    -31.61581942    -91.78362805     13.89582963
 C    -31.73480380    -90.58595145     14.85656554
 C    -30.98618116    -89.32624992     14.38294523
 C    -30.97862092    -88.17882221     15.41005404
 C    -29.98388572    -87.05017512     15.08102877
 C    -30.18385797    -85.77458073     15.92035591
 C    -29.11718388    -84.69085614     15.67674269
 C    -29.51693788    -83.29310047     16.18475435
 C    -28.59199425    -82.16179970     15.69871129
 C    -29.18951564    -80.75157052     15.85940310
 C    -28.25733663    -79.61911787     15.39015551
 C    -28.91934064    -78.22875273     15.37481140
 C    -27.96582981    -77.08530882     14.98117055
 C    -28.63526917    -75.69917482     14.93552532
 C    -27.64059528    -74.52388128     14.90537673
 C    -28.30737385    -73.14229005     14.77042484
 C    -27.36676521    -71.96071955     15.07166653
 C    -28.05583867    -70.58423008     15.02633984
 C    -27.13332621    -69.40931123     15.40068787
 C    -27.66377964    -68.03187459     14.96149833
 C    -26.70344274    -66.86602121     15.26172980
 C    -27.20192406    -65.49849406     14.75875280
 C    -26.14050541    -64.38429605     14.81836198
 C    -26.59748616    -63.05011504     14.19971051
 C    -25.54454222    -61.92919939     14.28006696
 C    -26.04817464    -60.56015761     13.78642846
 C    -25.18617552    -59.37124855     14.25016629
 C    -25.61918530    -58.01602882     13.66069025
 C    -24.97712986    -56.79861210     14.35153131
 C    -25.33177223    -55.44925724     13.69955720
 C    -24.65029519    -54.23628025     14.35976615
 C    -24.82996007    -52.91798843     13.58424877
 C    -23.92117212    -51.77485399     14.07307196
 C    -24.19906433    -50.42025208     13.39525961
 C    -23.48256884    -49.22929951     14.05848371
 C    -23.72155168    -47.88203857     13.35181891
 C    -22.47002208    -46.98871735     13.26666690
 C    -22.73592211    -45.59301197     12.67260994
 C    -21.50410129    -44.94961871     12.00908707
 C    -21.66467909    -43.44658483     11.71463176
 C    -20.49265113    -42.83421521     10.92535747
 C    -20.47449269    -41.29432234     10.92491299
 C    -19.24794433    -40.68257046     10.22281702
 C    -19.21096061    -39.14334435     10.25467899
 C    -18.00158641    -38.53059300      9.52423404
 C    -18.01715837    -36.99166880      9.46882800
 C    -16.99405153    -36.38982812      8.48768571
 C    -16.91852048    -34.85217134      8.52650181
 C    -15.83279092    -34.25508939      7.61201590
 C    -15.77270849    -32.71640716      7.63316006
 C    -14.54588830    -32.12749474      6.91226173
 C    -14.48007989    -30.58920515      6.94282956
 C    -13.11418353    -30.01229995      6.52676765
 C    -13.11945054    -28.48852457      6.30387566
 C    -11.77251584    -27.92193780      5.81772100
 C    -11.73804181    -26.38544346      5.71975834
 C    -10.38585952    -25.81796268      5.24947266
 C    -10.28026301    -24.28499526      5.35174810
 C     -9.15640251    -23.67586760      4.49296927
 C     -8.97241715    -22.15916852      4.68629100
 C     -7.87244255    -21.54381743      3.80141874
 C     -7.74722100    -20.01435969      3.93056437
 C     -6.41262426    -19.44899374      3.41016752
 C     -6.29458743    -17.91766910      3.52291564
 C     -5.01313870    -17.34018886      2.89362578
 C     -4.65652555    -15.92510528      3.38552571
 C     -3.36502749    -15.35501161      2.77019983
 C     -3.08177826    -13.89068116      3.15374413
 C     -1.96617491    -13.23006480      2.32271152
 C     -1.46345013    -11.89350455      2.89931753
 C     -0.01929326    -11.54134702      2.49683027
 C      0.57102902    -10.34454743      3.26545915
 C      2.00443547     -9.97359898      2.84196987
 C      2.48671445     -8.61593544      3.38580505
 C      3.90712877     -8.22896374      2.93383594
 C      4.33167837     -6.80837692      3.35011794
 C      5.62192206     -6.31537598      2.66907368
 C      6.08502108     -4.92341347      3.13766698
 C      7.41700406     -4.46425423      2.51590004
 C      7.96120301     -3.14827663      3.10211711
 C      9.24539541     -2.64214533      2.41926940
 C      9.50791117     -1.13744276      2.61562532
 C     10.73921644     -0.61187381      1.85453097
 C     10.81302485      0.92386553      1.76702669
 C     12.18926938      1.46106596      1.33232369
 C     12.27627038      2.99796814      1.28802340
 C     13.56849049      3.53389636      0.64416927
 C     13.39563106      3.99920675     -0.81363931
 C     14.70761215      4.43611487     -1.49144232
 C     14.50600584      5.33630738     -2.72457181
 C     15.52816729      5.09417367     -3.85069668
 C     15.56688366      6.20946130     -4.91193866
 C     16.79524684      6.14973348     -5.83884560
 C     16.55799081      5.36664987     -7.14348717
 C     17.63770711      5.59660075     -8.21723542
 C     17.22014089      5.15087407     -9.63094196
 C     18.04873174      5.79143516    -10.75997637
 C     17.73280850      5.23618928    -12.16122385
 C     18.14885922      6.16959670    -13.31328825
 C     18.09323299      5.51101971    -14.70425269
 C     18.65477827      6.39069936    -15.83669721
 C     18.46541391      5.79583305    -17.24448811
 C     19.02212927      6.67804032    -18.37735100
 C     18.34290544      6.44966107    -19.74047165
 C     18.56055950      7.59361581    -20.74823862
 C     17.98259437      7.31372754    -22.14795961
 C     18.07875461      8.50789078    -23.11559972
 C     17.69216445      8.17027001    -24.56755022
 C     17.14448706      9.36865533    -25.36474662
 C     17.55564326      9.37423565    -26.84883538
 C     16.95881748     10.53947372    -27.65977262
 C     17.32231053     10.51218617    -29.15601064
 C     16.51474114     11.50295925    -30.01496372
 C     16.63032894     11.25666726    -31.53074065
 C     15.74486194     12.18272666    -32.38511889
 C     15.67949152     11.78948651    -33.87262986
 C     14.92888327     12.80321621    -34.75611125
 C     15.17329481     12.62024708    -36.26554336
 C     14.33295697     13.55612579    -37.15411714
 C     12.82788386     13.54485977    -36.82819075
 C     12.00578474     12.57608341    -37.69837775
 C     10.48303760     12.69692946    -37.50283395
 C      9.66986830     11.61039639    -38.23070864
 C      8.19797624     11.98984216    -38.47800337
 C      7.38896607     10.91001347    -39.22034598
 C      5.95711865     11.34191994    -39.58759218
 C      5.05946918     10.18795670    -40.07152840
 C      5.34802051      9.73253895    -41.51407227
 C      4.58455858      8.46296195    -41.93466722
 C      5.04792586      7.86958150    -43.27809210
 C      4.08341289      6.82317472    -43.86660514
 C      4.43690594      6.38098013    -45.29877363
 C      3.46153637      5.34871953    -45.89433409
 C      4.04649886      4.53692797    -47.06498064
 C      5.28971713      3.70778503    -46.69278404
 C      5.78313286      2.77917776    -47.81787491
 C      7.12880395      2.09275854    -47.51854571
 C      7.73518371      1.35057389    -48.72397739
 H     -0.36333333      0.00000000      1.02766186
 H     -0.36333333     -0.88998127     -0.51383093
 H     -0.36333333      0.88998127     -0.51383093
 H      1.88274777     -1.03396228     -0.03931882
 H      1.88274777     -0.96352765      0.37714511
 H      3.13316360     -1.43581502      0.12501238
 H      3.09872227     -1.46723357      0.18158649
 H      3.75766660     -2.33507179      0.68900042
 H      4.02944630     -2.42628164     -0.39268203
 H      5.15795940     -2.83482619     -0.71684248
 H      5.27714026     -2.88895074      0.10907938
 H      6.16675766     -2.02225942     -0.38590718
 H      6.16597697     -2.01629535     -0.36824844
 H      7.43413512     -2.04622662     -1.03347149
 H      7.40052346     -3.07301402     -1.45088803
 H      8.15685346     -3.21715807     -2.47379882
 H      8.52165519     -2.18654659     -1.95021899
 H      9.57573854     -2.52880611     -2.77225895
 H      9.46346393     -3.44555894     -2.88014927
 H     10.58518890     -2.79804871     -3.51394745
 H     10.53260354     -3.21833939     -2.12810292
 H     11.50645155     -2.09219505     -3.39275072
 H     10.66395450     -1.67191201     -2.13898201
 H     11.09180695     -0.49119426     -2.10769993
 H     11.96346301     -0.69823322     -3.01096557
 H     12.61019196      0.23262879     -3.18144616
 H     12.70432554      0.11363883     -3.16159751
 H     12.88518921      1.05695566     -3.88688540
 H     11.59821953      1.10023282     -4.02970001
 H     11.89093144      1.51316439     -5.19385499
 H     12.93798984      2.04338768     -4.88225971
 H     12.96019277      3.16994205     -4.69121121
 H     12.44897086      2.14349566     -6.38719532
 H     12.30293985      2.81764499     -7.41449925
 H     13.84939459      2.92754166     -6.96686201
 H     13.58944656      4.32116913     -6.89309688
 H     12.78834920      3.44338057     -8.57824018
 H     13.29023814      2.64156881     -9.45399810
 H     14.79109074      3.37113470     -8.83477136
 H     13.74963927      5.64377346     -9.17443918
 H     12.49970538      4.81964610    -10.13711567
 H     13.11648979      3.63637134    -11.57155027
 H     13.75146044      5.50694894    -11.80910245
 H     13.95261990      5.80122509    -13.03053926
 H     12.18774163      5.83389964    -12.17209824
 H     12.56400616      4.49583851    -13.77159464
 H     14.11534242      5.30262642    -14.10433443
 H     14.71893008      6.75747798    -14.21876011
 H     13.09176530      7.36115958    -14.61394357
 H     13.03933102      5.46899579    -16.37025247
 H     14.78847932      5.31658432    -16.07781851
 H     15.07780465      7.74486028    -16.58172037
 H     13.42715186      7.71483601    -17.24708536
 H     13.40552536      6.09041741    -18.69924679
 H     15.18526193      6.06273849    -18.70543484
 H     14.80911852      8.65348193    -19.20741904
 H     13.11619776      8.18386678    -19.49333437
 H     13.08882097      6.61489973    -20.92790746
 H     14.76399385      6.99232035    -21.39653971
 H     14.50457051      9.27181395    -21.77913606
 H     12.73961371      9.04129834    -21.78666672
 H     12.28066065      7.47334576    -23.15417274
 H     13.89963352      7.61217643    -23.88075348
 H     14.09651093      9.77019852    -24.33689505
 H     12.34022086      9.97383579    -24.13136228
 H     11.35503312      8.51431117    -25.32691083
 H     12.78318215      8.12517665    -26.16711275
 H     14.05492402      8.42323313    -26.76758652
 H     13.34017679      9.99318856    -27.20649767
 H     11.35208102      8.88255215    -28.16073061
 H     12.26594078      7.35657618    -28.09346753
 H     14.01671488      8.78510003    -29.48116026
 H     12.68465427      9.95185398    -29.66162185
 H     11.11283778      8.44733023    -30.56726242
 H     12.43926353      7.29805500    -30.86395731
 H     13.76456243      8.92686138    -32.08409857
 H     12.31000777      9.94831721    -32.17983452
 H     10.97502051      8.14563779    -33.14860157
 H     12.49553135      7.27042731    -33.44913454
 H     13.60669044      8.96567365    -34.61889642
 H     12.05131841      9.81014522    -34.80850732
 H     10.89512326      7.94358333    -35.74350063
 H     12.47066005      7.15749698    -36.00430469
 H     13.56859113      8.79886164    -37.15240349
 H     11.64299052      8.98797243    -37.84123729
 H     10.70827406      8.07287321    -38.29049860
 H     12.12577810      7.04910189    -38.62342689
 H     12.30223052      8.14717814    -40.56357642
 H     11.46824545      9.78445084    -39.74136244
 H     10.22806439      8.14295177    -40.68167867
 H     11.95591450      8.16646934    -41.81173121
 H     12.68965253      9.13226431    -42.38129796
 H     11.15696752     10.03437112    -42.30817750
 H     10.02826418      8.01309515    -43.35447088
 H     11.63925042      7.44282752    -43.75448608
 H      9.58805428      8.69027385    -45.10842958
 H      8.91709425      8.53031900    -43.35458081
 H      9.06974993      6.96796753    -44.78651497
 H      9.50394681      8.14525031    -46.04895110
 H      7.99853349      9.70040205    -45.97804170
 H      7.12855651      7.87905053    -46.16397253
 H      7.05072084      6.79077665    -46.51926073
 H      7.74159419      7.88520233    -47.74122355
 H      6.30462473      9.56705314    -47.82627433
 H      5.09820874      8.57990367    -46.96699379
 H      5.10232819      6.69862060    -48.26263794
 H      5.82331881      6.74192570    -48.76193110
 H      5.58685168      5.70546140    -49.45756159
 H      6.89884970      7.07662245    -49.96503855
 H      5.07900680      6.56968058    -51.12778676
 H      4.80118543      5.16021797    -50.07683619
 H      6.97013217      4.23211361    -50.31896385
 H      7.23473090      5.31803165    -51.70425667
 H      5.08910736      4.40691846    -52.70456984
 H      5.18548995      3.11983512    -51.47884821
 H      7.57467600      2.74897008    -52.48931983
 H      7.02338675      3.80222227    -53.81408647
 H      5.66529744      3.85545928    -54.76743593
 H      5.36725957      2.13388778    -54.42738938
 H      7.90725874      1.94101228    -55.16647022
 H      8.16111535      2.57447089    -55.06233048
 H      8.76438113      3.44379669    -54.31026301
 H      8.27100605      4.52201488    -55.63777695
 H      8.92797087      3.43264971    -57.46173575
 H      9.95554345      2.37948993    -56.46012917
 H     11.16933767      3.56997890    -55.21452467
 H     10.83300279      4.99912111    -56.22085367
 H     10.65990470      5.52537018    -57.60861538
 H     11.75358964      4.22857362    -58.14753891
 H     13.47460064      4.47935161    -56.68016697
 H     12.84236962      6.08251815    -56.23473724
 H     12.85253625      6.65852635    -58.70843370
 H     13.84585123      5.19935311    -58.93735612
 H     15.37674509      4.86749214    -57.93305386
 H     15.48571956      6.58473084    -57.47755144
 H     15.31351857      7.47241132    -59.64930603
 H     15.63448881      5.84720876    -60.30042922
 H     17.67400172      5.60085764    -58.97784536
 H     17.59717443      7.34965387    -58.65523727
 H     17.43723534      8.24873976    -60.67950377
 H     17.95359153      6.70688752    -61.40361329
 H     19.96428009      6.81076844    -59.82339169
 H     19.50206038      8.50423513    -59.52878996
 H     19.55031832      8.98955733    -61.95206369
 H     20.40256450      7.44174961    -62.16708549
 H     22.13258070      7.91354005    -60.59541332
 H     21.74052950      8.92874257    -60.13160073
 H     21.26732040      8.93723656    -59.09287152
 H     21.43634491     10.46180292    -59.99586366
 H     23.97419257      9.44808966    -60.04931313
 H     23.33476453      8.32526612    -58.82511309
 H     22.48818538      9.55870688    -57.25481589
 H     23.35808499     10.97692571    -57.88742690
 H     25.49333896     10.05312593    -57.96812493
 H     24.92345741      8.71755694    -56.93867986
 H     24.63705256      9.86903605    -55.07180491
 H     25.00994943     11.58815706    -56.11248611
 H     24.91438410      8.71068902    -54.73596603
 H     23.43162815      9.68729276    -54.60968623
 H     24.95686771     11.50557779    -53.52580961
 H     25.85418984     10.42277810    -53.11034934
 H     22.94178274     11.54957210    -53.44513400
 H     24.40126826     12.51397059    -53.77392609
 H     25.30471474     12.48763479    -51.62473963
 H     23.73718933     11.91603160    -51.00473917
 H     22.54272848     13.77477976    -52.07833638
 H     24.12380343     14.55348609    -52.32750527
 H     24.75370722     14.40961030    -50.00256119
 H     23.05583276     14.03344000    -49.62310777
 H     21.91209914     15.66518885    -50.57564588
 H     23.40691259     16.61694171    -50.74287606
 H     23.00233093     15.73783630    -48.02714337
 H     22.35218220     15.06138236    -48.24559398
 H     21.86756604     13.90119009    -48.60785656
 H     20.42961198     14.89836775    -48.93372694
 H     20.69990470     15.85732943    -46.59483813
 H     21.84284948     14.52609612    -46.29523544
 H     20.87767463     12.69512798    -46.79667344
 H     19.29319291     13.50575830    -46.77294919
 H     19.32031538     14.53243280    -44.76818711
 H     20.69921548     13.51935651    -44.27769999
 H     20.99891746     11.86267418    -44.39198670
 H     19.71812626     11.43869843    -44.82936890
 H     19.45042538     11.09001862    -45.88478590
 H     18.20939336     11.16602486    -44.61107901
 H     19.47699408     10.13498618    -42.88128735
 H     20.00162757      9.36677824    -43.70585337
 H     17.69404540     11.01047412    -42.62803178
 H     19.29687822     10.74538399    -41.90076233
 H     18.57164030      8.26515875    -41.74467924
 H     16.93199536      8.85282152    -42.11139927
 H     16.93933675     10.44343297    -40.27688198
 H     18.36829688      9.60067031    -39.63183107
 H     18.00580784      7.55684312    -39.47416029
 H     16.25316362      7.83432662    -39.61383068
 H     16.57495761      9.53267453    -37.69630155
 H     18.18537913      8.80419027    -37.48625418
 H     16.94936224      6.56196685    -37.26439998
 H     15.46591471      7.53083818    -37.09428697
 H     15.79291031      8.95084919    -35.52731521
 H     17.20237644      8.02276923    -34.96132980
 H     16.88368338      6.07173135    -34.69891821
 H     15.12277994      6.33102793    -34.68307457
 H     15.77584947      8.12790858    -32.85130114
 H     17.37029575      7.33685919    -32.86706776
 H     16.60573500      5.15019456    -32.43653479
 H     15.03432613      5.83395587    -31.95548250
 H     16.08408846      7.36247961    -30.35324329
 H     17.57436059      6.40347044    -30.51954730
 H     16.84146127      4.31651588    -30.09748170
 H     15.34231516      4.99027986    -29.41420307
 H     15.87187086      6.45936171    -27.96668119
 H     17.53598749      5.82993805    -27.91368716
 H     16.67266872      3.53422767    -27.50622735
 H     15.09348377      4.27853192    -27.15916434
 H     15.15577059      5.75907076    -25.80105451
 H     16.75578936      5.21680488    -25.24055982
 H     16.62153970      3.11208823    -24.85151669
 H     14.84436176      3.21158713    -24.85379775
 H     14.85196807      5.04026975    -23.22177668
 H     16.56199551      4.65983281    -22.90659333
 H     16.42502809      2.43263543    -22.44724128
 H     14.66367972      2.59692103    -22.24993736
 H     14.78363834      4.38989586    -20.67713129
 H     16.51373948      4.02786413    -20.46748934
 H     16.51754046      1.84408111    -20.00068846
 H     14.77019580      1.91610075    -19.66922734
 H     14.44570205      3.51757379    -18.27937699
 H     16.18103886      3.54374445    -17.88417080
 H     16.46905151      1.29379494    -17.40556235
 H     14.70071291      1.11392803    -17.31125886
 H     14.30153184      2.84378261    -15.77815597
 H     16.04267776      2.87341769    -15.40964640
 H     16.30090368      0.59925715    -14.92587214
 H     14.53027765      0.45426314    -14.81575026
 H     14.55717143      2.36090219    -13.15415113
 H     16.31797109      2.11929729    -13.05679472
 H     16.68666372      0.06918089    -12.61909876
 H     14.99290858     -0.14419477    -12.11518308
 H     14.48099775      1.35728538    -10.72974403
 H     16.20221943      1.72164385    -10.45973385
 H     16.89720723     -0.48010747    -10.00808127
 H     15.18944490     -0.93972647     -9.80667404
 H     15.17936380      1.05365836     -8.09759991
 H     16.95281651      0.99338838     -8.23724120
 H     17.04736668     -1.36701470     -7.65064781
 H     15.36128228     -1.23233934     -7.09634772
 H     15.41522091      0.48448291     -5.68420074
 H     17.19044501      0.37234727     -5.61884283
 H     16.66680175     -2.14244528     -5.02002691
 H     14.99218309     -1.58323435     -4.79374802
 H     15.13790026      0.08073567     -3.37115618
 H     16.78539326     -0.43190238     -2.93385110
 H     15.84476103     -2.74773635     -2.49996118
 H     14.23388638     -1.99355588     -2.56749897
 H     14.61633512     -0.32820610     -0.95693120
 H     16.07719181     -1.20700166     -0.44518638
 H     14.52841907     -3.24923218     -0.18796037
 H     13.18142656     -2.09473535     -0.33292555
 H     14.07327428     -0.73028643      1.51838203
 H     15.14626599     -2.09580762      1.90864776
 H     14.07282391     -3.85680662      2.10693628
 H     12.55502978     -2.94096555      2.26756866
 H     13.24418486     -1.48115361      3.95970830
 H     14.64493335     -2.53823636      4.25761161
 H     13.82591231     -4.54025307      4.52570431
 H     12.47753510     -4.24846286      4.38263624
 H     11.82651046     -4.46754327      3.47063894
 H     11.12294812     -3.64532552      4.88387093
 H     11.36818653     -4.32593479      6.62554222
 H     11.80918321     -5.92209833      5.97281676
 H      9.88775793     -6.09815777      4.55057150
 H      9.16098139     -4.74412253      5.44870907
 H      9.31580133     -5.42856476      7.57682816
 H      9.64137458     -7.08553437      7.01404894
 H      7.71490186     -7.19310021      5.58784477
 H      7.08930685     -5.74281255      6.40855377
 H      7.27649416     -6.61718258      8.61340959
 H      7.48979773     -8.23641318      7.90569461
 H      5.20614615     -7.54143324      6.70699430
 H      5.18232179     -6.21439990      7.89303037
 H      5.36925305     -7.07674680      9.84078070
 H      5.42797029     -8.40593387      9.50078645
 H      6.32581714     -9.10787646      9.46432208
 H      4.73875537     -9.74841814      8.97523318
 H      3.30333483     -9.31738170     10.42870826
 H      4.58102662     -8.96283249     11.61616992
 H      5.64525704    -11.16649867     11.11688274
 H      4.13782963    -11.60658466     10.27887702
 H      3.04104480    -10.95395176     12.57428378
 H      4.70321783    -10.97711460     13.21060991
 H      5.21843825    -13.17884059     12.49879907
 H      3.48195702    -13.44957307     12.21665814
 H      2.63822809    -12.82935369     14.25249106
 H      4.27876105    -12.91337184     14.93795383
 H      4.89885514    -15.01059549     14.29031638
 H      3.19824845    -15.38144560     13.91792713
 H      2.60452060    -14.62872625     16.25837638
 H      4.34732943    -14.69438018     16.61414822
 H      3.85125275    -17.20340715     15.66787463
 H      2.14775136    -16.72304725     15.85656495
 H      1.66131540    -16.03846937     17.67050668
 H      3.13319671    -16.75583846     18.36851361
 H      2.88470320    -18.91411608     17.53321588
 H      1.19129121    -18.53523565     17.13689260
 H      1.02714234    -17.82380467     19.63258042
 H      2.59523319    -18.64201858     19.83228966
 H      1.92942714    -20.72554406     18.93968822
 H      0.23428320    -20.20283665     19.08642141
 H      1.50232555    -19.91345629     21.60833013
 H      2.76350991    -20.85885753     20.78134937
 H      1.24661244    -22.66750960     20.22291446
 H      0.08943690    -21.97598361     21.38524111
 H      1.97925840    -22.08025159     23.10569878
 H      2.83458448    -23.11537962     21.93728364
 H      0.94598408    -24.67043989     21.79071323
 H      0.27899619    -23.88932071     23.24441425
 H      2.36117447    -24.24689197     24.49492540
 H      2.85516085    -25.37704507     23.21157116
 H      1.18219469    -26.79048168     23.03383868
 H      0.54570881    -26.23981634     24.60225192
 H      2.78285290    -26.65716952     25.63923332
 H      3.19942557    -27.56250327     24.16440971
 H      1.09596322    -28.94589657     24.57615925
 H      1.06751482    -28.21853445     26.20047502
 H      3.44448125    -29.04359529     26.51000347
 H      3.17617015    -30.04598263     25.06380312
 H      1.25887984    -31.14423832     25.70736252
 H      1.54723895    -30.62107982     27.38409174
 H      3.89584189    -31.68206424     27.05305852
 H      3.21192199    -32.41872534     25.58409607
 H      1.38159159    -33.37412361     27.09677514
 H      2.42294061    -32.90573993     28.46223316
 H      4.36965994    -33.87955689     27.97053001
 H      3.55009941    -34.90029880     26.76443169
 H      1.92303736    -35.56545579     28.60566716
 H      3.07899776    -34.83374714     29.74436144
 H      4.91972176    -36.21887433     28.88497888
 H      3.69228635    -37.21696296     28.06920437
 H      2.23650145    -37.82045964     29.46127599
 H      3.31970584    -37.39479461     30.80802920
 H      5.12602676    -38.78176241     29.78126089
 H      3.87334356    -39.47322652     28.72252161
 H      2.41271258    -40.13936866     30.47410047
 H      3.74903521    -39.89317287     31.62383789
 H      5.36622391    -41.18287847     30.61155363
 H      4.10579678    -41.93443740     29.60420597
 H      2.54405102    -42.62252692     30.24539387
 H      3.23567044    -42.73670240     31.88151526
 H      5.17176487    -43.78173298     31.55263767
 H      4.62757237    -44.27497127     29.93126875
 H      2.57020017    -45.23413198     30.66653138
 H      3.19656599    -45.18610536     32.33195204
 H      5.22395920    -46.47699164     31.39969916
 H      4.23251868    -46.74264045     29.94548355
 H      2.36556327    -47.67468317     30.94963100
 H      3.31827653    -47.92356142     32.43242018
 H      5.12302849    -49.01371469     31.68708838
 H      4.27531652    -49.36429693     30.16172181
 H      2.39203477    -50.31565532     31.62617432
 H      3.56021182    -50.24897198     32.96751036
 H      5.20380151    -51.57285943     31.71267604
 H      3.89806206    -51.98599566     30.57573734
 H      2.28644704    -52.77539259     31.86315814
 H      3.44425365    -52.95780742     33.20273843
 H      4.95957447    -54.25925676     31.70123759
 H      3.58997665    -54.38302295     30.57112680
 H      2.08890844    -55.30119555     32.22324166
 H      3.50389674    -55.60357231     33.25989159
 H      4.58036359    -56.85777876     31.37488965
 H      2.98558274    -56.85797669     30.58435776
 H      1.45373112    -57.46572025     31.56917767
 H      2.50021035    -58.29189751     32.74840582
 H      3.75790140    -59.45812837     31.03194569
 H      2.48587185    -59.00089723     29.87386660
 H      0.61138029    -59.52145443     30.55915179
 H      1.32906049    -60.62493867     31.75728547
 H      2.67323649    -61.88750787     31.13358035
 H      2.14552531    -61.66519573     29.44824214
 H      0.07913774    -61.87142760     29.29401605
 H      0.01666560    -62.66073672     30.88817884
 H      1.40352234    -64.20808651     30.99721467
 H      1.56404690    -64.21909872     29.22453950
 H     -0.72194710    -64.36698190     28.71590580
 H     -1.03555992    -64.81118561     30.41077946
 H      0.71861080    -66.65437917     30.07874141
 H      0.58149109    -66.31052326     28.33769920
 H     -1.71843398    -66.55267669     28.11811170
 H     -1.75917124    -67.34951264     29.70923068
 H     -0.01494109    -68.95792337     28.97023025
 H     -0.31922593    -68.39826147     27.30816648
 H     -2.65238372    -68.76938685     27.32023512
 H     -2.44963552    -69.74966387     28.79204244
 H     -0.92536360    -71.21239039     28.36640886
 H     -1.09382483    -70.89736337     26.62266419
 H     -3.57771283    -71.28935280     26.86614164
 H     -3.21319414    -71.96956808     28.47010547
 H     -1.58253388    -73.53773888     27.29555993
 H     -2.35600347    -73.02812111     25.77559244
 H     -4.52950053    -73.43464283     26.18859058
 H     -4.06860697    -74.43403708     27.58753838
 H     -2.56658913    -75.84920966     26.63789530
 H     -3.14562577    -75.36144749     25.02697280
 H     -5.19378743    -75.50064303     24.87514903
 H     -5.25561177    -76.53545558     26.32207937
 H     -3.69410422    -78.11467881     25.75034490
 H     -3.76495842    -77.54713297     24.06477731
 H     -5.88192695    -77.55739455     23.53315754
 H     -6.23831653    -78.57989472     24.94586647
 H     -4.51218077    -80.21004970     24.27410713
 H     -4.47579181    -79.40444221     22.68730561
 H     -6.86002918    -79.61968550     22.34373235
 H     -6.89031288    -80.78725696     23.68691009
 H     -5.47289223    -82.28386561     23.38837009
 H     -5.33441454    -81.84062633     21.67004837
 H     -7.52537863    -81.85627138     21.04755393
 H     -7.92787667    -82.73784327     22.54056867
 H     -6.29915070    -84.47211799     22.17342765
 H     -6.14902697    -83.90170960     20.49403378
 H     -8.30119818    -83.90839910     19.81095852
 H     -8.73415700    -84.90938982     21.21766777
 H     -7.89720366    -86.39454094     21.76392484
 H     -7.16957178    -86.60356494     20.15298490
 H     -9.36205962    -86.36858097     19.05678653
 H    -10.10479241    -86.58350325     20.66004043
 H     -8.74310430    -88.74781110     20.82677224
 H     -8.43907609    -88.55605285     19.08348159
 H    -10.84976233    -88.41173865     18.60715503
 H    -11.13772538    -89.01694003     20.25611689
 H     -9.73582498    -90.96180200     19.96830365
 H     -9.75748608    -90.64892098     18.21618981
 H    -12.27965733    -90.63275819     18.31948277
 H    -12.12012021    -91.33992410     19.94513062
 H    -10.82823997    -93.11745502     19.61600316
 H    -11.12916952    -93.00990079     17.86496342
 H    -13.63226644    -93.00589237     18.50807654
 H    -13.08926736    -93.50738307     20.12731270
 H    -11.84006036    -95.30737279     19.70798845
 H    -12.53472728    -95.40391799     18.07202282
 H    -14.37002540    -95.33190268     17.76387151
 H    -14.70131779    -95.75592921     19.46054871
 H    -13.44332153    -97.54551469     19.81581685
 H    -13.23021375    -97.74382234     18.05981975
 H    -15.38048046    -97.70156333     17.34282002
 H    -15.93067891    -97.95771042     19.01612125
 H    -14.33767035    -99.99359160     19.00393445
 H    -14.25965050    -99.76444620     17.24050825
 H    -16.74925771    -99.88157875     17.11830652
 H    -16.71559935   -100.51023279     18.78321730
 H    -15.09357482   -102.29371496     17.86995639
 H    -15.59275286   -101.74461840     16.25206241
 H    -18.00048668   -102.26576670     17.16471926
 H    -17.16730071   -103.08728325     18.49680288
 H    -16.68905099   -103.10892798     19.53543507
 H    -16.26107304   -104.48390138     18.48922778
 H    -18.79254250   -104.77301287     18.13858400
 H    -18.99014944   -103.65074746     19.50596782
 H    -17.69932023   -104.74549572     21.07548261
 H    -17.72439928   -106.19911961     20.04853798
 H    -19.78539404   -106.60589199     19.58030615
 H    -20.30954315   -105.52542149     20.89412420
 H    -18.80711190   -106.80853626     22.46225662
 H    -18.68911889   -108.04206275     21.18446293
 H    -20.52854805   -108.65387312     20.52097012
 H    -21.30742840   -107.96498927     21.96563309
 H    -19.64969659   -109.25820437     23.37417420
 H    -19.25169885   -110.16387436     21.89443560
 H    -21.20002094   -110.90052723     21.16485492
 H    -21.93019282   -110.54195370     22.74806076
 H    -21.29151911   -110.98410020     24.34879515
 H    -20.28101235   -112.25393454     23.61758828
 H    -22.36397123   -113.09636012     22.43919904
 H    -23.28704570   -112.04921237     23.54359107
 H    -22.69341915   -112.51897138     25.54133102
 H    -21.95884037   -114.04032358     24.98084180
 H    -23.33028600   -115.10817561     23.81108496
 H    -24.66849561   -114.11533688     24.43697070
 H    -24.57180914   -114.08281718     26.54859510
 H    -23.47555377   -115.48509275     26.53791480
 H    -24.46517239   -116.98181978     25.28695172
 H    -25.99619161   -116.08269697     25.41274904
 H    -26.41073304   -115.68025073     27.43559746
 H    -25.22558969   -116.90763419     27.94277766
 H    -25.59228086   -118.70945692     26.93121185
 H    -27.21888361   -118.14694341     26.47733003
 H    -28.18642610   -117.45762073     28.25906481
 H    -26.97502134   -118.29623689     29.25780807
 H    -27.64719555   -120.36321444     27.78622290
 H    -29.02095661   -119.36075935     27.26074121
 H    -29.91294831   -118.81209734     29.30403462
 H    -28.93756716   -120.09874539     30.05332432
 H    -29.96158677   -121.67317510     28.30995398
 H    -31.12522178   -120.36697620     27.98122209
 H    -31.49711645   -120.61568211     30.61316070
 H    -30.56100731   -122.11910316     30.43513964
 H    -31.91830512   -123.08414605     28.75807282
 H    -33.16960638   -121.87391971     29.12937328
 H    -33.03213100   -122.59525935     31.55087104
 H    -32.11327883   -124.00632475     30.97392061
 H    -33.67377032   -124.75600277     29.39043381
 H    -34.89038875   -123.69154423     30.13544006
 H    -34.53745780   -124.57899712     32.35825192
 H    -33.64895272   -125.93053663     31.61517294
 H    -35.60277895   -126.39436530     30.13297233
 H    -36.55088441   -125.32300908     31.19200894
 H    -35.64868866   -126.97052035     33.05560345
 H    -35.16079707   -128.00200014     31.68948562
 H    -37.31973758   -128.09335386     30.68554536
 H    -38.00084765   -127.44930222     32.19867233
 H    -36.63760675   -129.57457457     33.13879095
 H    -36.52151638   -130.03225716     31.42259856
 H    -39.20076628   -129.79427094     31.72222848
 H    -38.81465374   -129.74747751     33.45917815
 H    -37.62902883   -131.57995541     33.80067194
 H    -38.17705139   -132.22746104     32.23584786
 H    -40.10023827   -132.19350311     31.87868471
 H    -40.44986115   -131.97829562     33.61065360
 H    -39.11894595   -133.79955372     34.35713364
 H    -39.04739896   -134.38023851     32.67607658
 H    -41.61646964   -134.26260487     32.71623515
 H    -41.46247574   -134.08489829     34.48059705
 H    -40.14592198   -136.05089803     34.79031492
 H    -40.59447135   -136.55462484     33.14309622
 H    -43.01951283   -136.25699282     33.80016277
 H    -42.44889170   -136.17366941     35.48412103
 H    -41.24032293   -138.05869696     35.67428076
 H    -41.98626642   -138.67873144     34.18183571
 H    -44.24614469   -138.28978537     34.99190540
 H    -43.55910212   -138.07459962     36.61976727
 H    -42.45598180   -140.36047772     36.29416619
 H    -43.53933375   -140.55841987     34.89579781
 H    -45.46957950   -140.07663755     36.49768231
 H    -44.29293760   -140.31565079     37.81170407
 H    -43.59926420   -142.48843648     37.05073467
 H    -45.02717012   -142.51439773     35.98834238
 H    -46.68806918   -142.15619459     36.35968960
 H    -46.37863233   -142.44823706     38.08804914
 H    -45.32148278   -144.57664360     37.73809021
 H    -45.96757978   -144.56675075     36.07955849
 H    -47.88085343   -144.21955699     35.86738591
 H    -48.17236227   -144.60277429     37.58098848
 H    -46.72509234   -146.74296495     36.43357217
 H    -47.15001074   -145.88254689     34.93444183
 H    -48.93337102   -145.42345162     34.54527710
 H    -49.52986743   -146.61831595     35.72203448
 H    -48.45863874   -148.47789223     35.19593234
 H    -48.00500315   -147.77345538     33.62550241
 H    -50.28352745   -147.17672519     33.06155736
 H    -50.82625714   -148.23074868     34.38924167
 H    -49.43526672   -150.07548094     33.27474111
 H    -49.34730113   -148.99587178     31.86230606
 H    -51.91051436   -148.94104297     31.95057232
 H    -51.78598381   -150.31515689     33.07510322
 H    -50.59289624   -151.82086716     32.14947957
 H    -50.80310319   -151.03547045     30.56605553
 H    -53.11806633   -150.86385890     30.56690684
 H    -53.17654791   -152.01818381     31.92056136
 H    -52.16186909   -153.69884246     31.67120341
 H    -52.09396752   -153.43285969     29.91253652
 H    -54.01653663   -153.00738899     29.18485141
 H    -54.74451876   -153.63925156     30.68119975
 H    -53.55111050   -155.73453251     30.57962922
 H    -53.13151894   -155.35006821     28.89309526
 H    -55.21038874   -154.92014168     28.04148356
 H    -55.93689327   -155.68252666     29.47648425
 H    -54.88989030   -157.67081482     29.54273768
 H    -54.33519987   -157.42594075     27.86923181
 H    -56.29782766   -156.94358291     26.82782173
 H    -57.18430282   -157.56331773     28.24145437
 H    -55.86342589   -159.69915602     28.06777959
 H    -55.35631472   -159.14302637     26.45476231
 H    -57.28483555   -158.69826252     25.43480315
 H    -58.15621530   -159.61097566     26.69015917
 H    -56.62483940   -161.56146306     26.26541167
 H    -56.11548019   -160.71763640     24.78325904
 H    -57.75376915   -160.18517073     23.62883596
 H    -58.78644476   -161.32208279     24.52843515
 H    -57.63152418   -163.22921702     24.44549392
 H    -56.62300627   -162.55748808     23.14167701
 H    -58.34374429   -161.88253421     21.71588436
 H    -59.47673318   -162.87738878     22.66185859
 H    -58.17676127   -164.88237052     22.50056509
 H    -57.22969443   -164.10576255     21.20897262
 H    -59.22068124   -163.40417456     19.96961938
 H    -60.05480530   -164.55688958     20.72495684
 H    -57.43560960   -163.66052192     19.17033898
 H    -58.80538681   -162.53601830     19.33607577
 H    -60.13304827   -164.29553534     17.98146894
 H    -58.55150551   -165.02985854     17.62403557
 H    -57.82276626   -162.75895796     16.74045228
 H    -59.54470494   -162.30881027     16.78165268
 H    -60.36636020   -161.79039821     17.37891457
 H    -60.82761080   -162.75537655     15.95612458
 H    -59.09489616   -161.37468725     14.66276788
 H    -59.08042079   -160.28701684     16.07167888
 H    -61.53412498   -160.00602339     15.93648208
 H    -61.45115006   -160.73916614     14.31664149
 H    -59.76710802   -159.12404399     13.56859066
 H    -60.15621463   -158.15461847     15.00979741
 H    -62.44625388   -157.98770322     14.72731245
 H    -62.25468991   -158.54109346     13.04644090
 H    -60.68717861   -157.11814283     12.26575779
 H    -60.96503639   -156.05777705     13.66814366
 H    -63.47591963   -156.25510455     12.81550899
 H    -62.75298616   -156.95954600     11.34942710
 H    -61.27851399   -155.18717971     10.87552742
 H    -62.18544543   -154.17351959     12.02367167
 H    -64.15861684   -155.04924908     10.37068812
 H    -62.80124104   -155.58213086      9.34998512
 H    -61.66763328   -153.58988754      9.14621621
 H    -63.10591805   -152.73377481      9.75175280
 H    -64.42986498   -153.92572637      7.92959988
 H    -62.85595123   -154.36424917      7.22337050
 H    -62.18291279   -151.97169046      7.19167911
 H    -63.89045755   -151.57226179      7.49666158
 H    -64.03930948   -153.14092835      5.26706398
 H    -62.27559657   -152.90433096      5.22700008
 H    -62.18396766   -150.61030713      5.24692211
 H    -63.91107805   -150.55689185      4.83041671
 H    -60.87573266   -151.46230482      4.67914155
 H    -61.39014363   -150.20834946      5.83293700
 H    -62.18129965   -148.59712447      4.50373457
 H    -61.38446432   -149.36281869      3.10837351
 H    -59.23241274   -149.30184693      4.48900351
 H    -60.09902372   -148.19834257      5.58423418
 H    -60.93042982   -146.61049091      4.59111089
 H    -59.89525600   -146.92001203      3.17658676
 H    -57.84420266   -147.00268294      4.29184112
 H    -58.62295014   -146.26832162      5.71399881
 H    -59.41551282   -144.42126337      4.11788448
 H    -58.25276235   -145.09278860      2.94941031
 H    -56.34427543   -145.18652305      3.92878449
 H    -56.92685378   -144.08253784      5.19767605
 H    -57.78673311   -142.37886799      4.26750975
 H    -56.99482067   -142.79818950      2.72955304
 H    -54.89407121   -143.10718758      3.20799695
 H    -55.12268730   -142.29105309      4.77322085
 H    -56.11199263   -140.36054057      4.14585681
 H    -55.62329047   -140.66885673      2.46229570
 H    -53.24050439   -140.94247615      3.43538532
 H    -53.90253124   -140.22560739      4.92403783
 H    -54.77539785   -138.27351822      3.92542809
 H    -53.80776813   -138.62903357      2.47437046
 H    -51.74629874   -138.89622789      3.32161173
 H    -52.27871344   -138.13405645      4.83947074
 H    -53.17809724   -136.18020108      3.82718373
 H    -52.32147091   -136.61496964      2.32870640
 H    -50.22216670   -136.70839927      3.87344979
 H    -51.24278206   -135.89245535      5.08210461
 H    -51.73482397   -134.08163305      3.43521964
 H    -50.39665243   -134.72785265      2.45544220
 H    -48.95543679   -134.46635061      4.56662758
 H    -50.29368869   -133.48927919      5.21676600
 H    -50.32200777   -131.97992860      3.32695833
 H    -48.73927197   -132.63964437      2.84947624
 H    -48.04555230   -132.01143240      5.28466740
 H    -49.56574100   -131.08686413      5.33433143
 H    -49.36824767   -129.76944129      3.51410041
 H    -47.63119525   -130.15046873      3.43837952
 H    -47.40638539   -129.45788615      5.83820832
 H    -49.02469878   -128.73256411      5.68577344
 H    -48.51152939   -127.39971782      3.78352555
 H    -46.78497882   -127.70526457      4.09000716
 H    -46.90383184   -126.95934288      6.39121495
 H    -48.49168595   -126.24730285      6.01706929
 H    -47.29577503   -125.02524932      4.09836736
 H    -45.77822774   -125.52495254      4.88297784
 H    -46.45333074   -124.51863016      7.01854966
 H    -47.74471689   -123.67386982      6.13143724
 H    -45.88689329   -122.80447079      4.58875624
 H    -44.74714385   -123.38508522      5.82654651
 H    -45.61824802   -122.28705109      7.66651785
 H    -46.55942023   -121.24756498      6.57019210
 H    -44.72001248   -120.56302523      5.23522483
 H    -43.62803891   -121.19397692      6.49131414
 H    -44.89662994   -119.75335732      8.15965317
 H    -45.61235136   -118.93654438      6.74939570
 H    -44.26211073   -118.26762369      5.41257200
 H    -42.95955829   -118.40119087      6.61830149
 H    -43.86901038   -117.26938391      8.36747176
 H    -45.09449971   -116.58753912      7.27132840
 H    -43.16918419   -115.82066278      5.79088011
 H    -42.10421176   -116.19074291      7.16824756
 H    -42.89797507   -115.13419352      8.87284811
 H    -43.88662439   -114.11799194      7.79666341
 H    -41.80250882   -113.57583789      6.48873494
 H    -40.88495171   -114.26967272      7.84702388
 H    -41.35412847   -113.52430796      9.64445923
 H    -42.14031618   -112.11757424      8.88863134
 H    -40.38529455   -111.48947133      7.47936726
 H    -39.29848449   -112.54493526      8.41376891
 H    -39.81116917   -111.63753841     10.53796043
 H    -40.57918366   -110.25670444      9.71837641
 H    -38.53764508   -109.84165316      8.39140597
 H    -37.68199018   -110.93262175      9.50760886
 H    -38.44934604   -109.61054451     11.45408520
 H    -38.92361988   -108.33766456     10.30382105
 H    -37.25928247   -107.88986643      9.06611438
 H    -36.16767655   -108.70863447     10.20904135
 H    -36.30136508   -108.24259801     12.08908749
 H    -37.16905036   -106.74117406     11.68769611
 H    -36.08356511   -105.70688852     10.19041912
 H    -34.64304427   -106.69694061     10.52651917
 H    -35.35153590   -105.71395056     12.99734737
 H    -36.41636181   -104.66000197     12.03630376
 H    -35.13484167   -103.66924428     10.58939552
 H    -33.69768764   -104.13556920     11.53035036
 H    -33.90325173   -103.62308928     13.52293071
 H    -35.24033365   -102.51747373     13.12532179
 H    -34.12455888   -101.32135440     11.42983662
 H    -32.59003382   -102.02468181     11.99448701
 H    -33.30552337   -101.08706622     14.31354218
 H    -34.53779051   -100.16970408     13.41452544
 H    -33.03036873    -99.13540161     11.90328715
 H    -31.69092232    -99.63064313     12.96577753
 H    -33.03635535    -98.43769957     14.83360216
 H    -34.00939421    -97.74562988     13.51356369
 H    -32.47849777    -96.80813639     12.19098795
 H    -31.27984433    -96.92438051     13.50170679
 H    -32.69378109    -95.82025804     15.11890121
 H    -33.73233585    -95.29820922     13.77088945
 H    -32.06193873    -94.30362170     12.46283444
 H    -30.97913937    -94.34227565     13.87503772
 H    -32.25827395    -93.32677285     15.44629432
 H    -33.33891022    -92.73031053     14.16382615
 H    -31.71095297    -91.73904560     12.81090474
 H    -30.56187599    -91.85052318     14.16569680
 H    -31.55277858    -90.94086967     15.87096185
 H    -32.74782080    -90.18972400     14.78656296
 H    -31.18998111    -89.18520251     13.32149754
 H    -29.91810094    -89.48682724     14.52964075
 H    -30.75600203    -88.59845064     16.39110083
 H    -31.96988143    -87.72574808     15.42510202
 H    -30.06648844    -86.81932085     14.01896328
 H    -28.97696771    -87.40667109     15.29811571
 H    -30.33826694    -86.06818124     16.95865096
 H    -29.63325006    -84.96228497     15.44590198
 H    -28.95359801    -84.60631725     14.60240902
 H    -28.19272112    -85.00476489     16.16143837
 H    -29.95524835    -83.40140345     17.17685031
 H    -30.25982602    -82.87995674     15.50245715
 H    -28.39643325    -82.31131817     14.63687320
 H    -27.65533079    -82.22298295     16.25280350
 H    -29.64755083    -80.68379410     16.84617061
 H    -29.95328529    -80.61368753     15.09406383
 H    -27.81762094    -79.91025045     14.43622054
 H    -27.46789123    -79.49565630     16.13152802
 H    -29.48681621    -78.10912827     16.29772064
 H    -29.59734771    -78.18134598     14.52266176
 H    -27.37809765    -77.40946087     14.12233625
 H    -27.30147493    -76.88806131     15.82249451
 H    -29.26447082    -75.59315554     15.81924767
 H    -29.25465556    -75.64700147     14.04012683
 H    -26.85022644    -74.76194033     14.19351649
 H    -27.21132897    -74.41252977     15.90108315
 H    -29.16078104    -73.10597313     15.44753431
 H    -28.65344730    -73.02760201     13.74320538
 H    -26.41324215    -72.14708953     14.57754104
 H    -27.21367818    -71.91071245     16.14970347
 H    -29.00776144    -70.65999653     15.55188953
 H    -28.23641629    -70.32552189     13.98299819
 H    -26.17834543    -69.54843928     14.89397779
 H    -26.97803224    -69.42570329     16.47944414
 H    -28.72497584    -67.97973729     15.20489992
 H    -27.53355604    -67.94239781     13.88301063
 H    -25.69624353    -67.16934658     14.97599659
 H    -26.73236080    -66.66525267     16.33269000
 H    -28.25748818    -65.40360134     15.01346783
 H    -27.08546218    -65.46852203     13.67540691
 H    -25.20066235    -64.78560272     14.43922087
 H    -26.01468024    -64.08611336     15.85920544
 H    -27.61197344    -62.84380514     14.54081429
 H    -26.59342089    -63.15612702     13.11488567
 H    -24.57725759    -62.34691735     14.00083201
 H    -25.50252215    -61.57153025     15.30885610
 H    -27.04336308    -60.39225834     14.19814415
 H    -26.10508638    -60.58790581     12.69826896
 H    -24.13716819    -59.63654811     14.11863771
 H    -25.38644931    -59.19425889     15.30689003
 H    -26.70534174    -57.94732974     13.72106106
 H    -25.31051324    -57.98239477     12.61585040
 H    -23.91708248    -57.00660754     14.49691858
 H    -25.45685257    -56.66201847     15.32071050
 H    -26.40036913    -55.44274403     13.48471248
 H    -24.77326151    -55.36157498     12.76763575
 H    -23.60498743    -54.48679134     14.54053090
 H    -25.14641215    -54.03970766     15.31020141
 H    -25.87131776    -52.84384579     13.27091664
 H    -24.18705888    -52.94749621     12.70452872
 H    -22.91899927    -52.17527157     14.22609269
 H    -24.31376868    -51.40624342     15.02075027
 H    -25.27806043    -50.27006408     13.35905195
 H    -23.80311031    -50.45718233     12.38039185
 H    -22.45435531    -49.52261468     14.27024570
 H    -23.99432644    -48.99852415     14.99279998
 H    -24.78189964    -47.80437337     13.11154756
 H    -23.13849895    -47.86984716     12.43094927
 H    -21.62555055    -47.60948088     12.96730013
 H    -22.28041973    -46.56930160     14.25471618
 H    -23.64787010    -45.19801510     13.12030217
 H    -22.87581161    -45.69935079     11.59686695
 H    -21.00797242    -45.70612222     11.40109153
 H    -20.82751217    -44.61406124     12.79504403
 H    -22.11323114    -42.97231923     12.58754253
 H    -22.32955347    -43.33421410     10.85823532
 H    -20.23225940    -43.51510175     10.11499356
 H    -19.64262375    -42.73003778     11.59967232
 H    -20.67763858    -40.94886264     11.93856449
 H    -21.26054902    -40.94247439     10.25676745
 H    -19.08277794    -41.22157323      9.28992041
 H    -18.38244486    -40.80848564     10.87332147
 H    -19.47293396    -38.81494968     11.26047564
 H    -19.94927846    -38.76801630      9.54607783
 H    -17.87483405    -39.05100605      8.57491634
 H    -17.11608397    -38.68060176     10.14187698
 H    -18.29638571    -36.61606521     10.45323342
 H    -18.76339727    -36.68258348      8.73691696
 H    -17.03200213    -36.96073778      7.55993471
 H    -16.00162205    -36.47985415      8.92936323
 H    -16.91251488    -34.53552480      9.56947779
 H    -17.80330972    -34.45292303      8.03067041
 H    -15.87557525    -34.76627622      6.65026877
 H    -14.86117252    -34.43053960      8.07383285
 H    -15.84386858    -32.38482225      8.66905952
 H    -16.62298745    -32.33241892      7.06953010
 H    -14.41627729    -32.65679172      5.96825660
 H    -13.66987073    -32.28633122      7.54112116
 H    -14.72067686    -30.25584350      7.95232603
 H    -15.22202008    -30.20047555      6.24532397
 H    -12.77201035    -30.54667230      5.64050375
 H    -12.41048832    -30.17464548      7.34319707
 H    -13.67167650    -28.02449835      7.12108197
 H    -13.62476681    -28.28187461      5.36045038
 H    -11.38682524    -28.57729902      5.03679563
 H    -11.08029878    -27.91351208      6.65966195
 H    -12.20084476    -25.97432931      6.61691974
 H    -12.31309787    -26.08485092      4.84394177
 H    -10.03630561    -26.41737345      4.40886646
 H     -9.67580510    -25.89756516      6.07262888
 H    -10.68557594    -23.97706079      6.31559341
 H    -10.87502238    -23.84625422      4.55058170
 H     -9.18148366    -24.14782059      3.51076190
 H     -8.20243954    -23.89014564      4.97477791
 H     -9.00936867    -21.94275916      5.75395273
 H     -9.79293123    -21.64750231      4.18324596
 H     -7.97664642    -21.94781852      2.79443081
 H     -6.90346762    -21.83106715      4.20967745
 H     -7.79306166    -19.75480327      4.98821701
 H     -8.58660060    -19.55634616      3.40733833
 H     -6.18588350    -19.92755992      2.45745401
 H     -5.63307187    -19.69051635      4.13270811
 H     -6.65796234    -17.61732999      4.50569491
 H     -6.91963360    -17.46799622      2.75141608
 H     -4.85915606    -17.82071025      1.92745367
 H     -4.17479277    -17.56978001      3.55132176
 H     -4.78302423    -15.89642744      4.46778061
 H     -5.34299112    -15.21749419      2.92060467
 H     -3.37302445    -15.56536205      1.70071924
 H     -2.51473562    -15.85618897      3.23272010
 H     -3.26390046    -13.77483789      4.22215970
 H     -3.76726740    -13.25178774      2.59694988
 H     -2.11886102    -13.49069929      1.27540230
 H     -1.00792941    -13.62552957      2.65956934
 H     -1.33309314    -12.01168827      3.97502179
 H     -2.21845213    -11.13137083      2.70638184
 H      0.09936826    -11.74534410      1.43268524
 H      0.65967948    -12.17596011      3.06635836
 H      0.32005760    -10.45710298      4.32018404
 H      0.11727511     -9.43176329      2.87941188
 H      2.05531577     -9.99017085      1.75328417
 H      2.68617465    -10.72038008      3.24897070
 H      2.20234784     -8.54672630      4.43577920
 H      1.99113911     -7.82539061      2.82229467
 H      3.99846007     -8.44375084      1.86911762
 H      4.62115689     -8.83669756      3.48964476
 H      4.03777590     -6.65318149      4.38821029
 H      3.80900402     -6.09416937      2.71386398
 H      5.57044656     -6.57178057      1.61091161
 H      6.46824490     -6.82793765      3.12636810
 H      6.00186482     -4.88215511      4.22370694
 H      5.42706790     -4.17603922      2.69423790
 H      7.39419738     -4.69172022      1.45014253
 H      8.22599244     -5.02087536      2.98898642
 H      7.86091950     -3.18886675      4.18673486
 H      7.36168476     -2.32562946      2.71233576
 H      9.12078692     -2.73827122      1.34069046
 H     10.07651010     -3.26705638      2.74612495
 H      9.32297353     -0.89082266      3.66112836
 H      8.81428750     -0.58313815      1.98338123
 H     10.72199045     -1.02669092      0.84669664
 H     11.63465971     -0.95438111      2.37315423
 H     10.57219265      1.33499723      2.74736877
 H     10.07450553      1.26163146      1.03997553
 H     12.54412449      0.85814750      0.49646056
 H     12.87746625      1.35959458      2.17148317
 H     11.80523531      3.39400319      2.18768011
 H     11.73301776      3.34684519      0.40980852
 H     13.76451434      2.95888320     -0.26083599
 H     14.38731886      3.39175079      1.34944562
 H     12.47958044      4.58621947     -0.87972512
 H     13.30800368      3.11649123     -1.44707025
 H     15.47860250      3.70464087     -1.24932733
 H     14.99209340      5.40958505     -1.09203500
 H     13.75159018      6.08495976     -2.48275239
 H     14.15140948      4.71582785     -3.54759464
 H     15.64249079      4.01845637     -3.98434710
 H     16.48173775      5.52590415     -3.54670295
 H     15.55093911      7.17119260     -4.39918270
 H     14.67989957      6.11712934     -5.53870340
 H     16.99071419      5.10532608     -6.08196224
 H     17.66469602      6.49300653     -5.27820156
 H     15.59194536      5.66444521     -7.55113178
 H     16.53995230      4.30292081     -6.90630557
 H     18.61460927      5.55383247     -7.73564113
 H     17.48778073      6.58679260     -8.64751694
 H     16.20160239      5.49436148     -9.81176151
 H     17.24855414      4.06192217     -9.66936652
 H     19.10029655      5.75729799    -10.47511483
 H     17.73522086      6.82971983    -10.86849304
 H     16.65020496      5.16332460    -12.26495580
 H     18.17338418      4.24260059    -12.24353168
 H     19.14667507      6.55315581    -13.10034237
 H     17.44224975      6.99848636    -13.35506126
 H     17.16355668      4.94697962    -14.77949067
 H     18.93961737      4.83024557    -14.79524751
 H     19.58644013      6.83949747    -15.49218822
 H     17.93058017      7.17651257    -16.05148716
 H     17.44920221      5.40874533    -17.31916670
 H     19.17565054      4.97851344    -17.36959843
 H     20.00417395      7.04296896    -18.07649332
 H     18.34765089      7.52286163    -18.51683526
 H     17.26582889      6.39589324    -19.58199415
 H     18.69821539      5.50236038    -20.14602836
 H     19.61013007      7.88569985    -20.71376373
 H     17.93863587      8.43719002    -20.44874979
 H     16.98726498      6.88576952    -22.02849685
 H     18.63002307      6.59366570    -22.64840643
 H     19.07301836      8.94488302    -23.02298559
 H     17.32958707      9.24480489    -22.82610774
 H     16.78513192      7.56607540    -24.54908752
 H     18.50330144      7.59442686    -25.01315256
 H     17.77930377     10.23196009    -25.16521557
 H     16.13126626      9.57531486    -25.02010846
 H     17.43120012      8.36555646    -27.24276456
 H     18.60493181      9.66235542    -26.91271449
 H     17.05758755     11.45209458    -27.07200768
 H     15.90297916     10.33123728    -27.83281321
 H     17.20574031      9.49084864    -29.51847585
 H     18.36301291     10.81861880    -29.26154550
 H     17.18294289     11.93402973    -30.76047338
 H     15.50510670     11.10974431    -30.13379263
 H     16.53384837     10.18625005    -31.71239558
 H     17.61365956     11.59367953    -31.85874008
 H     15.83619169     13.19745362    -31.99770687
 H     14.71106121     11.84999199    -32.29214741
 H     15.54494422     10.70968638    -33.93610193
 H     16.62347197     12.06622524    -34.34211530
 H     15.25479282     13.80599093    -34.47983995
 H     13.86101363     12.70198780    -34.56244339
 H     15.11027271     11.55687039    -36.49653737
 H     16.17448634     12.98365546    -36.49716777
 H     14.36323195     14.55673803    -36.72288800
 H     13.71887710     14.18279494    -36.50736240
 H     12.71140592     13.58530847    -35.74518716
 H     12.50723244     12.50818844    -36.72525776
 H     12.54736338     11.63258354    -37.76620514
 H     11.90566128     13.00988559    -38.69331039
 H     10.22266487     13.75522677    -37.48514639
 H     10.07200929     11.69433215    -37.38470542
 H      8.77107560     11.40722514    -37.64847747
 H      8.87977543     12.09829369    -38.80150588
 H      7.95674318     11.76767841    -39.51749838
 H      7.57625838     11.12857395    -38.23349577
 H      6.33253133     11.17173224    -39.16077315
 H      6.88491455     11.37955720    -40.06507123
 H      5.67659140     10.84455840    -40.51605109
 H      5.25753263     10.70104223    -39.05097765
 H      4.74072492     10.40595876    -41.09083071
 H      5.55803034      9.69197165    -40.90431625
 H      5.67223628      8.69223393    -41.48669376
 H      5.45478710      8.64778250    -41.51615649
 H      4.52900635      8.44117632    -43.02303266
 H      5.29719692      7.76338548    -42.37151887
 H      4.82894229      6.80180999    -43.27489627
 H      4.23108307      7.27794409    -43.69141161
 H      4.01094932      6.98998139    -44.94132583
 H      4.67520596      6.03618276    -44.33407129
 H      3.51852019      6.07406557    -45.79924448
 H      3.50894096      6.18323069    -45.83531455
 H      3.44589776      5.47662393    -46.97669073
 H      3.98019728      4.39335523    -45.97414583
 H      5.12521106      4.69216681    -47.08449718
 H      4.27717838      3.53419205    -46.70524793
 H      5.14359893      2.68987147    -47.05417228
 H      5.91220995      3.60553076    -47.58168603
 H      6.85902805      2.91529124    -47.92752286
 H      6.49926620      2.07603890    -47.39261170
 H      7.05162535      1.04532935    -47.81015426
 H      7.58684590      1.80861554    -48.46594231
 H      7.88694913      2.05248031    -49.54397411
 H      7.05584590      0.56022406    -49.04326924
 H      8.69194696      0.91370478    -48.43788396
1502
Final Conformation Chain 10 (Simulation Frame 11)
 C      0.00000000      0.00000000      0.00000000
 C      1.54000000      0.00000000      0.00000000
 C      2.16637443      1.40608071      0.04681983
 C      3.68498218      1.42410671     -0.20833811
 C      4.34700002      2.79074828      0.04783216
 C      5.88641360      2.74919760      0.05674129
 C      6.54968094      4.13358788      0.17978602
 C      8.08397741      4.10680671      0.05010523
 C      8.58834226      3.61557261     -1.31953163
 C     10.09964348      3.32275417     -1.36226341
 C     10.97944075      4.50353382     -0.91135746
 C     12.47117587      4.34125583     -1.25775633
 C     13.16668633      5.65430730     -1.66243029
 C     14.56742160      5.45915369     -2.27190200
 C     15.46030092      4.47890697     -1.48865052
 C     16.83762444      4.23470814     -2.13281421
 C     17.91432475      3.74978304     -1.14429811
 C     19.31994082      3.62462096     -1.76088379
 C     20.33473351      2.89240660     -0.86329928
 C     21.79973622      3.06171259     -1.30681087
 C     22.79950150      2.20732770     -0.50550205
 C     24.18496578      2.08027533     -1.16576445
 C     25.00594219      0.87453798     -0.67200826
 C     26.53013141      1.08008448     -0.75073473
 C     27.32919498      0.23403139      0.25787400
 C     28.73209479     -0.16768826     -0.23415591
 C     29.44556737     -1.18776119      0.67249072
 C     30.49386619     -2.04842122     -0.05684727
 C     31.12976082     -3.14050090      0.82326635
 C     32.34618849     -3.83299616      0.18111835
 C     32.81198112     -5.09807643      0.92557059
 C     34.16237392     -5.65222711      0.43469759
 C     34.44694636     -7.09747489      0.88400526
 C     35.78833225     -7.27195023      1.62010461
 C     36.01961752     -8.69061714      2.17281730
 C     37.48486705     -8.98784916      2.54200144
 C     37.71443706    -10.40300358      3.10434971
 C     39.19761682    -10.76113100      3.31297031
 C     39.42292148    -12.03340301      4.15092123
 C     40.90615429    -12.36846726      4.39454468
 C     41.13165441    -13.64796111      5.22137307
 C     42.60368562    -13.89930677      5.59760370
 C     42.86006908    -15.27580265      6.23879526
 C     44.34230804    -15.69333209      6.25418460
 C     44.58956231    -17.10510596      6.81753163
 C     46.07864293    -17.46343395      6.97827975
 C     46.33733989    -18.66294402      7.90879115
 C     46.42480270    -20.01546752      7.17760688
 C     46.38650160    -21.23740915      8.11408521
 C     46.71318261    -22.57122933      7.41708933
 C     46.75656086    -23.78114482      8.36883659
 C     47.28260295    -25.07298310      7.71612411
 C     47.22131389    -26.30825476      8.63370113
 C     47.32965990    -25.97981207     10.13436316
 C     47.42419718    -27.22042294     11.04185827
 C     47.58787141    -26.89151344     12.53739473
 C     47.35829311    -28.09381382     13.47193610
 C     47.96184112    -27.91855534     14.87785725
 C     48.58302530    -29.20301672     15.45741671
 C     49.52515703    -28.95978759     16.65107805
 C     50.40238078    -27.70188599     16.51050047
 C     51.44717564    -27.53853704     17.63001859
 C     52.07477949    -26.13401788     17.70100682
 C     53.61287359    -26.13837921     17.77747603
 C     54.23537598    -24.74049310     17.95069612
 C     55.71784559    -24.76221014     18.36712407
 C     56.17080137    -23.50739991     19.13646297
 C     57.64690334    -23.53991947     19.57425910
 C     58.15195007    -22.21411707     20.17323806
 C     59.66429527    -22.19358541     20.46304907
 C     60.23137051    -20.78740488     20.73264505
 C     61.69443683    -20.78358800     21.21329293
 C     62.27553157    -19.37559577     21.44019988
 C     61.92438486    -18.36679650     20.33086673
 C     61.91026183    -16.89996219     20.79969255
 C     61.34174946    -15.91571535     19.76062958
 C     61.32305706    -14.44953468     20.23133632
 C     60.97425547    -13.43992590     19.12199977
 C     59.46239962    -13.22144549     18.92665854
 C     59.11520236    -12.10913487     17.91977268
 C     59.57564143    -12.40181610     16.47965686
 C     59.22085629    -11.29338938     15.47113432
 C     59.84375048    -11.49236564     14.07685628
 C     59.38277323    -10.45954824     13.03168252
 C     59.88789714    -10.74393467     11.60494702
 C     58.85174837    -10.45172551     10.50376151
 C     57.53364431    -11.23244281     10.66086722
 C     56.38656048    -10.70931145      9.77648480
 C     55.00263411    -11.27454587     10.14642782
 C     53.87207050    -10.83359977      9.19827569
 C     52.51158950    -10.63967164      9.89331766
 C     52.00676243    -11.88762736     10.64121882
 C     50.49440744    -11.87488087     10.93142552
 C     49.62942350    -11.45318266      9.72910551
 C     48.13793422    -11.80761658      9.87551704
 C     47.24348201    -11.22344110      8.76633074
 C     45.73732842    -11.27728899      9.08287736
 C     44.87954882    -10.34487827      8.20742067
 C     43.37653907    -10.68009691      8.22121121
 C     42.55174365     -9.90244366      7.17882552
 C     41.02927957     -9.98820790      7.39411046
 C     40.23107636     -8.88973888      6.66758623
 C     38.71158034     -8.95597770      6.90913177
 C     37.92347113     -7.80242522      6.26121158
 C     36.41731400     -7.81501869      6.58204190
 C     35.59646642     -6.79178890      5.77531392
 C     34.07295188     -6.93417426      5.94918128
 C     33.24801648     -6.13039628      4.92691784
 C     31.76850565     -5.95378693      5.31609242
 C     30.96873948     -5.06104798      4.34914297
 C     29.56618668     -4.68306358      4.86058549
 C     28.82162961     -3.67809886      3.96209750
 C     27.58963190     -3.03651504      4.62704249
 C     26.69431058     -2.24529746      3.65545900
 C     25.39530504     -1.71576887      4.29089904
 C     24.49470428     -0.93409375      3.31647496
 C     23.15163160     -0.48929295      3.92467562
 C     22.51523621      0.72260416      3.21905086
 C     21.18686931      1.18578380      3.84555384
 C     20.36097433      2.12090695      2.94275698
 C     18.98197547      2.49138948      3.51956270
 C     18.34948198      3.74019520      2.87766220
 C     16.97790742      4.12027125      3.46581645
 C     16.27835471      5.27651272      2.72735069
 C     14.77960386      5.41271870      3.05414391
 C     14.06187029      6.51585752      2.25442942
 C     12.52529880      6.44309497      2.32691168
 C     11.80821693      7.57912515      1.57403121
 C     10.30732534      7.32578659      1.34005684
 C      9.54194046      8.54919600      0.80241813
 C      8.00996414      8.41515266      0.88415519
 C      7.24547580      9.66180344      0.40143434
 C      5.73625607      9.62796620      0.70591891
 C      5.00575974      8.40663795      0.11741876
 C      3.50769436      8.64210173     -0.15082912
 C      2.80912712      7.47383024     -0.87106905
 C      1.34553426      7.76010980     -1.25517832
 C      0.61831237      6.56013958     -1.88985918
 C     -0.86337884      6.82602060     -2.21466440
 C     -1.45383131      5.87337304     -3.27080289
 C     -2.84517695      6.29043442     -3.78248357
 C     -3.92515548      6.34564105     -2.68603539
 C     -5.36410036      6.43159914     -3.22792913
 C     -6.45026045      6.20917242     -2.15910612
 C     -7.83938333      6.74134933     -2.55750963
 C     -8.93590986      6.47656583     -1.50912075
 C    -10.33504431      6.96384737     -1.92933439
 C    -11.42869226      6.71282464     -0.87457293
 C    -12.74030337      7.47546248     -1.13850441
 C    -13.99838890      6.75758537     -0.61555771
 C    -15.30492672      7.20921007     -1.29422853
 C    -16.57063474      6.54553805     -0.72053641
 C    -17.87848554      7.27387820     -1.08198753
 C    -19.15076419      6.55443630     -0.59689950
 C    -20.27574126      7.50560584     -0.14823137
 C    -21.60524765      6.79686678      0.17067569
 C    -22.60637183      7.66626050      0.95394125
 C    -24.00377476      7.03561685      1.09938411
 C    -24.94151319      7.80309861      2.04976213
 C    -26.26332013      7.07239728      2.35059759
 C    -27.07868957      7.69916837      3.49686574
 C    -28.53293493      7.19889921      3.57749577
 C    -29.24948267      7.56527321      4.89048071
 C    -30.69334681      7.03796828      4.98432021
 C    -31.26651212      7.03244214      6.41367356
 C    -32.79579500      6.86162901      6.47463873
 C    -33.38837687      7.02379593      7.88678201
 C    -34.92028558      7.17986414      7.90910708
 C    -35.52971864      7.17632069      9.32338386
 C    -37.06168931      7.02074806      9.34490142
 C    -37.64789758      6.78718975     10.74968267
 C    -39.18556957      6.70881529     10.78165604
 C    -39.77372404      6.51560503     12.19174260
 C    -41.11544834      5.76000019     12.21265257
 C    -41.78059795      5.70289237     13.60042585
 C    -43.16114617      5.02050071     13.60574057
 C    -43.65618100      4.61934412     15.00774410
 C    -45.02542259      3.91452562     15.01063407
 C    -45.57795952      3.62510229     16.41866002
 C    -47.07467804      3.26331896     16.44203731
 C    -47.58447099      2.79496799     17.81766754
 C    -49.02836187      2.25969284     17.80155463
 C    -49.44519906      1.54294095     19.09928861
 C    -50.92349518      1.11248016     19.13001466
 C    -51.27477609      0.16065884     20.28856458
 C    -52.52026839     -0.70747191     20.03030518
 C    -52.79164335     -1.75519222     21.12585882
 C    -53.78174940     -2.85772864     20.70668887
 C    -54.47093781     -3.56336122     21.88935620
 C    -55.17738291     -4.87785131     21.50902592
 C    -56.15129993     -5.39878373     22.58220580
 C    -56.87003437     -6.70456139     22.19495199
 C    -57.55042717     -7.41939887     23.37718421
 C    -58.26579608     -8.72722921     22.99062615
 C    -58.73803438     -9.56251505     24.19515451
 C    -59.48681608    -10.85149761     23.80856697
 C    -60.17567370    -11.55485483     24.99278140
 C    -61.16097130    -12.66267271     24.57621424
 C    -61.58613476    -13.58928285     25.73043678
 C    -62.48031719    -14.76444594     25.29336759
 C    -62.97760853    -15.64020253     26.45842197
 C    -63.53298233    -17.00832409     26.02092529
 C    -64.08391345    -17.86023736     27.17951006
 C    -64.44107935    -19.30414089     26.78054248
 C    -64.79367390    -20.21415039     27.97182741
 C    -65.27098237    -21.62086443     27.56570888
 C    -65.94618973    -22.40646677     28.70523684
 C    -66.35696737    -23.83984572     28.32015693
 C    -66.92314694    -24.66502049     29.49068129
 C    -67.23566568    -26.12950234     29.13120259
 C    -68.40939301    -26.73257720     29.92509481
 C    -68.85431100    -28.12056890     29.42797610
 C    -69.76409106    -28.87697519     30.41374979
 C    -70.35692708    -30.17975605     29.84550029
 C    -71.16622093    -30.99818720     30.86863953
 C    -71.98586448    -32.14397001     30.24657346
 C    -72.91697217    -32.86036360     31.24227357
 C    -73.99228367    -33.73746276     30.57443956
 C    -75.01132211    -34.33854106     31.56027196
 C    -75.64212210    -35.65929490     31.08141846
 C    -76.77977581    -36.17324596     31.98319357
 C    -77.34547310    -37.54145849     31.55942353
 C    -78.18135049    -38.23835712     32.64902955
 C    -78.93391371    -39.48872846     32.15727746
 C    -79.45105921    -40.39452860     33.29027642
 C    -80.56561279    -41.36495726     32.85710376
 C    -81.98858248    -40.85956712     33.15932565
 C    -83.09743352    -41.63026855     32.41900905
 C    -84.51864922    -41.10922215     32.70230497
 C    -85.63839931    -42.02369896     32.17174687
 C    -87.03994560    -41.67091271     32.70354560
 C    -88.08183128    -42.78887399     32.51318592
 C    -89.38387295    -42.57340559     33.30682367
 C    -90.34687289    -43.77455505     33.26846905
 C    -91.83557706    -43.38625245     33.33615221
 C    -92.79911861    -44.53474922     32.98381310
 C    -94.25882134    -44.08780944     32.78105024
 C    -95.27149425    -45.24777555     32.75712961
 C    -96.66945777    -44.84844542     32.24935658
 C    -97.73435373    -45.94829179     32.41649287
 C    -99.03306504    -45.68724415     31.63112475
 C   -100.20807265    -46.59260125     32.04499145
 C   -101.41187648    -46.53394205     31.08633853
 C   -102.36974271    -47.73348994     31.20953421
 C   -103.54364602    -47.70257245     30.21324353
 C   -104.28979425    -49.04339062     30.08259343
 C   -105.72674428    -48.91077042     29.54483280
 C   -106.45767055    -50.25527129     29.37259989
 C   -107.97252966    -50.11832120     29.13167138
 C   -108.70017735    -51.46187820     28.93936060
 C   -110.23096591    -51.33498641     28.82897563
 C   -110.93735410    -52.63265082     28.39459927
 C   -112.43343044    -52.68269052     28.75633345
 C   -113.15552592    -53.94960354     28.26124808
 C   -114.41876992    -54.30579225     29.06681881
 C   -115.44715711    -55.14141896     28.28212282
 C   -116.78108528    -55.34981044     29.02293901
 C   -117.58784879    -56.56558429     28.53036761
 C   -118.88961447    -56.81309523     29.31506148
 C   -119.86721627    -57.77768312     28.61830836
 C   -121.13050443    -58.09174577     29.44114959
 C   -122.24062219    -58.79695211     28.63994888
 C   -123.54788223    -59.00198656     29.42775092
 C   -124.70992982    -59.55287792     28.58054132
 C   -125.88935928    -60.09268702     29.41069328
 C   -127.17875788    -60.31249761     28.59783748
 C   -128.32454712    -60.95420952     29.40218370
 C   -129.22615247    -61.88729158     28.57268648
 C   -130.30579380    -62.61164069     29.39809121
 C   -130.84644316    -63.89242270     28.73559916
 C   -131.21339501    -65.00671096     29.73325041
 C   -131.14515664    -66.42615273     29.13984617
 C   -131.67587579    -67.52430248     30.08006120
 C   -131.73532284    -68.92311882     29.43867295
 C   -131.91186962    -70.06963834     30.45155212
 C   -132.33251386    -71.40777144     29.81589636
 C   -132.78050360    -72.47190717     30.83497455
 C   -133.19066184    -73.81367638     30.20013158
 C   -134.07674317    -74.68985363     31.10499251
 C   -134.22122092    -76.14462943     30.62089173
 C   -135.00459877    -77.05169496     31.58792392
 C   -135.09048967    -78.52169321     31.13700497
 C   -135.97178322    -79.40367193     32.04090497
 C   -135.99190961    -80.88995475     31.63821612
 C   -136.63117282    -81.81532697     32.69018037
 C   -136.52017546    -83.31449237     32.35584119
 C   -136.89687994    -84.24607572     33.52282285
 C   -136.44870179    -85.70651232     33.32824304
 C   -136.94789154    -86.66623444     34.42430099
 C   -136.50728081    -88.12831378     34.22483625
 C   -136.92564922    -89.07025471     35.36908935
 C   -136.46818367    -90.52840415     35.17902224
 C   -134.96053869    -90.74640558     35.40503551
 C   -134.56492899    -92.22019373     35.61249991
 C   -133.05057450    -92.48209963     35.51382984
 C   -132.57664720    -92.89527092     34.10802672
 C   -131.05219766    -92.80502003     33.90925959
 C   -130.55504415    -93.42233786     32.58889711
 C   -129.06299324    -93.17066654     32.30246103
 C   -128.57209238    -93.76533802     30.96942608
 C   -127.05860760    -93.60743948     30.73271555
 C   -126.47634926    -94.60554165     29.71469429
 C   -124.96986273    -94.42456731     29.45135682
 C   -124.25846299    -95.70563021     28.97766043
 C   -122.74407358    -95.53554326     28.75563535
 C   -121.97995963    -96.86410296     28.60510636
 C   -120.51750330    -96.69772374     28.15218312
 C   -119.58847809    -97.84044410     28.60240785
 C   -118.11580326    -97.64767310     28.19538427
 C   -117.38197143    -96.55675256     28.99724662
 C   -115.95593859    -96.26299268     28.49551417
 C   -115.35118332    -94.96140674     29.05385556
 C   -114.12114911    -94.45807313     28.27586382
 C   -113.52325495    -93.15038908     28.82730282
 C   -112.10829555    -92.83943032     28.30500543
 C   -111.40816167    -91.68334546     29.04316553
 C   -110.12749006    -91.18208266     28.35018946
 C   -109.30894886    -90.18546707     29.19182338
 C   -108.08554584    -89.60379715     28.45933096
 C   -107.51926947    -88.32489392     29.10379788
 C   -106.26875283    -87.76860855     28.39785544
 C   -105.62929865    -86.56411202     29.11331784
 C   -104.33908154    -86.05208744     28.44640657
 C   -103.93349672    -84.63005516     28.87643579
 C   -102.52564452    -84.21287304     28.41220386
 C   -102.26105471    -82.69819542     28.49790055
 C   -100.81300287    -82.29532865     28.16257349
 C   -100.64181884    -80.80459601     27.81614566
 C    -99.21538164    -80.42294035     27.37886328
 C    -99.10099040    -79.00853414     26.78055756
 C    -97.66340387    -78.59994806     26.40907085
 C    -97.56690673    -77.25505198     25.66506626
 C    -96.14526198    -76.66471276     25.62005703
 C    -96.00093188    -75.44956791     24.68507478
 C    -94.70954453    -74.63990632     24.90499934
 C    -94.57387581    -73.41431909     23.98243229
 C    -93.31781279    -72.56456312     24.25042573
 C    -92.99921486    -71.54924826     23.13721815
 C    -91.55064040    -71.02709709     23.16151195
 C    -91.25481212    -69.95103285     22.10029973
 C    -89.93357829    -69.19332709     22.32794674
 C    -89.74345052    -67.97471692     21.40575332
 C    -88.57882122    -67.05441379     21.81597368
 C    -88.65177603    -65.64214956     21.20623002
 C    -87.49085957    -64.71964524     21.62199290
 C    -87.53248134    -63.32645866     20.96708926
 C    -86.50024027    -62.33557370     21.53649718
 C    -86.38997082    -61.02067240     20.74247248
 C    -85.16871560    -60.16169517     21.11969098
 C    -85.31824869    -58.67049745     20.76533348
 C    -84.00645801    -57.86942571     20.86067114
 C    -83.95955063    -56.63296716     19.94384512
 C    -82.57445780    -55.96458023     19.86399048
 C    -82.59128095    -54.56262919     19.22692669
 C    -81.21145592    -53.88055672     19.17732816
 C    -81.13545587    -52.69096222     18.20229538
 C    -79.77270029    -51.97372246     18.19427241
 C    -79.52233934    -51.11855688     16.93824247
 C    -78.10644126    -50.51776794     16.86152693
 C    -77.84026466    -49.70284945     15.58220762
 C    -76.42873438    -49.09114014     15.51153953
 C    -76.18164349    -48.22901491     14.25962652
 C    -74.77279935    -47.61069762     14.19297881
 C    -74.58061044    -46.61330373     13.03545177
 C    -73.18692738    -45.95925900     12.99707169
 C    -73.06104598    -44.81251166     11.97691268
 C    -71.79030257    -43.95938210     12.14715123
 C    -71.49303586    -43.03323760     10.95321284
 C    -70.29298260    -42.09348001     11.17304880
 C    -69.74655578    -41.46210583      9.87906875
 C    -68.39293196    -40.74870352     10.05330910
 C    -67.65276506    -40.47784248      8.73028709
 C    -66.30499488    -39.75320825      8.90355211
 C    -65.47939808    -39.64777069      7.60783885
 C    -64.16533792    -38.86022596      7.76474396
 C    -63.30651280    -38.81387090      6.48729704
 C    -62.19557538    -37.74780773      6.51774980
 C    -61.28986621    -37.75122269      5.27224619
 C    -60.39668392    -36.50328822      5.14385243
 C    -59.55563154    -36.46495109      3.85437147
 C    -58.71514294    -35.18471718      3.69256901
 C    -57.57353230    -35.31039110      2.66663958
 C    -56.67592031    -34.06259030      2.57237457
 C    -55.48586277    -34.21850513      1.60746338
 C    -54.44115463    -33.09210148      1.71423293
 C    -53.19335000    -33.31001799      0.83839277
 C    -52.16265965    -32.16880394      0.92150632
 C    -50.97962527    -32.32106781     -0.05258063
 C    -50.18776247    -31.02075408     -0.28439413
 C    -48.93615683    -31.19793124     -1.16399153
 C    -48.32881220    -29.87371551     -1.66317608
 C    -47.02140136    -30.04482757     -2.45878752
 C    -46.38938007    -28.71771347     -2.91804482
 C    -44.97747164    -28.86947555     -3.51393311
 C    -44.23721072    -27.53467547     -3.71868296
 C    -42.88596715    -27.67271091     -4.44441502
 C    -42.26424074    -26.33003735     -4.87136231
 C    -40.89189918    -26.46507973     -5.55695856
 C    -39.87838981    -25.37973849     -5.14899637
 C    -38.55102331    -25.43779743     -5.92766660
 C    -37.35150401    -24.84402090     -5.16596923
 C    -36.12704401    -24.55414344     -6.05381424
 C    -34.88955723    -24.06990845     -5.27551933
 C    -33.77612560    -23.48985006     -6.16737261
 C    -32.59145483    -22.89537062     -5.38331307
 C    -31.50527785    -22.26329534     -6.27342565
 C    -30.30205073    -21.70402290     -5.49172312
 C    -29.18216450    -21.13944797     -6.38542888
 C    -27.85921037    -20.87792144     -5.64179171
 C    -26.79376826    -20.16137786     -6.49208484
 C    -25.50022513    -19.82881457     -5.72543771
 C    -24.43924028    -19.10206558     -6.57263724
 C    -23.25032630    -18.56020844     -5.75748425
 C    -22.18235945    -17.84597159     -6.60654993
 C    -21.18999277    -17.00241793     -5.78482881
 C    -19.98343583    -16.49061307     -6.59345490
 C    -18.94437327    -15.72626704     -5.75219149
 C    -17.81776356    -15.08272093     -6.58176908
 C    -16.77169919    -14.32921402     -5.73940533
 C    -15.78256650    -13.49202920     -6.57147389
 C    -14.47905108    -13.14259743     -5.82962148
 C    -13.55583557    -12.18318209     -6.60344013
 C    -12.24037320    -11.85463264     -5.87322508
 C    -11.27330736    -10.97689514     -6.68928914
 C    -10.18069250    -10.29600960     -5.84419292
 C     -9.19365616     -9.44494411     -6.66458723
 C     -8.02594054     -8.87141714     -5.84050772
 C     -7.28868053     -7.70590933     -6.52581001
 C     -6.12557173     -7.12760445     -5.69856072
 C     -5.29569406     -6.06472984     -6.44233528
 C     -3.97237350     -5.70136733     -5.74348595
 C     -3.33383767     -4.39526949     -6.25140368
 C     -2.41957382     -3.70377664     -5.22302668
 C     -2.00676051     -2.27266898     -5.61432712
 C     -1.05551159     -1.59802501     -4.60855328
 C     -0.44328659     -0.27833312     -5.11372044
 C      0.52593714      0.38441424     -4.11724099
 C      1.26773382      1.60874118     -4.68500963
 C      2.43501212      2.09659412     -3.80690891
 C      3.16202143      3.33511194     -4.36290450
 C      4.27788183      3.87037871     -3.44641934
 C      4.89034620      5.20247208     -3.91760365
 C      6.03474071      5.71639147     -3.02438024
 C      6.93784871      6.76270657     -3.70351251
 C      8.15355171      7.18445585     -2.85746655
 C      9.23860392      7.93582297     -3.65100871
 C     10.28127186      8.64639048     -2.76809457
 C     11.34774333      9.42440899     -3.56114299
 C     12.50844191      9.95300349     -2.69802847
 C     13.78859498      9.10090508     -2.78010413
 C     14.88459412      9.51933979     -1.78245775
 C     16.29563616      9.03271888     -2.16161530
 C     17.19636205      8.71998494     -0.95228063
 C     18.68889022      8.57630705     -1.30344488
 C     19.62403472      8.58644279     -0.07992453
 C     20.01753985      7.18376771      0.41933126
 C     21.19107710      7.18022566      1.41652621
 C     21.89712971      5.81795695      1.54810765
 C     23.16800280      5.85248804      2.41718141
 C     23.73880626      4.46089319      2.74770705
 C     25.16645261      4.49028182      3.32438912
 C     25.64980481      3.13356547      3.86963347
 C     27.07134631      3.16668353      4.46100726
 C     27.61779911      1.78217294      4.85612721
 C     29.15416470      1.71519084      4.93794518
 C     29.73611388      0.31757688      4.65579209
 C     31.23777787      0.32159594      4.31434063
 C     31.87757585     -1.07893506      4.28656552
 C     33.41506138     -1.06360557      4.19994415
 C     34.05252030     -2.46376762      4.13071725
 C     35.53214373     -2.45795507      3.70377378
 C     36.26697764     -3.78427604      3.97301679
 C     37.63199451     -3.89816530      3.26919993
 C     38.40169549     -5.19021310      3.60051987
 C     39.75940088     -5.31172784      2.88395149
 C     40.49143039     -6.64022729      3.15007550
 C     42.02462976     -6.54291537      3.04316395
 C     42.75603157     -7.87398080      3.29795060
 C     44.17755965     -7.70868848      3.86675317
 C     45.08593910     -8.93289330      3.64819119
 C     46.54299364     -8.72019853      4.09913797
 C     47.55934368     -9.62881132      3.38285912
 C     47.35129335    -11.13160915      3.64727115
 C     48.55659422    -11.82365439      4.31053820
 C     48.22389234    -13.18495604      4.94910478
 C     49.22897924    -13.63403707      6.02601079
 C     49.07464250    -15.10587334      6.45201334
 C     49.60237800    -16.11629073      5.41656563
 C     49.35164591    -17.58823524      5.79354410
 C     50.13637239    -18.06012855      7.03173676
 C     49.93336824    -19.54821301      7.37231563
 C     50.93070717    -20.09485731      8.41062920
 C     50.52890639    -21.45571784      9.00913965
 C     51.42652616    -21.91819006     10.17189422
 C     50.73452724    -22.88418047     11.15148598
 C     51.69901859    -23.58563528     12.12581529
 C     51.03522352    -24.67473143     12.98885972
 C     51.81385580    -25.01783276     14.27245360
 C     53.17146848    -25.69895142     14.01835677
 C     53.11594615    -26.84098037     12.98671384
 H     -0.36333333      0.00000000      1.02766186
 H     -0.36333333     -0.88998127     -0.51383093
 H     -0.36333333      0.88998127     -0.51383093
 H      1.88274777      1.01481490     -0.20192744
 H      1.88274777      0.84956969     -0.59063975
 H      3.17811704      1.34411203     -0.35397535
 H      3.15015107      1.35877313     -0.42013362
 H      3.91407116      2.27218360     -0.85361621
 H      4.09871569      2.32291326      0.24890512
 H      5.23585893      2.63194857      0.65841589
 H      5.41379089      2.69840646     -0.15595750
 H      6.24062909      3.34899063      0.89512051
 H      6.24015684      3.33381960      0.90596614
 H      7.35925206      4.06243161      0.90616842
 H      7.57511008      4.05568500     -0.18149811
 H      8.34810557      3.41888664     -0.75307737
 H      8.35944437      4.62554041     -0.86811767
 H      9.49294058      4.16949780     -1.57046743
 H      9.63276093      3.32172660     -1.21491727
 H     10.59014022      4.13090831     -1.90484964
 H     10.56454458      3.79318534     -0.49585618
 H     11.80396993      4.10935402     -0.31732555
 H     11.64672239      4.76676380     -1.73205544
 H     12.67899947      4.92005433     -2.15770168
 H     12.99108288      5.25528314     -0.97078810
 H     14.19842391      5.61755970     -1.31276306
 H     14.14629044      5.68443015     -1.18538899
 H     15.24704787      5.15111493     -1.47734536
 H     14.74132604      4.39029825     -2.39602011
 H     15.84917052      3.73719032     -2.18631581
 H     16.49872297      4.67007443     -1.75926953
 H     17.24371411      5.19578814     -2.44827645
 H     17.37515947      3.50564068     -1.52650016
 H     18.45878493      2.92671015     -1.60713082
 H     18.74622215      4.45357518     -1.17119311
 H     19.50818510      4.51037205     -2.36760374
 H     19.68771357      2.61574950     -1.57374326
 H     19.85008231      2.00873124     -0.44817150
 H     20.62262913      3.56301834     -0.05367220
 H     21.96306047      4.10989027     -1.55730788
 H     21.96312853      2.44689818     -2.19191323
 H     22.38402632      1.20552125     -0.39657908
 H     23.80842968      2.47905224     -0.81587234
 H     24.92870673      1.95044088     -0.37957592
 H     24.10044939      1.39740936     -2.01113481
 H     24.34882509      0.00581495     -0.63179126
 H     25.37470474      1.09782606      0.32911942
 H     26.76140599      2.07688098     -0.37522333
 H     26.83244676      1.00616508     -1.79535971
 H     26.92311071     -0.77749401      0.25441828
 H     27.20413055      0.67237776      1.24798073
 H     29.19828975      0.70548566     -0.69058724
 H     28.62121476     -0.95293532     -0.98194778
 H     28.72991472     -1.96337100      0.94520065
 H     29.78160583     -0.67110958      1.57151756
 H     31.08484873     -1.39662672     -0.70027836
 H     29.96923249     -2.78320371     -0.66754702
 H     30.33723804     -3.62714295      1.39176187
 H     31.82899870     -2.66331678      1.50989704
 H     32.98011484     -3.06719281     -0.26585212
 H     31.98616108     -4.50620146     -0.59687579
 H     31.93219765     -5.68806496      1.18246467
 H     33.32226355     -4.79034003      1.83826449
 H     34.85175535     -4.81677444      0.31274644
 H     34.00424894     -6.13644782     -0.52895525
 H     33.54088132     -7.68596455      0.73969287
 H     34.66196796     -7.08816083      1.95254583
 H     35.89531830     -6.45654447      2.33548383
 H     36.59186748     -7.21861192      0.88553932
 H     35.73121215     -9.40875290      1.40522146
 H     35.38747798     -8.82368814      3.05076474
 H     37.88287255     -8.12946608      3.08317619
 H     38.04871274     -9.12935126      1.61996283
 H     37.16236800    -11.11111619      2.48637213
 H     37.32964239    -10.43333848      4.12371856
 H     39.69300083     -9.91058970      3.78123752
 H     39.64509839    -10.95017341      2.33720230
 H     38.72940941    -12.79948713      3.80414158
 H     39.21259474    -11.79833697      5.19428436
 H     41.42538136    -11.44892837      4.66463998
 H     41.32477097    -12.76366351      3.46897459
 H     40.46134255    -14.42119269      4.84601335
 H     40.88948930    -13.43088094      6.26172506
 H     43.03636300    -12.95801360      5.93650995
 H     42.90070651    -14.86655445      5.19225136
 H     42.31660959    -16.02727889      5.66605165
 H     42.48141090    -15.25378598      7.26067258
 H     44.58959610    -16.04268360      7.25663267
 H     44.62766434    -15.98177697      5.24251700
 H     43.84645013    -17.77915239      6.39144984
 H     45.33223137    -17.03189389      7.61200168
 H     46.59024715    -16.61043588      7.42409969
 H     46.49278322    -17.65916490      5.98920078
 H     45.57979506    -19.42092111      7.70955121
 H     46.18468466    -18.33762142      8.93784975
 H     47.03002473    -20.69249650      7.78046512
 H     45.41792886    -20.31189904      6.88361125
 H     45.60287866    -21.07727326      8.85461987
 H     47.35078119    -21.31464422      8.61637958
 H     47.57704543    -22.41745386      6.77041002
 H     46.30550035    -23.38218550      8.02061669
 H     45.89853081    -23.72146377      9.03840555
 H     47.67634679    -23.72635982      8.95115303
 H     48.16330841    -24.82386135      7.12418134
 H     46.50505718    -25.46777399      7.06216484
 H     46.25313259    -26.31561265      9.13437152
 H     46.91042170    -25.98272862      9.62641397
 H     46.65981769    -26.64447022     10.67992798
 H     48.36568542    -25.72281075     10.35504718
 H     48.12926330    -27.92026786     10.59330633
 H     46.43820874    -27.68203623     11.09514976
 H     46.89077103    -26.09286076     12.79097896
 H     48.60916043    -26.54859021     12.70314271
 H     47.87462651    -28.95734539     13.05263543
 H     46.28797614    -28.29565836     13.51413033
 H     47.72731472    -26.91356159     15.22869188
 H     49.04312237    -28.03434949     14.80354321
 H     49.17324729    -29.68122290     14.67571545
 H     47.77448218    -29.86822316     15.76049826
 H     49.05090893    -28.24308708     17.32154737
 H     49.49051525    -27.90027598     16.90472168
 H     49.77716186    -26.88706002     16.14545259
 H     51.18751412    -27.91100295     15.78390862
 H     51.91941368    -28.50577241     17.80191091
 H     50.93175541    -27.21972780     18.53600019
 H     51.27820644    -25.39708389     17.59853892
 H     52.77533208    -26.02937406     16.87252885
 H     53.99008966    -26.85877460     17.05163962
 H     53.90526945    -26.44683368     18.78119935
 H     53.66201319    -24.20098590     18.70454431
 H     54.16819237    -24.21494431     16.99812863
 H     56.23304370    -25.50792730     17.76166818
 H     55.77450325    -25.04535375     19.41818049
 H     55.40864976    -23.26587170     19.87733343
 H     56.26169521    -22.68471655     18.42721660
 H     58.24467812    -23.90145314     18.73756398
 H     57.74060106    -24.23004922     20.41273490
 H     57.39564301    -21.83951486     20.86300093
 H     58.28780616    -21.50057527     19.36052580
 H     60.18292749    -22.62865487     19.60874515
 H     59.85172679    -22.79995354     21.34921334
 H     59.54912629    -20.26556640     21.40370945
 H     60.28783479    -20.25299528     19.78432117
 H     62.26001619    -21.48103664     20.59540508
 H     61.71530796    -21.11779379     22.25058309
 H     61.53392642    -18.78052996     21.97313372
 H     61.73411211    -18.67484212     20.80466130
 H     60.86771857    -18.47860707     20.08785490
 H     62.52591849    -18.60023455     19.45236575
 H     62.78972720    -16.73017734     21.42083163
 H     61.01000751    -16.73827922     21.39256756
 H     60.43834510    -16.35159210     19.33404780
 H     62.08512378    -15.77919891     18.97522657
 H     62.27703337    -14.23149837     20.71142940
 H     60.51674507    -14.33225149     20.95535678
 H     59.88964295    -13.34163372     19.07667507
 H     61.83859506    -13.33986251     18.46549052
 H     59.00097580    -13.12023693     19.90897462
 H     59.05229131    -14.09559607     18.42091953
 H     60.00803818    -11.88390549     17.33649237
 H     59.31143486    -11.14630529     18.39152686
 H     59.32636109    -13.43635912     16.24369067
 H     60.65638252    -12.26845040     16.43157061
 H     59.45497647    -10.33004206     15.92417922
 H     58.15202354    -11.34747447     15.26432195
 H     59.71958340    -12.53710852     13.79190918
 H     60.90611017    -11.25657031     14.13924587
 H     59.40382461     -9.47222235     13.49303317
 H     58.36139760    -10.70162549     12.73793019
 H     59.75995425    -11.80713127     11.40161578
 H     60.94696529    -10.49016974     11.55936169
 H     58.37732460     -9.49555176     10.72456423
 H     57.87854746    -10.31717373     10.97585874
 H     57.23175116    -11.18825958     11.70729370
 H     57.71382233    -12.26961338     10.37817820
 H     56.78225479    -10.51938584      8.77876025
 H     56.02071084     -9.77663635     10.20586945
 H     54.89972289    -11.24643037     11.23119452
 H     54.95153743    -12.30785898      9.80327603
 H     54.23102392    -10.92123581      8.17281366
 H     53.63258056     -9.79185599      9.41161689
 H     52.67610882    -10.09425238     10.82259223
 H     52.37997472    -11.44222892     10.61904445
 H     52.84000617    -12.31196682     11.20134459
 H     51.65832016    -12.61126333      9.90430703
 H     50.08170669    -10.93754427     10.55835961
 H     50.30682088    -11.17037589     11.74172424
 H     50.00150710    -11.96641188      8.84239837
 H     49.73075833    -10.37623092      9.59491833
 H     47.82028254    -11.54346602     10.88419038
 H     48.02486336    -12.88173074      9.72856894
 H     47.74033819    -11.37776800      7.80851179
 H     47.12696548    -10.15488491      8.94719416
 H     45.59217180    -10.95610072     10.11431696
 H     45.40053183    -12.30805774      8.97249692
 H     45.21470246    -10.44017767      7.17461378
 H     45.03255910     -9.32014897      8.54597302
 H     43.07803170    -10.87389347      9.25147149
 H     43.22001271    -11.57749737      7.62265302
 H     43.09544814     -9.91326557      6.23417304
 H     42.44434581     -8.87429217      7.52447017
 H     40.82461292     -9.84587645      8.45521994
 H     40.69539057    -10.98009985      7.08953128
 H     40.62546030     -8.79157965      5.65618815
 H     40.37144732     -7.95183206      7.20491927
 H     38.54067117     -9.13002595      7.97148635
 H     38.30930604     -9.79055981      6.33489482
 H     38.30016081     -7.65609328      5.24889155
 H     38.09461452     -6.89908270      6.84668764
 H     36.29521832     -8.01733279      7.64611974
 H     35.95053005     -8.61298451      6.00457910
 H     35.92434519     -6.83187151      4.73657002
 H     35.79292156     -5.79906128      6.18027966
 H     33.86075118     -7.07684174      7.00876462
 H     33.74484721     -7.81141053      5.39159375
 H     33.69134810     -6.27223587      3.94130199
 H     33.29772666     -5.07616918      5.19937722
 H     31.72127447     -5.68765611      6.37204867
 H     31.25669073     -6.90297293      5.15737437
 H     31.22502932     -5.34555677      3.32861847
 H     31.25830010     -4.02434638      4.52091157
 H     29.64901639     -4.39860652      5.90954851
 H     28.92155940     -5.55744321      4.77105366
 H     28.94960168     -3.98588979      2.92431723
 H     29.26687582     -2.69374430      4.10667243
 H     27.85891564     -2.75049402      5.64379135
 H     26.79144026     -3.77817420      4.65756803
 H     26.56799595     -2.83558958      2.74787989
 H     27.19599417     -1.30854872      3.41273410
 H     25.63874608     -1.28979146      5.26423337
 H     24.71132222     -2.55425964      4.42205057
 H     24.44698408     -1.48486192      2.37707238
 H     24.94520294      0.04304783      3.14227592
 H     23.34243186     -0.08678842      4.91950493
 H     22.50518107     -1.36329511      4.00418617
 H     22.59327362      0.57219063      2.14230301
 H     23.07222369      1.61565386      3.50247137
 H     21.30424521      1.19628589      4.92916475
 H     20.41089386      0.47121157      3.57105678
 H     20.36420994      1.71254356      1.93214881
 H     20.83597718      3.10195901      2.93973356
 H     19.10611406      2.73562409      4.57456936
 H     18.32587426      1.62649943      3.42160145
 H     18.47909651      3.67327840      1.79746675
 H     18.87211340      4.62023057      3.25248770
 H     17.03844973      4.04717241      4.55167610
 H     16.23753984      3.41160592      3.09467052
 H     16.37392440      5.10597049      1.65502528
 H     16.78035956      6.20671113      2.99347482
 H     14.65303205      5.30954594      4.13184283
 H     14.24390526      4.61030949      2.54692948
 H     14.38037266      6.44749025      1.21424571
 H     14.35770755      7.48244355      2.66221830
 H     12.23937651      6.25843178      3.36240574
 H     12.19172862      5.61292293      1.70429999
 H     12.29436582      7.70990835      0.60725563
 H     11.90858126      8.49406117      2.15791397
 H      9.87700997      6.93865258      2.26366712
 H     10.20438935      6.58081762      0.55105404
 H     10.13841565      9.00701516      0.01329268
 H      9.41363433      9.25935813      1.61930692
 H      7.75317365      8.00876181      1.86242157
 H      7.68441974      7.72396454      0.10673649
 H      7.70529768     10.00888894     -0.52387398
 H      7.33497514     10.43539774      1.16408873
 H      5.60083605      9.27815503      1.72934139
 H      5.37450405      8.61426881      0.53371825
 H      5.61161381      7.52062825      0.30722830
 H      4.90379110      8.55355097     -0.95781096
 H      3.39361420      9.61625726     -0.62633591
 H      2.98398149      8.64084718      0.80511192
 H      3.13111291      6.54239920     -0.40538529
 H      3.11687437      7.48263056     -1.91668570
 H      1.29269556      8.76196059     -1.68132744
 H      0.73914556      7.71767726     -0.35041745
 H      0.85637627      5.66889853     -1.30924315
 H      0.98392669      6.43795239     -2.90941618
 H     -0.94122431      7.80840502     -2.68045505
 H     -1.42522528      6.82122645     -1.28063786
 H     -1.12905748      4.85937287     -3.03750990
 H     -1.06721972      6.16295714     -4.24792751
 H     -2.83224870      7.36326391     -3.97475874
 H     -3.43504896      6.63181773     -2.93183179
 H     -3.50259393      6.84387205     -1.81350596
 H     -4.19966372      5.32394618     -2.42357621
 H     -5.46553080      5.71822697     -4.04579955
 H     -5.52899387      7.44130928     -3.60395515
 H     -6.17695867      6.77655492     -1.26945268
 H     -6.48074663      5.14676123     -1.91733545
 H     -8.03462869      6.45076813     -3.58976048
 H     -7.82422429      7.82868055     -2.48280339
 H     -8.53278715      6.71282305     -0.52434940
 H     -9.20066067      5.41997532     -1.54941348
 H    -10.50231003      6.67256167     -2.96628898
 H    -10.35792219      8.05064298     -1.84901072
 H    -11.03371513      6.99276457      0.10201639
 H    -11.67036917      5.64995937     -0.87768380
 H    -12.98386206      7.38242119     -2.19686280
 H    -12.58152439      8.52555618     -0.89316288
 H    -13.78769994      6.38270101      0.38602698
 H    -14.21576639      5.92023547     -1.27865059
 H    -15.12963975      7.27106512     -2.36826225
 H    -15.56679974      8.19560947     -0.91142472
 H    -16.49965934      6.55504243      0.36710882
 H    -16.60709128      5.51483463     -1.07327056
 H    -17.84292809      7.53790714     -2.13892858
 H    -17.94198167      8.18204020     -0.48256278
 H    -18.98699011      6.22238938      0.42829457
 H    -19.31981567      5.68832177     -1.23671762
 H    -20.35921455      8.30771499     -0.88154790
 H    -20.00369020      7.92550922      0.82015356
 H    -21.38643516      5.90771809      0.76197570
 H    -22.07080336      6.50224866     -0.76983377
 H    -22.62175450      8.65964316      0.50555049
 H    -22.26321977      7.73873973      1.98597489
 H    -23.88006627      5.98623554      1.36695667
 H    -24.51410877      7.10796042      0.13895420
 H    -24.85298554      8.86762160      1.83284357
 H    -24.62147492      7.61321991      3.07427254
 H    -26.03819566      6.02454832      2.54917133
 H    -26.90352441      7.14620993      1.47151274
 H    -27.08169247      8.78099579      3.36367259
 H    -26.59162527      7.45052997      4.43975879
 H    -28.53057428      6.11638774      3.44996801
 H    -29.09905254      7.65892702      2.76756659
 H    -29.02628448      8.60635275      5.12379583
 H    -28.86235983      6.92435010      5.68260032
 H    -30.70415481      6.00478457      4.63716808
 H    -31.32319036      7.64604852      4.33498553
 H    -31.00847571      7.97824992      6.89008183
 H    -30.80723855      6.21124273      6.96394560
 H    -33.08048807      6.07212695      5.77912715
 H    -33.25797532      7.79998262      6.16807413
 H    -32.92631475      7.89311656      8.35462840
 H    -33.14890203      6.13049398      8.46363851
 H    -35.34962280      6.44513759      7.22797094
 H    -35.16761330      8.18365657      7.56366568
 H    -34.91614196      7.81117390      9.96259045
 H    -35.51182998      6.15425394      9.70174817
 H    -37.33644122      6.23599689      8.64007733
 H    -37.50650510      7.96451502      9.02939729
 H    -37.16909760      7.48108970     11.44059036
 H    -37.42323553      5.76344308     11.04896469
 H    -39.51418087      6.08283560      9.95203924
 H    -39.58278290      7.71609589     10.65632701
 H    -39.25633630      7.18983415     12.87425635
 H    -39.59872565      5.48417665     12.49773452
 H    -41.03751285      4.90448910     11.54173763
 H    -41.89371893      6.43348487     11.85374689
 H    -41.71464607      6.69225705     14.05309337
 H    -41.23422201      4.98584403     14.21313705
 H    -43.09794035      4.11443311     13.00312418
 H    -43.88314491      5.70419813     13.15922555
 H    -43.46456025      5.44829934     15.68907716
 H    -43.09317410      3.74438855     15.33266867
 H    -45.03332931      3.17770248     14.20743476
 H    -45.79631283      4.66247333     14.82515504
 H    -45.42973192      4.51243982     17.03409540
 H    -45.01763634      2.79151851     16.84206999
 H    -47.26963124      2.55864328     15.63362811
 H    -47.65009071      4.17418013     16.27671282
 H    -47.18203803      3.46400120     18.57828720
 H    -47.21799876      1.78347116     17.99280254
 H    -49.14222673      1.60679580     16.93618751
 H    -49.70717539      3.10747012     17.70889460
 H    -49.10322100      2.13923892     19.94520807
 H    -48.96010571      0.56711929     19.12287934
 H    -51.17046177      0.66567375     18.16696143
 H    -51.53589334      2.00054110     19.28627175
 H    -50.80707473      0.53958522     21.19728359
 H    -50.87181728     -0.82515945     20.05642994
 H    -52.46147852     -1.09754315     19.01419093
 H    -53.40384103     -0.07651782     20.12672265
 H    -52.66257206     -1.27707931     22.09686276
 H    -52.06480110     -2.56025170     21.01778669
 H    -53.52152792     -3.18780251     19.70098711
 H    -54.78557166     -2.43297903     20.70133786
 H    -54.78478635     -2.80415925     22.60574398
 H    -53.74773397     -4.22970116     22.35953414
 H    -54.51481013     -5.44676474     20.85677228
 H    -56.09305297     -4.63172904     20.97137160
 H    -56.74171505     -4.55800925     22.94635997
 H    -55.56663367     -5.81464859     23.40276768
 H    -56.13642294     -7.38382063     21.76076176
 H    -57.63175225     -6.46909053     21.45168936
 H    -58.07690638     -6.67298175     23.97197923
 H    -56.77690971     -7.88875518     23.98502908
 H    -57.61191068     -9.29210870     22.32621284
 H    -59.18569389     -8.47213810     22.46449258
 H    -59.20132918     -8.89061562     24.91765647
 H    -57.86633461    -10.03628967     24.64657132
 H    -58.93932467    -11.33668746     23.00051749
 H    -60.48258786    -10.57791558     23.45972399
 H    -60.68262649    -10.79897057     25.59256291
 H    -59.40897076    -12.04237803     25.59493397
 H    -60.69308807    -13.26142042     23.79474994
 H    -62.06101481    -12.19053739     24.18237428
 H    -61.80892979    -12.97232465     26.60096820
 H    -60.75392609    -14.25470720     25.96008689
 H    -62.05915649    -15.19642990     24.38556060
 H    -63.47706541    -14.37684399     25.08275489
 H    -63.30893825    -14.98404965     27.26327228
 H    -62.14526757    -16.25142158     26.80730561
 H    -62.85398854    -17.43338685     25.28174392
 H    -64.51180166    -16.85182122     25.56758262
 H    -64.68562116    -17.21719193     27.82180315
 H    -63.24046612    -18.25362090     27.74691290
 H    -63.63542662    -19.69773971     26.16078153
 H    -65.36552909    -19.28158149     26.20349504
 H    -65.45491554    -19.66283135     28.64033830
 H    -63.87178199    -20.46373162     28.49711260
 H    -64.61124262    -21.99376028     26.78226000
 H    -66.28626548    -21.53952658     27.17752805
 H    -66.63128668    -21.73631588     29.22450551
 H    -65.17239128    -22.74155507     29.39592620
 H    -65.53499311    -24.29527080     27.76784695
 H    -67.23764471    -23.78381563     27.68033817
 H    -67.62018783    -24.03792116     30.04654139
 H    -66.09568029    -24.95197200     30.13957093
 H    -66.40314296    -26.52470246     28.54911773
 H    -68.14265681    -26.14805044     28.52694847
 H    -69.21772743    -26.00177376     29.95003088
 H    -68.06906500    -26.93272548     30.94107587
 H    -67.96324404    -28.72182351     29.24744202
 H    -69.40068646    -27.99110750     28.49373116
 H    -70.50930328    -28.17965400     30.79650547
 H    -69.14962956    -29.24037227     31.23744853
 H    -69.56505060    -30.71810592     29.32472101
 H    -71.14423760    -29.91825998     29.13849112
 H    -71.80767839    -30.31417590     31.42430208
 H    -70.46718715    -31.47806242     31.55360052
 H    -71.35676566    -32.66146792     29.52232862
 H    -72.84692062    -31.71186382     29.73670429
 H    -73.42169985    -32.10464114     31.84413196
 H    -72.30709284    -33.49170756     31.88845621
 H    -73.52072640    -34.30831280     29.77452458
 H    -74.75511596    -33.08296082     30.15275945
 H    -75.31299889    -33.55859515     32.25939677
 H    -74.52466511    -35.14705258     32.10577547
 H    -74.85078919    -36.29002818     30.67636569
 H    -76.36213314    -35.43022016     30.29579205
 H    -77.42417081    -35.33111562     32.23552586
 H    -76.33875062    -36.57887718     32.89372094
 H    -76.50945639    -38.19950078     31.32245011
 H    -77.95859977    -37.39816290     30.66968083
 H    -78.84473180    -37.49884865     33.09752979
 H    -77.50122634    -38.62430260     33.40835638
 H    -78.25363622    -40.07877706     31.54313970
 H    -79.78023798    -39.16353332     31.55222924
 H    -79.90234027    -39.76270553     34.05528950
 H    -78.60219715    -40.92995363     33.71554485
 H    -80.28221401    -41.80825075     31.90249598
 H    -81.48358802    -40.79341791     32.72012109
 H    -82.04822885    -39.81027458     32.87031444
 H    -82.16466201    -40.95181634     34.23104674
 H    -82.88000968    -42.69601145     32.48985357
 H    -83.08621395    -41.32594831     31.37241299
 H    -84.49984448    -40.02032282     32.65708753
 H    -84.80650143    -41.42632870     33.70464451
 H    -85.38532396    -43.05454660     32.41954923
 H    -85.68778381    -41.91201296     31.08860911
 H    -87.16252252    -40.58890418     32.65525028
 H    -87.10513261    -41.99799575     33.74126779
 H    -87.62331058    -43.73646840     32.79589354
 H    -88.36199683    -42.82062942     31.46028571
 H    -89.68655989    -41.53251159     33.19271719
 H    -89.18276899    -42.78016951     34.35796871
 H    -89.76688383    -44.68400009     33.42538430
 H    -90.81491748    -43.80733154     32.28461948
 H    -92.00099533    -42.54401042     32.66431507
 H    -92.06536199    -43.08609007     34.35850315
 H    -92.45626294    -45.43722401     33.48986571
 H    -92.76853412    -44.68910252     31.90523086
 H    -94.25886102    -43.18203718     32.17468680
 H    -94.68972997    -43.87074966     33.75844617
 H    -95.02768865    -45.93241541     33.56948858
 H    -95.17567416    -45.76680195     31.80343673
 H    -96.54721259    -44.22431223     31.36413691
 H    -97.16761733    -44.27581849     33.03168353
 H    -97.62787202    -46.38007746     33.41164249
 H    -97.55359418    -46.71734395     31.66550367
 H    -98.76606122    -45.34621211     30.63087173
 H    -99.59264199    -44.90519477     32.14432295
 H   -100.23901063    -46.63781509     33.13361377
 H   -100.02926611    -47.59059875     31.64482997
 H   -101.03767147    -46.57422478     30.06337817
 H   -101.93159266    -45.58924633     31.24616683
 H   -102.53594284    -47.93206066     32.26832936
 H   -101.89573450    -48.59947464     30.74748797
 H   -103.15460537    -47.42474708     29.23367197
 H   -104.25728213    -46.94959122     30.54767255
 H   -104.44509926    -49.44807981     31.08269693
 H   -103.66683846    -49.72758474     29.50648191
 H   -105.71507578    -48.21873035     28.70278507
 H   -106.35396407    -48.50602074     30.33910797
 H   -106.26969695    -50.86339709     30.25744392
 H   -106.05099673    -50.75641829     28.49421041
 H   -108.13332011    -49.32289442     28.40397456
 H   -108.44668180    -49.84870332     30.07537999
 H   -108.33768534    -52.15916987     29.69466443
 H   -108.45904545    -51.84331323     27.94715965
 H   -110.45877336    -50.50130934     28.16475706
 H   -110.63022071    -51.12804439     29.82188580
 H   -110.50658128    -53.46178871     28.95590591
 H   -110.75635467    -52.78160739     27.33010355
 H   -112.87882017    -51.71967994     28.50665643
 H   -112.52111506    -52.85642906     29.82881950
 H   -112.52245907    -54.81070928     28.47531176
 H   -113.29952620    -53.86328839     27.18425522
 H   -114.98979839    -53.39191160     29.23067438
 H   -114.10815961    -54.71725593     30.02719315
 H   -114.91357328    -55.92611412     27.74580033
 H   -115.94625859    -54.48740165     27.56709899
 H   -117.08354488    -54.39758028     29.45868654
 H   -116.62161320    -56.07868055     29.81755654
 H   -116.90342341    -57.40543349     28.41072142
 H   -118.02897193    -56.31604313     27.56536005
 H   -119.39253246    -55.85626154     29.45521422
 H   -118.62951354    -57.23263237     30.28688250
 H   -119.29897077    -58.62726814     28.23962335
 H   -120.33254745    -57.25131429     27.78494005
 H   -121.50558880    -57.15917043     29.86271209
 H   -120.85394942    -58.77005308     30.24831532
 H   -121.78299472    -59.58221644     28.03825375
 H   -122.70898083    -58.06304387     27.98411439
 H   -123.77476559    -58.07907379     29.96146992
 H   -123.39293198    -59.80786998     30.14513668
 H   -124.32666154    -60.36063791     27.95705979
 H   -125.08221296    -58.74903188     27.94545329
 H   -126.09813586    -59.38309715     30.21131464
 H   -125.59573164    -61.05007861     29.84113973
 H   -126.91380929    -60.80164245     27.66047972
 H   -127.62130257    -59.33890410     28.38719591
 H   -128.37947529    -60.46175582     30.37304530
 H   -128.09484806    -62.01038764     29.54298898
 H   -128.58882868    -62.51623677     27.95111883
 H   -129.86194455    -61.27236974     27.93570959
 H   -130.76032913    -61.88972167     30.07656786
 H   -129.82377910    -63.40004056     29.97618072
 H   -130.00150385    -64.45809968     28.34293248
 H   -131.50277469    -63.60297390     27.91489927
 H   -131.76195257    -64.55819304     30.56151140
 H   -130.29030487    -65.45013584     30.10658534
 H   -130.22904004    -66.50953174     28.55514255
 H   -132.00678953    -66.56658518     28.48718432
 H   -132.60632994    -67.17324018     30.52627902
 H   -130.93709624    -67.69079086     30.86401681
 H   -130.80808001    -69.08828876     28.89000217
 H   -132.57657987    -68.94709745     28.74598858
 H   -132.67592541    -69.77634847     31.17148254
 H   -130.96396811    -70.21934072     30.96843887
 H   -131.72771032    -71.56839149     28.92342010
 H   -133.38341430    -71.33843945     29.53500253
 H   -133.43561714    -71.99436587     31.56359005
 H   -131.89475016    -72.85697635     31.34020971
 H   -132.45223573    -74.07399190     29.44180268
 H   -134.16550226    -73.68635278     29.72941420
 H   -134.83860060    -74.05485128     31.55714875
 H   -133.45000466    -75.11844723     31.88704517
 H   -133.23725465    -76.50553780     30.32146641
 H   -134.88939026    -76.15454189     29.75975790
 H   -135.88661765    -76.50912698     31.92816309
 H   -134.36472634    -77.27651398     32.44122321
 H   -134.10493660    -78.83181869     30.78971932
 H   -135.80268168    -78.58682467     30.31442340
 H   -136.88749017    -78.85680137     32.26565675
 H   -135.42819898    -79.59766120     32.96555861
 H   -134.97016506    -81.19928873     31.41810125
 H   -136.60403377    -80.99408002     30.74235791
 H   -137.54581175    -81.34438847     33.05039219
 H   -135.93079374    -81.92891925     33.51762580
 H   -135.50583148    -83.51447257     32.01056706
 H   -137.22697507    -83.54087215     31.55753892
 H   -137.80753685    -83.86524448     33.98517721
 H   -136.08550641    -84.22923710     34.25048312
 H   -135.42559005    -85.70387183     32.95229703
 H   -137.10496190    -86.17129186     32.59244235
 H   -137.99813364    -86.44838919     34.61829837
 H   -136.36641520    -86.48605478     35.32846942
 H   -135.45360861    -88.13373073     33.94582810
 H   -137.09937835    -88.55749119     33.41654963
 H   -137.96112625    -88.85266804     35.63089724
 H   -136.28439697    -88.87211235     36.22794624
 H   -135.56058904    -90.52696942     34.57539163
 H   -137.09585549    -90.98777539     34.41540837
 H   -134.66686664    -90.20458296     36.30408221
 H   -134.42345812    -90.34358218     34.54632848
 H   -135.08932394    -92.82342685     34.87140631
 H   -134.87676620    -92.52126186     36.61260767
 H   -132.53095255    -91.70319969     36.07186918
 H   -132.76196373    -92.43312560     34.46387490
 H   -133.05718279    -92.24297771     33.37884971
 H   -132.88424644    -93.92601203     33.93180105
 H   -130.56628610    -93.23203096     34.78655750
 H   -130.77999022    -91.75343057     33.81891185
 H   -131.22074146    -93.10053808     31.78802759
 H   -130.59582619    -94.50765628     32.68120503
 H   -128.50328449    -93.34597730     33.22120597
 H   -128.94323254    -92.13128603     31.99677243
 H   -129.31156526    -93.54048916     30.20084111
 H   -128.48696020    -94.84565650     31.08674820
 H   -126.53893902    -93.86019056     31.65692411
 H   -126.85850891    -92.56712298     30.47619637
 H   -127.15090088    -94.65612413     28.85998877
 H   -126.41779816    -95.58480223     30.18979479
 H   -124.46933243    -94.28111843     30.40895373
 H   -124.83409724    -93.53669630     28.83381913
 H   -124.88165818    -96.18444712     28.22237100
 H   -124.14735639    -96.37219873     29.83290410
 H   -122.33542570    -94.97402295     29.59575549
 H   -122.59382211    -94.97224111     27.83464937
 H   -122.55009188    -97.51410451     27.94136906
 H   -121.90156543    -97.32772859     29.58847080
 H   -120.07189378    -95.88410815     28.72451330
 H   -120.51385346    -96.44126019     27.09279031
 H   -120.10003919    -98.78699536     28.42792017
 H   -119.39360458    -97.72388967     29.66849386
 H   -117.83542070    -96.61485484     28.40219831
 H   -118.02756295    -97.84096947     27.12629580
 H   -117.63661527    -96.67571302     30.05038713
 H   -117.72714753    -95.58375163     28.64764306
 H   -115.98075753    -96.20418876     27.40738452
 H   -115.30910353    -97.08569260     28.80025873
 H   -115.56472944    -94.91473630     30.12171319
 H   -115.82670583    -94.11926382     28.55108956
 H   -114.33407806    -94.53688475     27.20977283
 H   -113.27327263    -95.09608106     28.52516555
 H   -113.47720435    -93.22593260     29.91370630
 H   -114.18166094    -92.32788187     28.54786865
 H   -112.09031725    -93.02703372     27.23142183
 H   -111.40490718    -93.50724235     28.80237039
 H   -111.56880794    -91.81286759     30.11345371
 H   -111.86004202    -90.74597689     28.71875174
 H   -110.32760827    -91.09406017     27.28233893
 H   -109.33952947    -91.91746266     28.51277597
 H   -109.25409363    -90.56313128     30.21283300
 H   -109.82659836    -89.22624274     29.18656109
 H   -108.38911600    -89.33045864     27.44877111
 H   -107.31621554    -90.37448432     28.41166345
 H   -107.47794992    -88.47416821     30.18273712
 H   -108.19364217    -87.49918468     28.87680511
 H   -106.44171182    -87.79621774     27.32201952
 H   -105.42187916    -88.40830410     28.64623941
 H   -105.59143914    -86.78019724     30.18101341
 H   -106.25772893    -85.69023156     28.94153795
 H   -104.50260041    -86.01185380     27.36949300
 H   -103.53687300    -86.75659316     28.66602705
 H   -104.04523418    -84.55408357     29.95802863
 H   -104.60408665    -83.92087036     28.39118734
 H   -102.40461559    -84.51399599     27.37163817
 H   -101.79307341    -84.73375941     29.02874011
 H   -102.63961651    -82.33770368     29.45437150
 H   -102.80022005    -82.20961591     27.68630287
 H   -100.50109007    -82.84530236     27.27468875
 H   -100.17685364    -82.57185056     29.00337655
 H   -101.20865507    -80.21751024     28.53872921
 H   -101.04321482    -80.63667380     26.81675415
 H    -98.85616105    -81.18053560     26.68236489
 H    -98.57771113    -80.41047144     28.26278683
 H    -99.67129284    -78.32373844     27.40818003
 H    -99.52903791    -79.02471606     25.77825348
 H    -97.18978161    -79.43856438     25.89867431
 H    -97.12082326    -78.38098789     27.32872444
 H    -98.21580661    -76.53791013     26.16779532
 H    -97.91314738    -77.40356885     24.64224655
 H    -95.44903571    -77.46609243     25.37275234
 H    -95.90729428    -76.26840556     26.60718011
 H    -96.85180243    -74.78824181     24.84868132
 H    -96.01088431    -75.80643734     23.65519849
 H    -93.87989582    -75.33928711     25.00819598
 H    -94.81745017    -74.06585599     25.82528331
 H    -95.53328708    -72.89768934     23.95553036
 H    -94.32181815    -73.76491920     22.98160938
 H    -92.46961055    -73.23724850     24.37749792
 H    -93.47524659    -72.00065921     25.16984237
 H    -93.92744849    -71.05792985     22.84551874
 H    -92.59196887    -72.09226623     22.28435111
 H    -90.88366509    -71.87405803     23.32245017
 H    -91.45311643    -70.32531144     23.98981501
 H    -92.08141115    -69.24055455     22.09290947
 H    -91.18599384    -70.43850048     21.12780842
 H    -89.16232978    -69.91907383     22.58595330
 H    -90.07392250    -68.50151722     23.15849030
 H    -90.68132735    -67.42028733     21.37266431
 H    -89.49935044    -68.33573029     20.40666149
 H    -87.72036033    -67.67822986     22.06496849
 H    -88.88341765    -66.48756608     22.69574904
 H    -89.67695195    -65.28279481     21.29555250
 H    -88.38081454    -65.70931414     20.15258455
 H    -86.56200468    -65.28603207     21.55465382
 H    -87.65284568    -64.40877756     22.65408872
 H    -88.55634215    -62.95563650     21.01504715
 H    -87.23155125    -63.42871880     19.92445608
 H    -85.54640288    -62.85365876     21.63590595
 H    -86.84201699    -62.01176547     22.51957241
 H    -87.39734101    -60.67346799     20.51278922
 H    -85.85548924    -61.22437827     19.81460754
 H    -84.30043714    -60.81598332     21.19779052
 H    -85.36185043    -59.69727915     22.08670530
 H    -86.31533716    -58.34582390     21.06282577
 H    -85.20757430    -58.56181816     19.68642663
 H    -83.21294975    -58.45461181     20.39591112
 H    -83.77471752    -57.71543044     21.91456004
 H    -84.91365236    -56.11176891     20.02221775
 H    -83.81396727    -56.97209213     18.91822349
 H    -81.82291985    -56.74585032     19.75037819
 H    -82.39997786    -55.42521524     20.79498037
 H    -83.43206211    -54.00731667     19.64263699
 H    -82.72719816    -54.67647541     18.15144282
 H    -80.47843832    -54.61400561     18.84141458
 H    -80.95736803    -53.54753401     20.18362593
 H    -82.03045692    -52.08274687     18.33324272
 H    -81.10781053    -53.08248999     17.18541695
 H    -78.98757200    -52.72969517     18.18090006
 H    -79.69158211    -51.38172898     19.10589928
 H    -80.42834968    -50.55200683     16.72314643
 H    -79.30599045    -51.78776214     16.10550153
 H    -77.39010619    -51.29250120     17.13493587
 H    -78.04347639    -49.69644440     17.57536379
 H    -78.70461045    -49.06546789     15.39579117
 H    -77.71609032    -50.39852251     14.75231622
 H    -75.71061945    -49.84920467     15.82418806
 H    -76.38678015    -48.24573322     16.19829056
 H    -77.05162209    -47.59055851     14.10596889
 H    -76.06294398    -48.89353905     13.40381224
 H    -74.04860678    -48.37746177     14.46814760
 H    -74.72402368    -46.79092110     14.90969870
 H    -75.45457517    -45.96322052     12.99449474
 H    -74.50361605    -47.17755250     12.10604595
 H    -72.43974413    -46.73439015     13.16733291
 H    -73.13284477    -45.22054928     13.79674851
 H    -73.94729453    -44.18311168     12.05765399
 H    -73.01312320    -45.24611465     10.97801736
 H    -70.94618059    -44.63004287     12.30768849
 H    -71.91979211    -43.32240506     13.02213277
 H    -72.42435386    -42.55453585     10.65057210
 H    -70.46493048    -42.68166956     11.03981091
 H    -69.48309344    -42.67045361     11.61945783
 H    -70.59754625    -41.30347289     11.85951055
 H    -70.59151089    -41.12255989      9.28001999
 H    -69.19617747    -42.22653211      9.33058340
 H    -67.74469273    -41.38576407     10.65500650
 H    -68.56591305    -39.80849757     10.57694094
 H    -68.37252964    -40.09420300      8.00719670
 H    -67.24139931    -41.42018973      8.36854148
 H    -65.77041535    -40.21726060      9.73239476
 H    -66.50559001    -38.70827654      9.14015158
 H    -66.14749038    -39.35242433      6.79881276
 H    -65.05652144    -40.62852021      7.39011028
 H    -63.67996030    -39.18335801      8.68566428
 H    -64.40753920    -37.79976408      7.83445136
 H    -63.96109812    -38.60276911      5.64168833
 H    -62.84104816    -39.79010440      6.35161062
 H    -61.70746279    -37.78915942      7.49147262
 H    -62.65602768    -36.76901381      6.38341385
 H    -61.92203508    -37.84258269      4.38900450
 H    -60.62527716    -38.61296270      5.33409719
 H    -59.96438902    -36.28916675      6.12128433
 H    -61.02056226    -35.66596652      4.83117340
 H    -60.19377099    -36.75641417      3.02014889
 H    -58.74021961    -37.18116257      3.95558668
 H    -58.24183659    -34.96228689      4.64891930
 H    -59.38349676    -34.36817643      3.41932120
 H    -57.96246665    -35.81265485      1.78088499
 H    -56.78086220    -35.91438679      3.10818609
 H    -56.45348498    -33.72316663      3.58401388
 H    -57.22449628    -33.28512791      2.04066353
 H    -55.84530431    -34.69142075      0.69354184
 H    -54.74274650    -34.86034885      2.08065979
 H    -54.25400474    -32.89717237      2.77020526
 H    -54.85275446    -32.19746634      1.24699257
 H    -53.51972311    -33.64791915     -0.14517390
 H    -52.57939051    -34.08188019      1.30248596
 H    -52.04165305    -31.89184465      1.96876510
 H    -52.54913887    -31.31653262      0.36260793
 H    -51.37218780    -32.62005084     -1.02448793
 H    -50.32012880    -33.10082500      0.32839592
 H    -50.02997613    -30.53889973      0.68049957
 H    -50.78120502    -30.36746623     -0.92403537
 H    -49.20178527    -31.82374607     -2.01598761
 H    -48.16894714    -31.69683966     -0.57189384
 H    -48.30390285    -29.17219711     -0.82929872
 H    -48.96945922    -29.47845477     -2.45149095
 H    -47.15029302    -30.87273665     -3.15596288
 H    -46.22169216    -30.28186765     -1.75709157
 H    -46.42269444    -28.01577409     -2.08481541
 H    -46.97901241    -28.32601141     -3.74690138
 H    -44.98079345    -29.72463201     -4.18980026
 H    -44.27901277    -29.05414091     -2.69775059
 H    -44.38103481    -26.92286710     -2.82811845
 H    -44.67314283    -27.02970235     -4.58069535
 H    -43.01825797    -28.34824583     -5.28954915
 H    -42.16466311    -28.09954425     -3.74754072
 H    -42.35884888    -25.62932635     -4.04181219
 H    -42.81921553    -25.95311067     -5.73044860
 H    -40.94635087    -27.28369452     -6.27459694
 H    -40.14928592    -26.69933441     -4.79423300
 H    -39.92798426    -25.25363359     -4.06745213
 H    -40.16036590    -24.44670581     -5.63688929
 H    -38.77891172    -25.59003743     -6.98264995
 H    -37.97195609    -26.28290258     -5.55540534
 H    -37.38663723    -25.20340388     -4.13751917
 H    -37.44355898    -23.75794995     -5.17467370
 H    -36.47320033    -24.07329841     -6.96872618
 H    -35.64992081    -25.50274104     -6.30001751
 H    -34.77474771    -24.69573783     -4.39050162
 H    -35.05881887    -23.03716061     -4.97075317
 H    -34.23589394    -22.83384910     -6.90654500
 H    -33.27799055    -24.31605116     -6.67467254
 H    -32.33134072    -23.58497501     -4.58026486
 H    -32.90617720    -21.94298373     -4.95668790
 H    -31.99635274    -21.66398390     -7.04008806
 H    -30.93989205    -23.06613249     -6.74659731
 H    -30.01718736    -22.43320086     -4.73326919
 H    -30.60891281    -20.77700550     -5.00739431
 H    -29.64039153    -20.53618637     -7.16914019
 H    -28.64867325    -21.97629120     -6.83618435
 H    -27.65273151    -21.73328758     -4.99850697
 H    -27.98086697    -19.98411403     -5.02990284
 H    -27.27669904    -19.34632748     -7.03113099
 H    -26.38607307    -20.87754999     -7.20551466
 H    -25.21835596    -20.70027687     -5.13450352
 H    -25.70209016    -18.98889748     -5.06068979
 H    -24.93657223    -18.32257250     -7.14982999
 H    -23.98857404    -19.82561474     -7.25195789
 H    -22.93857979    -19.33078988     -5.05241804
 H    -23.58391498    -17.67933473     -5.20895887
 H    -22.68947205    -17.19181722     -7.31578817
 H    -21.61527233    -18.60143209     -7.15041721
 H    -20.88373308    -17.58399906     -4.91530687
 H    -21.70031534    -16.09741173     -5.45523111
 H    -20.34680044    -16.11229112     -7.54893314
 H    -19.30749250    -17.32781278     -6.76751598
 H    -18.77557675    -16.28101103     -4.82922517
 H    -19.35103089    -14.74295942     -5.51589570
 H    -18.26488983    -14.59992663     -7.45072694
 H    -17.14187456    -15.87151134     -6.91204736
 H    -16.51821875    -14.94517031     -4.87659277
 H    -17.21486965    -13.39303879     -5.39988231
 H    -16.34569002    -12.95442653     -7.33434692
 H    -15.07771381    -14.17111281     -7.05119063
 H    -14.12608166    -14.03735747     -5.31686710
 H    -14.69938452    -12.36673074     -5.09642023
 H    -14.16635860    -11.38298539     -7.02182616
 H    -13.08307992    -12.74030777     -7.41227453
 H    -11.83315949    -12.78065359     -5.46731599
 H    -12.46376080    -11.16747092     -5.05713271
 H    -11.84658142    -10.17263625     -7.15040138
 H    -10.82323027    -11.59423888     -7.46673194
 H     -9.77949402    -11.03086639     -5.14624931
 H    -10.63793226     -9.47799975     -5.28751376
 H     -9.76404431     -8.85409556     -7.38128476
 H     -8.52368115    -10.11776507     -7.19988662
 H     -7.64436540     -9.65995929     -5.19189251
 H     -8.40663060     -8.05194859     -5.23087967
 H     -8.03287615     -7.02901231     -6.94543282
 H     -6.67459315     -8.11362072     -7.32878455
 H     -5.55165376     -7.95787410     -5.28701427
 H     -6.54477542     -6.53671215     -4.88418086
 H     -5.98230988     -5.38715730     -6.94983323
 H     -4.67288301     -6.57065215     -7.18006763
 H     -3.49319062     -6.62394807     -5.41587561
 H     -4.20161359     -5.08299169     -4.87563772
 H     -4.11749633     -3.64302075     -6.34140891
 H     -2.89841111     -4.58549993     -7.23238080
 H     -1.79091504     -4.46316659     -4.75803740
 H     -3.04819556     -3.23796490     -4.46411026
 H     -2.88900385     -1.75064357     -5.98478110
 H     -1.26197303     -2.33560714     -6.40769362
 H     -0.28895923     -2.31920235     -4.32500305
 H     -1.63220409     -1.31555896     -3.72779299
 H     -1.23317881      0.30871725     -5.58227368
 H      0.32053676     -0.51611985     -5.85407938
 H      1.17756658     -0.38755546     -3.70792224
 H     -0.06030555      0.82899419     -3.31302200
 H      0.54891649      2.22488984     -5.22516005
 H      2.03426996      1.25555732     -5.37478024
 H      3.00555711      1.22688479     -3.48104990
 H      2.02003895      2.60566209     -2.93699681
 H      2.41181985      4.04876925     -4.70347876
 H      3.77551260      3.02193535     -5.20768199
 H      4.86066543      3.02304941     -3.08517657
 H      3.81317668      4.37840736     -2.60140098
 H      4.07905698      5.86518886     -4.21879507
 H      5.53184599      5.00036787     -4.77535180
 H      6.69001517      4.87739952     -2.79026938
 H      5.60175804      6.10719756     -2.10356723
 H      6.30164997      7.47769140     -4.22519043
 H      7.57473837      6.24971334     -4.42414383
 H      8.60016008      6.28757123     -2.42823590
 H      7.80418683      7.83555053     -2.05614271
 H      8.74885757      8.67027369     -4.29040737
 H      9.77248258      7.21424590     -4.26939378
 H     10.57517879      7.96544328     -1.96932700
 H      9.81770590      9.53368453     -2.33691493
 H     10.84744987      9.98042645     -4.35401815
 H     12.03914269      8.70607138     -4.00166315
 H     12.81808275      9.16005037     -2.01725839
 H     12.14715680     10.80535280     -2.12263841
 H     13.96776902      8.85137364     -3.82591995
 H     13.62814064      8.18553179     -2.21050240
 H     14.41732057      9.69404759     -0.81331761
 H     15.33789322     10.44416973     -2.13926234
 H     16.44409112      9.20863734     -3.22703250
 H     16.35569398      7.96357921     -1.95806329
 H     16.61125464      8.15600627     -0.22586658
 H     17.51444631      9.66348573     -0.50873958
 H     18.96121738      9.38605186     -1.98038747
 H     18.83234286      7.61941411     -1.80531861
 H     19.18057295      7.96193242      0.69559365
 H     19.69044180      9.60877958      0.29225499
 H     20.27178864      6.57096984     -0.44550186
 H     19.15966411      6.74953592      0.93274334
 H     21.03014243      7.98119865      2.13808168
 H     22.11128588      7.36880239      0.86357538
 H     22.04116340      5.40856534      0.54823126
 H     21.25376157      5.15265656      2.12391388
 H     22.95471823      6.43527387      3.31326755
 H     23.95977232      6.33882699      1.84737842
 H     23.72681121      3.86059892      1.83798022
 H     23.09814956      3.99692978      3.49763835
 H     25.21832304      5.28285019      4.07087746
 H     25.85964150      4.71000331      2.51240906
 H     25.37618818      2.35907581      3.15311431
 H     25.14570835      2.94592505      4.81767241
 H     27.16383550      4.05818382      5.08130797
 H     27.78380784      3.22125591      3.63789097
 H     27.38609759      1.08074358      4.05462159
 H     27.11868473      1.46527303      5.77185603
 H     29.50840042      2.60200894      5.46346465
 H     29.55160442      1.71130741      3.92299366
 H     29.22635342     -0.09674709      3.78597606
 H     29.54619791     -0.31432157      5.52339585
 H     31.74680404      0.98354439      5.01492368
 H     31.35775923      0.70389437      3.30065804
 H     31.20722277     -1.75143430      3.75133518
 H     31.99332350     -1.42331876      5.31423393
 H     33.79027865     -0.31585379      4.89864242
 H     33.69839913     -0.78660252      3.18451861
 H     33.48110286     -3.06597534      3.42436891
 H     33.99675173     -2.91511359      5.12131135
 H     36.04233961     -1.66215156      4.24644950
 H     35.57930568     -2.25611194      2.63366392
 H     35.62088174     -4.60399014      3.65880528
 H     36.45565087     -3.86032803      5.04386623
 H     38.16306315     -2.95485188      3.39658082
 H     37.45676762     -4.07607363      2.20818901
 H     37.70349533     -6.02606166      3.55609338
 H     38.79955106     -5.10247531      4.61151593
 H     40.51498279     -5.57600933      3.62378340
 H     39.57413341     -5.55240537      1.83712280
 H     39.76821658     -7.45189416      3.07096362
 H     40.89641611     -6.61174912      4.16164634
 H     42.34758196     -5.63922484      3.56002494
 H     42.29092467     -6.47311224      1.98850071
 H     42.22949234     -8.66271406      2.76059013
 H     42.72739043     -8.08151396      4.36762797
 H     44.14660524     -6.95422764      4.65283883
 H     44.83101646     -7.36938835      3.06303082
 H     44.95495894     -9.27815107      2.62264682
 H     44.77554824     -9.71755472      4.33816508
 H     46.53244602     -8.22628341      5.07075343
 H     47.15851435     -8.57345758      3.21161257
 H     47.32237383     -9.63610133      2.31895492
 H     47.01167664    -10.42562971      2.87962829
 H     46.28635348    -11.34958382      3.56670980
 H     47.83680612    -11.38420253      4.58991314
 H     48.92063634    -11.18273382      5.11352896
 H     48.49805756    -12.89128114      4.09876807
 H     49.10751307    -13.81972186      4.88287220
 H     48.61211703    -13.18981144      5.96761251
 H     48.68330202    -14.17240171      6.80093007
 H     49.62490015    -14.60855519      5.74024679
 H     48.87312276    -15.70113286      5.56142034
 H     50.01053761    -15.62351531      6.24166328
 H     50.09382562    -16.92943657      5.95076884
 H     48.79140098    -16.79706358      5.15779043
 H     50.30849937    -18.04515270      6.04604734
 H     49.61836662    -17.72382792      6.84167324
 H     49.43432401    -18.51840153      7.72830975
 H     49.48819368    -18.70790815      7.62194515
 H     50.90563672    -19.98211210      7.60582276
 H     50.08202776    -19.67784795      8.44432082
 H     50.36437480    -20.54358990      9.22672155
 H     50.65311414    -21.12263939      8.64452259
 H     51.43299802    -21.96132576      9.34837254
 H     50.53381183    -21.36723404     10.09553118
 H     51.07992151    -22.89672419     10.50421362
 H     51.15445769    -22.94197856     10.42867399
 H     51.26455052    -23.83629261     11.12583846
 H     51.09201402    -22.66615232     12.15784920
 H     51.22570349    -23.62625380     13.10684687
 H     51.51283608    -24.65861243     12.07938129
 H     51.81047416    -25.35954649     13.33253804
 H     51.21228310    -24.43622994     14.03760514
 H     52.27103156    -25.99896125     14.14409001
 H     52.86644325    -25.13379766     14.01416731
 H     53.04909005    -26.77220575     14.16412595
 H     53.08456966    -26.31260529     13.12170883
 H     52.74664391    -26.45477018     12.03668355
 H     52.44675586    -27.62283228     13.34586832
 H     54.11514042    -27.25365784     12.84740081
