1502
Starting Conformation (Frame 1)
 C      0.00000000      0.00000000      0.00000000
 C      1.54000000      0.00000000      0.00000000
 C      2.16637443      0.74399956      1.19403506
 C      3.68617735      0.95960469      1.07028728
 C      4.21498237      2.16491962      1.86977536
 C      5.75125593      2.24176326      1.94433139
 C      6.27831080      3.26802741      2.96442700
 C      7.64630796      2.90317910      3.57028961
 C      7.61199845      1.67717730      4.50160183
 C      7.37451356      2.02267552      5.98343580
 C      6.52099578      0.98721393      6.73903272
 C      5.06395872      0.89857626      6.24833285
 C      4.26040518      2.19918375      6.43359449
 C      2.81848816      2.12632316      5.89771515
 C      2.19545974      3.50003047      5.58728993
 C      1.93911613      4.36759815      6.83357011
 C      1.09685147      5.62698270      6.55763386
 C      0.68514142      6.39569158      7.82695711
 C     -0.49901890      7.35823475      7.61989435
 C     -1.01898146      8.00028432      8.91951402
 C     -2.15557532      9.01695850      8.70473976
 C     -2.81174978      9.50764263     10.00868154
 C     -3.88562323     10.59157722      9.80015904
 C     -4.18017863     11.43144788     11.05692250
 C     -5.33754064     12.43258152     10.88416653
 C     -5.49663916     13.41497912     12.05940379
 C     -6.75657822     14.29627205     11.97293795
 C     -6.71843065     15.53504217     12.88704590
 C     -5.59257831     16.52947472     12.54769295
 C     -5.64873226     17.83896942     13.35619178
 C     -4.30256449     18.58235010     13.43875986
 C     -4.41013220     20.01241708     13.99995290
 C     -3.10211266     20.82033334     13.91075528
 C     -3.29237119     22.34006176     14.07146372
 C     -2.03228001     23.08136494     14.55544702
 C     -2.08287337     24.60606620     14.34490871
 C     -0.98575237     25.37937523     15.09983828
 C     -0.96234714     26.88913662     14.79706320
 C     -0.69662602     27.77139764     16.03100314
 C     -0.92858114     29.27432693     15.78810321
 C     -2.35621257     29.62120203     15.32642565
 C     -2.65264180     31.13193396     15.28875945
 C     -3.89175647     31.50651116     14.45456118
 C     -4.57818447     32.81003675     14.90315638
 C     -5.92152255     33.08403131     14.20175081
 C     -5.81636654     33.19788905     12.66956980
 C     -7.12243701     33.63902043     11.98314206
 C     -6.91378635     34.31477719     10.61514436
 C     -8.14182765     35.09281776     10.10704257
 C     -8.10929621     35.39850677      8.59803762
 C     -9.37787081     36.09590639      8.07272604
 C     -9.12893964     37.02733064      6.87185879
 C    -10.30010533     37.97864444      6.56368191
 C    -10.04981394     38.91242935      5.36493258
 C    -11.20383980     39.89226999      5.08255582
 C    -10.89271645     40.92690138      3.98513149
 C    -12.11521437     41.74684724      3.53259684
 C    -11.79698790     42.80659436      2.46149088
 C    -13.01670513     43.63638698      2.01952471
 C    -12.69046591     44.72469855      0.97993542
 C    -13.90627414     45.56833695      0.55369064
 C    -13.57768169     46.66472050     -0.47663460
 C    -14.81393210     47.40710261     -1.01714707
 C    -14.50386790     48.38910751     -2.16219142
 C    -15.71278943     49.23190169     -2.60918886
 C    -15.33732665     50.47977546     -3.42982200
 C    -16.54880704     51.26026496     -3.97273213
 C    -16.20490461     52.23720755     -5.11243134
 C    -17.40283831     53.06875910     -5.60748373
 C    -17.09922029     53.92648845     -6.84994759
 C    -18.19126717     54.96133185     -7.17878305
 C    -17.68436692     56.17278728     -7.98316349
 C    -18.79023200     57.16853086     -8.37959398
 C    -18.29684799     58.33805259     -9.25159807
 C    -19.31648185     59.48261814     -9.39964027
 C    -18.67921371     60.88189476     -9.48632498
 C    -19.70005244     62.02886238     -9.60445022
 C    -19.08682325     63.43227352     -9.44324498
 C    -20.10751504     64.57927955     -9.56226362
 C    -19.47581117     65.98369912     -9.54977700
 C    -20.43168250     67.10448442     -9.99894323
 C    -19.80954813     68.51259641     -9.95687821
 C    -20.71198904     69.61388720    -10.54369930
 C    -19.99905126     70.96290873    -10.75217144
 C    -20.95348725     72.16780698    -10.84636349
 C    -20.28259690     73.52270977    -10.55354171
 C    -21.22435959     74.73245076    -10.69917748
 C    -20.66220457     76.03862322    -10.10799625
 C    -21.35206805     77.31154191    -10.63274989
 C    -20.84573933     78.61210678     -9.98177965
 C    -21.76062186     79.82817513    -10.21793153
 C    -21.26220177     81.12528812     -9.55409774
 C    -21.90560153     82.40531252    -10.11905284
 C    -21.62209681     83.66910580     -9.28595524
 C    -22.15358894     84.96866255     -9.91862291
 C    -22.11047928     86.18678378     -8.97738850
 C    -22.39889274     87.52861240     -9.67589664
 C    -22.34472475     88.74797499     -8.73684356
 C    -22.62904496     90.09025131     -9.43616915
 C    -22.90360562     91.25546157     -8.46740629
 C    -23.37014786     92.54931737     -9.16013678
 C    -23.78225846     93.66811363     -8.18542668
 C    -24.21268767     94.97474664     -8.87755446
 C    -24.66271545     96.08022074     -7.90441418
 C    -24.94356889     97.43454918     -8.58155215
 C    -25.62060417     98.46675298     -7.66080326
 C    -26.26694175     99.64632508     -8.41077487
 C    -26.66566688    100.82364559     -7.50163534
 C    -27.29850796    102.00928582     -8.25354587
 C    -26.97902961    103.38407041     -7.63750943
 C    -27.66099570    104.56488911     -8.35318356
 C    -27.30560393    105.94325188     -7.76546527
 C    -27.96846141    107.12563123     -8.49635449
 C    -27.60485281    107.22219167     -9.98969466
 C    -28.50368179    108.18094648    -10.79249954
 C    -28.01494678    108.44211687    -12.22934612
 C    -28.89042521    109.43343156    -13.01829016
 C    -28.57447547    109.48673321    -14.52458850
 C    -29.21211343    110.68232758    -15.25641631
 C    -28.67523277    110.90228546    -16.68294275
 C    -29.64834070    111.65493190    -17.60932512
 C    -28.99130384    112.21817991    -18.88315958
 C    -29.83990455    113.27846575    -19.60929372
 C    -29.13061949    113.93470585    -20.80840323
 C    -29.82985561    115.20278560    -21.33246677
 C    -29.17775462    115.80246976    -22.59212672
 C    -29.73680629    117.18082573    -22.99112053
 C    -31.12067305    117.12446869    -23.66442335
 C    -32.03184114    118.31848169    -23.32426797
 C    -33.44359247    118.22215150    -23.93195099
 C    -34.39356563    119.35132662    -23.49136669
 C    -35.75632922    119.33892661    -24.20852891
 C    -36.88851018    120.01591870    -23.41389190
 C    -38.29717072    119.50948344    -23.77555307
 C    -39.40012145    119.98398073    -22.81121288
 C    -40.82035319    119.55512643    -23.22428166
 C    -41.89260964    119.82413449    -22.15213392
 C    -43.31581001    119.41257077    -22.57250993
 C    -44.32732265    119.38097985    -21.41171530
 C    -45.79914497    119.43321582    -21.86183804
 C    -46.81127140    119.36726638    -20.70302367
 C    -48.28327056    119.39975872    -21.15442451
 C    -49.23822626    120.04194506    -20.13106909
 C    -50.68791713    120.18452535    -20.63073621
 C    -51.70470177    120.50567212    -19.51960447
 C    -53.17037511    120.50417923    -19.99225596
 C    -54.18689753    120.82898754    -18.88194892
 C    -55.64665857    120.89303324    -19.36836012
 C    -56.65539303    121.28470958    -18.27262091
 C    -58.12787604    121.18683188    -18.71286375
 C    -59.12780400    121.74621037    -17.68386434
 C    -60.40042086    122.34670057    -18.30953026
 C    -61.53803634    122.59281036    -17.30113501
 C    -62.81095295    123.19251272    -17.92694680
 C    -63.92395569    123.50143512    -16.90842245
 C    -64.99507395    124.47828393    -17.42810706
 C    -66.09753147    124.80235455    -16.40284336
 C    -67.19093569    125.74660580    -16.93618827
 C    -68.24307402    126.14403285    -15.88421076
 C    -69.58752061    126.59721702    -16.48311597
 C    -70.71238259    126.76158609    -15.44423757
 C    -72.02801424    127.31025896    -16.02705095
 C    -73.16723846    127.43000057    -14.99776473
 C    -74.39946059    128.19627056    -15.51357372
 C    -75.62146556    128.11872971    -14.57960837
 C    -76.89136064    128.77379297    -15.15394156
 C    -78.16677343    128.48783382    -14.33960160
 C    -79.40982168    129.25070408    -14.83403059
 C    -80.72209971    128.81724479    -14.15459008
 C    -81.99190080    129.25747910    -14.90652023
 C    -83.27402843    129.20478609    -14.05506725
 C    -84.55062443    129.60080821    -14.81996537
 C    -85.84805466    129.41664434    -14.01104110
 C    -87.13205913    129.51502148    -14.85558503
 C    -88.40767103    129.76371759    -14.02941039
 C    -89.67770508    129.95267521    -14.87965067
 C    -90.98658331    129.90524424    -14.06959629
 C    -92.25894811    130.03863643    -14.92685608
 C    -93.56670678    129.80821573    -14.14693713
 C    -94.80523282    129.61973100    -15.04255242
 C    -96.13101615    129.52058257    -14.26533420
 C    -97.38098252    129.46684884    -15.16327449
 C    -98.71116289    129.50912685    -14.38839853
 C    -99.95837393    129.33655624    -15.27512508
 C   -101.17234626    128.73955383    -14.53928590
 C   -102.47822148    128.77401761    -15.35482386
 C   -103.65973089    128.05644071    -14.67606108
 C   -105.03587656    128.66099680    -15.01122524
 C   -106.14874702    128.27287804    -14.02002235
 C   -107.56053937    128.69658209    -14.46602375
 C   -108.67990395    128.25517642    -13.50488695
 C   -110.08040792    128.75820254    -13.90131266
 C   -111.20230385    128.30190002    -12.95013575
 C   -112.62234909    128.54979861    -13.49200086
 C   -113.66529899    127.52550453    -13.00756601
 C   -114.96733889    127.52059214    -13.82992114
 C   -116.11064945    126.71298895    -13.18787905
 C   -117.24979872    126.35739977    -14.16127274
 C   -117.97353330    125.04051109    -13.82420824
 C   -119.07387407    124.65520306    -14.83038313
 C   -119.77323988    123.32035720    -14.51309144
 C   -120.81253365    122.89202577    -15.56570754
 C   -121.76897496    121.78406355    -15.08691768
 C   -122.78668024    121.33224899    -16.15075017
 C   -123.61329528    120.09860847    -15.74278123
 C   -124.25414350    119.35391109    -16.92867304
 C   -125.08751480    118.12504210    -16.52004941
 C   -125.44645956    117.19357033    -17.69270409
 C   -126.30595605    115.98113492    -17.28913729
 C   -126.68172468    115.06049751    -18.46507296
 C   -127.21922289    113.68288836    -18.03508611
 C   -126.12003065    112.64166242    -17.75361679
 C   -126.61645436    111.39580679    -16.99664437
 C   -125.48893996    110.54539903    -16.38254511
 C   -125.98856447    109.37238651    -15.51882236
 C   -124.88112106    108.38884522    -15.09714046
 C   -125.40709239    107.08755306    -14.46342690
 C   -124.31045297    106.21182050    -13.82933347
 C   -123.08568317    105.98782564    -14.73562549
 C   -122.01980795    105.05622574    -14.12929912
 C   -120.85204504    104.73729064    -15.08124985
 C   -119.67746185    104.00348461    -14.40783835
 C   -118.61842391    103.47831896    -15.39487416
 C   -117.28471894    103.08594669    -14.73239771
 C   -116.08480111    103.07642689    -15.69764720
 C   -114.71594623    103.01512104    -14.99474045
 C   -113.52232056    102.88137478    -15.95857120
 C   -112.14799942    102.99878980    -15.27369520
 C   -110.95424524    102.82185585    -16.23037975
 C   -109.58916327    102.74700272    -15.52147339
 C   -108.40463432    102.48317319    -16.46956893
 C   -107.05907326    102.27868727    -15.74897824
 C   -105.83123527    102.38802792    -16.67204837
 C   -104.64002659    101.51483330    -16.23598294
 C   -103.38498145    101.68473366    -17.11210825
 C   -102.13020264    100.99091668    -16.55019355
 C   -100.81354483    101.45569887    -17.19980091
 C    -99.56470438    101.20172407    -16.33522336
 C    -98.24014447    101.58789763    -17.01933668
 C    -96.98630250    101.04865856    -16.30610351
 C    -95.67864165    101.74554439    -16.72559516
 C    -94.44669762    101.30800755    -15.91166924
 C    -93.10170730    101.69412791    -16.55471830
 C    -91.87494401    101.37645815    -15.67965386
 C    -90.52970948    101.75893242    -16.32436890
 C    -89.30079938    101.17590732    -15.60224585
 C    -87.97808721    101.35938462    -16.36929774
 C    -86.80480064    100.54066990    -15.79946897
 C    -85.42060490    101.00546733    -16.28892328
 C    -84.24614375    100.46288173    -15.45355398
 C    -82.85938553    100.77261579    -16.04732705
 C    -81.71271583     99.95999762    -15.41772375
 C    -80.32115695    100.59318192    -15.60276839
 C    -79.15399153     99.60593279    -15.41658555
 C    -77.89224320     99.96874153    -16.22154578
 C    -76.79112730     98.89295510    -16.17879856
 C    -75.50268820     99.28539936    -16.92546594
 C    -74.41379487     98.19650392    -16.91069985
 C    -73.16164047     98.55162622    -17.73386297
 C    -71.94689654     97.64954898    -17.44706368
 C    -70.86149042     97.69480321    -18.53859730
 C    -69.62880597     96.82388687    -18.23266630
 C    -68.56096663     96.83794538    -19.34222544
 C    -67.59943032     95.63570377    -19.30144533
 C    -66.43248064     95.73273863    -20.30165164
 C    -65.39786221     94.59980573    -20.16888200
 C    -64.19081538     94.73980306    -21.11494685
 C    -63.03467080     93.77157513    -20.80275397
 C    -62.06315759     93.55639406    -21.97810888
 C    -60.72615259     92.90724776    -21.57483887
 C    -60.08009570     92.06077973    -22.68735960
 C    -58.89961165     91.19469072    -22.20992141
 C    -58.18580606     90.43060037    -23.34051749
 C    -57.06072666     89.49860015    -22.85351447
 C    -56.15582377     88.96705599    -23.98055110
 C    -55.09788423     89.97671628    -24.46320009
 C    -53.80180066     89.32626202    -24.98154036
 C    -52.77685432     89.00592231    -23.87769822
 C    -51.31230622     89.04565729    -24.35216634
 C    -50.28654390     88.74181914    -23.24442357
 C    -48.82079299     88.91935053    -23.68220989
 C    -47.79844970     88.70029360    -22.55153386
 C    -46.48542024     89.48409365    -22.73377297
 C    -45.42346120     89.18563390    -21.65917315
 C    -44.00990506     89.67750104    -22.02183796
 C    -42.93686084     89.32730125    -20.97420434
 C    -41.55835457     89.95326502    -21.25614374
 C    -40.37191308     89.10112065    -20.76848959
 C    -38.99296141     89.67023948    -21.15084550
 C    -37.83525600     89.14336927    -20.28267158
 C    -36.53576579     89.96007865    -20.40881033
 C    -35.39931294     89.47488224    -19.48975681
 C    -34.20591085     90.44443916    -19.40401975
 C    -33.18104097     90.08141566    -18.31339805
 C    -31.99768038     91.06197137    -18.21456383
 C    -31.04974268     90.78267163    -17.03346020
 C    -29.82158750     91.71040837    -16.98306779
 C    -28.82770078     91.37322010    -15.85608365
 C    -27.47443386     92.09829190    -15.97666359
 C    -26.56164656     91.92939502    -14.74788648
 C    -25.15456177     92.52949713    -14.92562183
 C    -24.31714756     92.55609771    -13.63348026
 C    -22.90471954     93.14254132    -13.81439729
 C    -22.16525356     93.41461725    -12.49123261
 C    -20.74182955     93.97367606    -12.67266388
 C    -20.08434953     94.44979482    -11.36398861
 C    -18.63894108     94.95259457    -11.53599686
 C    -17.87016978     95.11421747    -10.21143326
 C    -16.34241682     95.20761621    -10.38127893
 C    -15.56277760     95.19777420     -9.05324812
 C    -14.04415030     95.00384205     -9.21986583
 C    -13.26238019     95.01175215     -7.89307538
 C    -11.74118151     94.84075526     -8.06134494
 C    -10.94178348     95.02917831     -6.75863255
 C     -9.42422652     94.82243319     -6.91949682
 C     -8.66646668     94.68146937     -5.58625670
 C     -7.21384819     94.19373319     -5.73992180
 C     -6.35622794     94.37113552     -4.47318745
 C     -4.92816315     93.80881500     -4.59978361
 C     -4.12243336     93.84426324     -3.28786024
 C     -2.68469121     93.30878402     -3.42112508
 C     -1.93666618     93.18226767     -2.08095637
 C     -0.43315621     92.88349704     -2.22858393
 C      0.31435252     92.75436350     -0.88837678
 C      1.81333451     92.43346611     -1.03561082
 C      2.49584060     92.01238692      0.27910502
 C      3.97199955     91.60500728      0.11602039
 C      4.66517882     91.22037242      1.43630768
 C      6.16653141     90.91100546      1.28854955
 C      6.86247895     90.53879983      2.61094132
 C      8.39002790     90.38320972      2.49267922
 C      8.99475182     89.36906644      3.48132597
 C     10.24577693     88.64540751      2.94948584
 C     10.88757841     87.67818737      3.96150167
 C     12.07476494     86.87679453      3.39585366
 C     12.65433882     85.83992070      4.37594894
 C     14.05403238     85.32685099      3.98966225
 C     14.45765849     84.01794149      4.69353858
 C     15.66137460     83.30562637      4.04912046
 C     15.99374145     81.94122997      4.68122389
 C     17.18590472     81.22052487      4.02477061
 C     17.45295306     79.81185696      4.58685592
 C     18.20208260     78.88131396      3.61500478
 C     18.61857389     77.53392372      4.23361172
 C     19.27292666     76.56161244      3.23459558
 C     19.79275844     75.26120804      3.87516041
 C     20.28528522     74.21520304      2.85786454
 C     20.46040829     72.80296704      3.44652522
 C     20.79873901     71.72547336      2.39955832
 C     21.50247443     70.48553592      2.98171947
 C     21.24513655     69.18986672      2.19012705
 C     21.32996305     67.90887228      3.04069021
 C     20.84890631     66.64024970      2.31214291
 C     20.99982762     65.34877321      3.13731636
 C     20.41554323     64.09777989      2.45524053
 C     20.43244838     62.83684953      3.33919123
 C     19.78109162     61.60434448      2.68477112
 C     19.80644378     60.34093842      3.56497700
 C     19.04335452     59.14486248      2.96606370
 C     19.25794669     57.82177458      3.72434372
 C     18.43666089     56.64239493      3.17103254
 C     18.67719587     55.31147297      3.90750363
 C     17.52045415     54.30366575      3.77381298
 C     17.86303538     52.88725099      4.27181634
 C     16.74080911     51.85644907      4.04898097
 C     17.10510062     50.42785800      4.49397450
 C     16.11934275     49.34956898      4.00696916
 C     16.32552343     47.97090051      4.66146346
 C     15.18941058     46.96920388      4.38316247
 C     15.38087453     45.60037564      5.06231694
 C     14.35302769     44.53783852      4.63087081
 C     14.84644595     43.08780246      4.79066392
 C     15.70107605     42.58359750      3.61296075
 C     15.87427277     41.05385115      3.57450302
 C     16.56738855     40.53375704      2.30143875
 C     16.27234635     39.05533568      1.98708165
 C     17.25541154     38.41939721      0.98669918
 C     16.57315482     37.72536488     -0.20680193
 C     17.51024294     36.81355899     -1.02048238
 C     16.83713704     36.14774967     -2.23507136
 C     17.63925192     34.97627291     -2.83160629
 C     16.92757337     34.25660415     -3.99229164
 C     17.83852840     33.30847324     -4.79404517
 C     17.12945922     32.59683187     -5.96125872
 C     18.05609680     31.70165860     -6.80482710
 C     19.08275971     30.90662297     -5.97688893
 C     18.65017840     29.46254036     -5.66208924
 C     19.68991922     28.65792272     -4.86013570
 C     19.36495810     27.15727115     -4.74162356
 C     20.20477441     26.41607692     -3.68476989
 C     19.70272863     24.99464945     -3.36997794
 C     20.12543293     24.47371605     -1.98377830
 C     19.64512637     23.04257004     -1.67926767
 C     20.12191083     22.49774321     -0.32006191
 C     19.83961255     20.99814177     -0.11244878
 C     20.06290407     20.51282552      1.33192272
 C     19.71618028     19.02901003      1.55479982
 C     20.20012801     18.46866130      2.90513455
 C     19.83404637     16.99096158      3.13748719
 C     20.44504047     16.02458860      2.10578497
 C     20.19503114     14.53704080      2.41610236
 C     21.07200745     13.57061934      1.59845812
 C     20.65651171     12.09270939      1.71988911
 C     21.17063461     11.20134121      0.57414027
 C     20.91712449      9.69753790      0.78840228
 C     21.43286223      8.80601777     -0.35650228
 C     21.60073953      7.32479074      0.02999958
 C     21.90760522      6.39764148     -1.16072613
 C     21.90634887      4.89939452     -0.80455979
 C     20.57227071      4.39471140     -0.22393049
 C     20.37550296      2.87164099     -0.33855587
 C     19.05818413      2.36229119      0.27531210
 C     18.62395854      0.97588190     -0.23548866
 C     17.52327813      0.31228096      0.61288416
 C     16.90608368     -0.94246616     -0.03231400
 C     15.96297254     -1.72632285      0.89919557
 C     14.64856372     -0.99171578      1.22212267
 C     13.58670704     -1.87687890      1.90075855
 C     12.25865988     -1.15246367      2.18905236
 C     11.17966742     -2.05078624      2.82181757
 C      9.74418992     -1.51923926      2.65311022
 C      8.67172123     -2.38126942      3.34471337
 C      7.22594789     -1.97782308      3.00037267
 C      6.16263228     -2.62108670      3.90986255
 C      4.72978602     -2.12035318      3.64944457
 C      3.72872915     -2.47916321      4.76332989
 C      2.31471200     -1.91083720      4.54160699
 C      1.36551843     -2.10837916      5.73810552
 C      0.03725063     -1.33844028      5.61769468
 C     -0.60895879     -0.98874618      6.97110793
 C     -0.54529704      0.50809945      7.32747902
 C     -1.20989137      0.86089511      8.67114922
 C     -0.95214455      2.30589657      9.13712923
 C     -1.88221756      2.77336388     10.27204707
 C     -1.77507419      4.27620373     10.59078315
 C     -2.55855844      4.70807184     11.84427523
 C     -2.29653025      6.16279167     12.27639959
 C     -2.89141325      6.52504146     13.64989488
 C     -2.92218097      8.03714312     13.94007056
 C     -3.79727508      8.42580908     15.14620034
 C     -4.48351664      9.79732162     15.00610798
 C     -5.16466735     10.29156536     16.29581990
 C     -6.00746934     11.56698899     16.10986466
 C     -6.58398240     12.13346022     17.42072050
 C     -7.48931703     13.36403096     17.22664613
 C     -8.14099033     13.87334412     18.52569271
 C     -9.22954680     14.93988252     18.30401582
 C    -10.00521350     15.31776824     19.57961119
 C    -10.69390108     16.69341218     19.50951717
 C     -9.71804813     17.87568518     19.36274667
 C     -9.09708296     18.34404245     20.69189817
 C     -7.77292319     19.11303443     20.52803163
 C     -6.69760433     18.34688017     19.73537975
 C     -5.41233408     19.15589146     19.48007380
 C     -4.57613007     18.64487053     18.29212580
 C     -3.22251184     19.36005205     18.12529328
 C     -2.14484293     18.50706740     17.43056534
 C     -0.85689813     19.28001548     17.09093398
 C      0.11097329     18.51151709     16.17211129
 C      0.95159288     19.41567247     15.25153444
 C      1.54904389     18.68692844     14.03350963
 C      0.51446925     18.32083306     12.95312568
 C      0.34460033     16.80565543     12.73637402
 C     -0.72701550     16.43840013     11.69312761
 C     -1.46099486     15.11698047     11.98761762
 C     -1.78079967     14.89674372     13.47785944
 C     -1.77831299     13.41777909     13.90711160
 C     -2.33112901     13.17584952     15.32396181
 C     -1.24611520     12.89549774     16.38025150
 C     -1.70851134     13.12925216     17.83047516
 C     -0.64444104     12.78749904     18.88998410
 C     -1.03946657     13.18338870     20.32484514
 C     -0.93451215     14.69322053     20.60943680
 C     -2.03790985     15.23382240     21.53780264
 C     -1.99476613     16.75995542     21.73943752
 C     -0.62889337     17.29085819     22.21286528
 C     -0.67576205     18.72123278     22.78157599
 C     -1.22106038     19.77014504     21.79464500
 C     -1.18051538     21.21382409     22.32919798
 C     -2.03147504     22.20695997     21.51608743
 C     -1.49389284     22.47843046     20.09872751
 C     -2.05823255     23.75536602     19.44868424
 C     -3.58247081     23.72625635     19.23085316
 C     -4.08708482     24.74978065     18.19675322
 C     -5.59296932     24.64263451     17.89272760
 C     -6.02585863     23.26865920     17.34830251
 C     -7.55113964     23.09640040     17.22402565
 C     -8.00641059     21.63239145     17.07909064
 C     -7.25767318     20.84898975     15.98489044
 C     -7.68866734     19.37553563     15.86332986
 C     -9.19614094     19.18232533     15.61474767
 C     -9.61133898     17.71622467     15.39167940
 C    -11.13421477     17.50178998     15.31126123
 C    -11.55919766     16.02159083     15.31108195
 C    -10.78154411     15.14675810     14.31032092
 C    -11.06689691     13.63921374     14.44254720
 C     -9.93746592     12.73873725     13.90857369
 C    -10.33026968     11.25597652     13.77173135
 C    -11.33444386     10.77332497     14.83487842
 C    -11.79336853      9.31537045     14.64684451
 H     -0.36333333      0.00000000      1.02766186
 H     -0.36333333     -0.88998127     -0.51383093
 H     -0.36333333      0.88998127     -0.51383093
 H      1.88274777      0.84318370      0.59972095
 H      1.88274777      0.99407424      0.28712430
 H      3.25086594      0.67036878      1.11306179
 H      2.99896485      1.34342785      0.82582463
 H      3.91936200      1.96509069      1.42060545
 H      4.05706820      1.33967200      2.02217426
 H      5.18615666      1.89963900      2.28756322
 H      5.29070738      2.04536881      1.99870679
 H      6.04840455      3.28388925      1.82695963
 H      6.03605028      2.40919395      2.98306097
 H      6.75982728      2.72602583      3.77835340
 H      6.87256761      2.73759167      3.70846784
 H      7.48707717      2.55300108      4.59015279
 H      7.83975895      1.84933341      3.37007481
 H      8.34018881      1.83117818      5.29791993
 H      6.69020964      1.71348012      5.08219420
 H      6.30589821      1.94949279      6.18543958
 H      6.99811969      1.13221483      6.48693100
 H      5.55362065      1.43739986      6.96178367
 H      5.74037938      0.63056398      6.06706632
 H      4.41088483      1.24524756      7.04921581
 H      4.73775715      1.89805944      5.96071173
 H      3.30621539      1.94940813      6.89752766
 H      3.22535814      1.93471051      6.65000045
 H      2.26079970      2.97288755      6.29823022
 H      2.85976127      1.89768239      4.83276449
 H      2.81434987      3.99599037      4.83956084
 H      2.53491919      4.20889244      6.34252632
 H      2.89057281      4.52936477      7.34018807
 H      1.26278398      3.82607372      7.49495208
 H      0.49613738      5.83818361      7.44230146
 H      1.62011852      6.23422441      5.81902091
 H      1.59045589      6.69744833      8.35369097
 H      0.10287314      5.72577965      8.45963527
 H     -1.35607094      6.77849694      7.27716140
 H     -0.22153821      8.08340692      6.85489121
 H     -0.20133476      8.55645046      9.37802586
 H     -1.33827893      7.20365102      9.59146976
 H     -2.98630950      8.50484629      8.21922787
 H     -1.78750114      9.81015250      8.05399813
 H     -2.04366484      9.97700515     10.62337198
 H     -3.21937486      8.64362846     10.53348752
 H     -4.66494531     10.18272777      9.15704223
 H     -3.41970174     11.44554395      9.30847014
 H     -3.25629105     11.91950836     11.36729114
 H     -4.51934196     10.76026563     11.84596155
 H     -6.23766328     11.87468458     10.62603818
 H     -5.08478394     13.11147447     10.06972291
 H     -4.56911261     13.97797328     12.16348111
 H     -5.67516612     12.83792727     12.96672913
 H     -7.62990958     13.64443844     11.95045951
 H     -6.70921026     14.87224657     11.04875744
 H     -5.68145905     15.85582577     12.98648325
 H     -6.60637407     15.19740149     13.91735755
 H     -5.73061501     16.86588336     11.52013512
 H     -4.63843403     16.00973898     12.63477594
 H     -5.57935452     17.59108061     14.41536026
 H     -6.60497226     18.32325014     13.15825935
 H     -3.97895518     18.81895900     12.42515577
 H     -3.57400832     17.92098445     13.90769629
 H     -4.83263768     19.95605206     15.00315382
 H     -5.07836805     20.58400454     13.35586547
 H     -2.80969825     20.88452502     12.86267454
 H     -2.33240844     20.28934043     14.47084630
 H     -3.74543307     22.52772020     15.04492109
 H     -3.96347106     22.68647777     13.28551149
 H     -1.23497906     22.91034910     13.83214572
 H     -1.74137998     22.66832638     15.52130225
 H     -2.94181669     24.99887936     14.88898057
 H     -2.20733991     24.80103857     13.27973555
 H     -0.01548130     25.01829458     14.75881802
 H     -1.09489050     25.17668443     16.16525149
 H     -1.48055421     27.40845155     15.60321048
 H     -0.80078143     27.02170618     13.72728667
 H      0.26927392     27.49107772     16.45119124
 H     -1.48071575     27.58090247     16.76381614
 H     -1.51273482     29.38777875     14.87487095
 H     -0.26545286     29.59823107     14.98595173
 H     -3.05518875     29.28596389     16.09268128
 H     -2.55435530     29.08904985     14.39602062
 H     -1.94712979     31.60268442     14.60410859
 H     -2.50940999     31.53442817     16.29154710
 H     -4.75729588     30.99787555     14.87909779
 H     -3.73351629     31.16268706     13.43238456
 H     -3.85513692     33.62208903     14.82651873
 H     -4.88654983     32.69497675     15.94227716
 H     -6.59402941     32.25248335     14.41237488
 H     -5.84115594     32.75351080     13.16618459
 H     -5.41260635     32.26203304     12.28323934
 H     -5.13331802     34.01359401     12.43256740
 H     -7.40632157     34.61347521     12.38056809
 H     -7.89739918     32.91011988     12.22028680
 H     -6.40288522     33.61002265      9.95909476
 H     -6.28818845     35.19557173     10.75981033
 H     -8.38463022     35.86483179     10.83720779
 H     -8.97697863     34.39754753     10.02205938
 H     -8.05487121     34.45328885      8.05794411
 H     -7.21791035     35.98931815      8.38715100
 H     -9.49964981     37.03622707      8.61037545
 H    -10.23231491     35.44948714      8.27314420
 H     -8.70267757     36.43563107      6.06174012
 H     -8.41661335     37.79461948      7.17510638
 H    -10.48149243     38.59534586      7.44395350
 H    -11.18422043     37.37686619      6.35319811
 H     -9.86679007     38.29746025      4.48378828
 H     -9.16631503     39.51424648      5.57787815
 H    -11.35648997     40.50684831      5.96973754
 H    -12.10485234     39.31224740      4.88293071
 H    -10.66476423     40.39113275      3.06367083
 H    -10.02136358     41.50377965      4.29505994
 H    -12.51325263     42.27524508      4.39888852
 H    -12.86785597     41.05737032      3.15016749
 H    -11.38275160     42.29951479      1.59006756
 H    -11.05521486     43.49359739      2.86879861
 H    -13.42096508     44.14455557      2.89498949
 H    -13.76636815     42.95568296      1.61610508
 H    -12.26727123     44.24158219      0.09925111
 H    -11.95372564     45.40178231      1.41222160
 H    -14.31506126     46.05287139      1.44038081
 H    -14.65448903     44.90022362      0.12719439
 H    -13.16338794     46.18742899     -1.36469625
 H    -12.83320778     47.33164734     -0.04181603
 H    -15.33021319     47.87048335     -0.17641399
 H    -15.47175650     46.67811370     -1.49037242
 H    -14.05491764     47.82867389     -2.98222667
 H    -13.79261447     49.12933072     -1.79573794
 H    -16.06653444     49.80523974     -1.75230617
 H    -16.49874319     48.55411348     -2.94232522
 H    -14.79791696     50.15527297     -4.31967328
 H    -14.68796886     51.10821019     -2.82031051
 H    -17.15934458     51.57704923     -3.12716034
 H    -17.12895691     50.59280111     -4.60992765
 H    -15.76892473     51.66703776     -5.93275320
 H    -15.47387689     52.95477659     -4.73988181
 H    -17.79062492     53.64498201     -4.76743093
 H    -18.17189518     52.38344893     -5.96385641
 H    -16.78589219     53.26316552     -7.65612883
 H    -16.28593041     54.60945266     -6.60455105
 H    -18.30255121     55.62614692     -6.32219868
 H    -19.12715398     54.42940588     -7.34986975
 H    -17.26281416     55.80973409     -8.92049248
 H    -16.90622568     56.66835290     -7.40263707
 H    -19.26352628     57.53555650     -7.46888837
 H    -19.52699956     56.63965610     -8.98421373
 H    -17.86311327     57.92677733    -10.16309511
 H    -17.53066213     58.87971403     -8.69692509
 H    -19.54522879     59.86849455     -8.40622483
 H    -20.22295600     59.07801704     -9.84986529
 H    -18.01328706     60.90238842    -10.34900784
 H    -18.10196266     61.05251146     -8.57760546
 H    -20.34914945     62.00148119     -8.72922262
 H    -20.29503714     61.86693549    -10.50326771
 H    -18.32975018     63.56632244    -10.21588413
 H    -18.61785110     63.49063482     -8.46102348
 H    -20.86505056     64.44547983     -8.79003467
 H    -20.57591448     64.52069788    -10.54474525
 H    -18.78136686     66.05461921    -10.38692540
 H    -18.93045891     66.10591704     -8.61395987
 H    -21.29213944     67.10973050     -9.32984956
 H    -20.76238718     66.88642686    -11.01441618
 H    -18.93838214     68.52211524    -10.61191959
 H    -19.49673252     68.71865949     -8.93326481
 H    -21.64239659     69.63315735     -9.97618678
 H    -20.92547411     69.36440835    -11.58306662
 H    -19.16216276     70.80670688    -11.43284656
 H    -19.62391711     71.30498357     -9.78762016
 H    -21.52801833     72.22305835     -9.92172230
 H    -21.62999085     72.00441957    -11.68526004
 H    -19.47549795     73.66783057    -11.27161638
 H    -19.87020946     73.49013774     -9.54508959
 H    -22.05591851     74.60484842    -10.00612092
 H    -21.60277823     74.75113785    -11.72120983
 H    -19.72608713     76.26987184    -10.61623656
 H    -20.46992883     75.87972737     -9.04692031
 H    -22.41244311     77.25271371    -10.38730339
 H    -21.23108558     77.34541973    -11.71548510
 H    -19.77625329     78.69780824    -10.17401615
 H    -21.01771939     78.54714831     -8.90739459
 H    -22.74513765     79.60094866     -9.80903447
 H    -21.84244442     79.99200366    -11.29243852
 H    -20.27456196     81.35682112     -9.95292110
 H    -21.18943711     80.95456311     -8.48001288
 H    -22.98402997     82.33912275     -9.97513963
 H    -21.68388336     82.45868069    -11.18492943
 H    -20.54302639     83.81740724     -9.24455836
 H    -22.00570850     83.50862611     -8.27838969
 H    -23.23251380     84.87387137    -10.04124338
 H    -21.68615825     85.09028714    -10.89576978
 H    -21.07588163     86.35052574     -8.67589842
 H    -22.71395178     85.96194054     -8.09797593
 H    -23.39158838     87.47587872    -10.12296994
 H    -21.65493973     87.67416404    -10.45912626
 H    -21.34872672     88.79774293     -8.29683097
 H    -23.08368306     88.60632048     -7.94818989
 H    -23.62408955     90.04224846     -9.87852872
 H    -21.88796891     90.23047664    -10.22308919
 H    -22.03105889     91.38105254     -7.82632196
 H    -23.76882975     90.99701750     -7.85691969
 H    -24.28862982     92.33379024     -9.70606621
 H    -22.59571015     92.86136756     -9.86082994
 H    -22.92542519     93.90650944     -7.55526465
 H    -24.59825154     93.29837022     -7.56450389
 H    -25.06081199     94.75570560     -9.52625019
 H    -23.37830784     95.33472206     -9.47949134
 H    -23.83344603     96.30476672     -7.23360023
 H    -25.50668971     95.70474474     -7.32577335
 H    -25.72898387     97.29045965     -9.32348308
 H    -24.03122198     97.76535473     -9.07782909
 H    -24.96987877     98.64045394     -6.80378259
 H    -26.56858580     98.05136112     -7.31892545
 H    -27.01956382     99.24857280     -9.09154881
 H    -25.49128711    100.15464814     -8.98354668
 H    -25.76955509    101.18701633     -6.99859921
 H    -27.37599445    100.45858548     -6.75983627
 H    -28.19276040    101.65291433     -8.76483045
 H    -26.57991328    102.37189961     -8.98855126
 H    -25.89710367    103.51649482     -7.63730714
 H    -27.34642792    103.39356150     -6.61133771
 H    -28.73966691    104.41346905     -8.31268191
 H    -27.33371073    104.57077607     -9.39287096
 H    -26.22614374    106.07752331     -7.83501294
 H    -27.60673195    105.95719825     -6.71797904
 H    -29.04974460    106.99877975     -8.44310631
 H    -28.01983265    106.88662633     -9.55858688
 H    -27.91609397    106.29905798    -10.47862527
 H    -26.52345160    107.33063273    -10.07283290
 H    -28.42099713    109.17568169    -10.35458961
 H    -29.53357651    107.83311784    -10.71229912
 H    -27.97415639    107.48873019    -12.75611931
 H    -27.01464444    108.87210423    -12.17829601
 H    -28.90175082    110.38246824    -12.48228539
 H    -29.90267234    109.03222397    -13.06817204
 H    -28.72361868    108.49073412    -14.94153228
 H    -27.53140074    109.77893879    -14.64587745
 H    -28.84609398    111.60038407    -14.79674028
 H    -30.29361211    110.62133616    -15.13500517
 H    -28.86909141    110.00122853    -17.26484931
 H    -27.60012989    111.07131990    -16.62227031
 H    -29.85747526    112.62930494    -17.16778245
 H    -30.57215433    111.08023643    -17.67560844
 H    -28.55924904    111.38790450    -19.44179309
 H    -28.20025695    112.90634920    -18.58522026
 H    -30.01794154    114.10495559    -18.92131307
 H    -30.79155118    112.82490462    -19.88633344
 H    -28.87269769    113.15356568    -21.52352306
 H    -28.21965571    114.41268951    -20.44815800
 H    -29.87491779    115.92943207    -20.52126130
 H    -30.84161039    114.93520393    -21.63718356
 H    -29.19786101    115.04952452    -23.38001579
 H    -28.14373662    116.05391615    -22.35615746
 H    -29.57623839    117.86910133    -22.16130450
 H    -30.80353231    117.19582056    -22.76757918
 H    -31.82056504    116.65842612    -22.97084169
 H    -31.03964186    116.51404253    -24.56381973
 H    -31.53214306    119.23293615    -23.64391602
 H    -32.17687222    118.34218297    -22.24421971
 H    -33.91598110    117.31336558    -23.55904732
 H    -33.34679270    118.16278971    -25.01602017
 H    -33.95589389    120.30371587    -23.79052913
 H    -34.48476406    119.31843706    -22.40568666
 H    -36.24159420    118.38416777    -24.00591240
 H    -35.58078191    119.43715879    -25.27980552
 H    -36.60661536    121.05291547    -23.23148296
 H    -36.99739828    119.49617455    -22.46199411
 H    -38.33615737    118.43750247    -23.58206708
 H    -38.46562738    119.69353593    -24.83661246
 H    -39.41555625    121.07385166    -22.81778013
 H    -39.15531183    119.63010594    -21.80974352
 H    -40.85001168    118.46648514    -23.26989426
 H    -41.02875142    119.96598079    -24.21214241
 H    -41.90529553    120.89337325    -21.94078694
 H    -41.61883702    119.27850360    -21.24911926
 H    -43.31266034    118.34529260    -22.79388603
 H    -43.58227379    119.96921425    -23.47097813
 H    -44.37457909    120.37682352    -20.97107689
 H    -43.97117588    118.67023071    -20.66599743
 H    -45.99089724    118.57582268    -22.50697995
 H    -45.95276418    120.35350449    -22.42537146
 H    -46.62614481    120.21068611    -20.03783850
 H    -46.65148702    118.43517184    -20.16101931
 H    -48.45903054    118.54831657    -21.81188530
 H    -48.45255422    120.32506198    -21.70511219
 H    -48.91151951    121.06653659    -19.95337584
 H    -49.17699401    119.47480845    -19.20224904
 H    -51.06526551    119.19167754    -20.87560641
 H    -50.68176978    120.80251751    -21.52859360
 H    -51.41130202    121.44304328    -19.04700326
 H    -51.67329090    119.70227984    -18.78361929
 H    -53.40044736    119.51674769    -20.39243807
 H    -53.27710517    121.24953342    -20.78039035
 H    -53.95601550    121.81724527    -18.48428054
 H    -54.08078052    120.08555441    -18.09191958
 H    -55.90705011    119.92631335    -19.79934608
 H    -55.71883007    121.66410230    -20.13539583
 H    -56.37910233    122.26622354    -17.88740176
 H    -56.59327738    120.54901770    -17.47074866
 H    -58.32862827    120.15797659    -19.01162004
 H    -58.27507549    121.84837356    -19.56655862
 H    -58.89073689    122.79601806    -17.51122891
 H    -59.01031188    121.18954363    -16.75412366
 H    -60.90030950    121.56720575    -18.88450781
 H    -60.10513138    123.15704161    -18.97605222
 H    -61.17539727    123.27939811    -16.53615777
 H    -61.79938354    121.64033012    -16.84007208
 H    -63.17339286    122.50543707    -18.69158029
 H    -62.55002980    124.14488973    -18.38846292
 H    -63.53363972    124.21104416    -16.17889627
 H    -64.19428789    122.57365317    -16.40419915
 H    -65.45401165    124.04311342    -18.31585860
 H    -64.50471021    125.41460129    -17.69447751
 H    -65.62869964    125.24392206    -15.52346014
 H    -66.58987723    123.87100595    -16.12304804
 H    -67.65621790    125.27723705    -17.80296705
 H    -66.71886077    126.68129760    -17.23883741
 H    -67.73248129    126.64189552    -15.05987598
 H    -68.72270484    125.23588663    -15.51907419
 H    -69.99078980    125.77831167    -17.07882395
 H    -69.40357105    127.45795707    -17.12606941
 H    -70.39617080    127.50371653    -14.71119424
 H    -70.86383948    125.80275697    -14.94844777
 H    -72.37307939    126.62368358    -16.80012552
 H    -71.82608405    128.28517843    -16.47073577
 H    -72.84040741    128.09808839    -14.20093342
 H    -73.36171057    126.44008457    -14.58503370
 H    -74.78370695    127.67643705    -16.39119998
 H    -74.08499080    129.20119592    -15.79523623
 H    -75.34007949    128.53384360    -13.61182619
 H    -75.89518566    127.07050244    -14.45962125
 H    -77.14235069    128.27312866    -16.08905612
 H    -76.67630265    129.82413198    -15.35050715
 H    -78.01718001    128.86050769    -13.32627244
 H    -78.32050681    127.40910850    -14.31100585
 H    -79.59479253    128.96931773    -15.87071159
 H    -79.20056762    130.31902975    -14.77932218
 H    -80.62319008    128.98190141    -13.08164782
 H    -80.87295262    127.75497915    -14.34677513
 H    -81.96494919    128.82551053    -15.90690854
 H    -81.98698185    130.34498214    -14.98009289
 H    -83.14095217    129.86001004    -13.19421169
 H    -83.41635332    128.17971755    -13.71290045
 H    -84.67050547    128.91979155    -15.66254761
 H    -84.42659300    130.61849695    -15.19013537
 H    -85.78214167    130.03084564    -13.11298083
 H    -85.92959962    128.36712806    -13.72825852
 H    -87.09582173    128.74424864    -15.62545260
 H    -87.15822316    130.49778554    -15.32631876
 H    -88.28485762    130.69840773    -13.48226214
 H    -88.52418747    128.94181215    -13.32301435
 H    -89.82660025    129.05372282    -15.47782691
 H    -89.52462485    130.80680567    -15.53929270
 H    -90.95484515    130.69631283    -13.32039460
 H    -91.04746636    128.93681270    -13.57307478
 H    -92.27293426    129.22217271    -15.64886120
 H    -92.21756584    130.99077221    -15.45584092
 H    -93.61839083    130.53988574    -13.34065693
 H    -93.54157883    128.80357601    -13.72483806
 H    -94.63410234    128.75754494    -15.68710619
 H    -94.92441790    130.51338171    -15.65515615
 H    -96.26040432    130.43727284    -13.68997548
 H    -96.06709733    128.67092156    -13.58556177
 H    -97.29881287    128.59579187    -15.81335748
 H    -97.40626650    130.37198058    -15.77006709
 H    -98.74276441    130.43365934    -13.81190827
 H    -98.73974612    128.65663220    -13.70977060
 H    -99.88771780    128.37444629    -15.78252251
 H    -99.96677798    130.13746474    -16.01443215
 H   -101.42949713    129.39950853    -13.71077324
 H   -100.89025630    127.76114689    -14.15038344
 H   -102.32311647    128.20949982    -16.27425962
 H   -102.70228145    129.81232605    -15.59939024
 H   -103.84385867    128.53423219    -13.71381773
 H   -103.38229112    127.01439124    -14.51712687
 H   -105.17866316    128.61062801    -16.09065795
 H   -105.03912604    129.70336525    -14.69254444
 H   -105.85725983    128.61401356    -13.02666352
 H   -106.24269816    127.18693610    -14.01820469
 H   -107.77409166    128.22241691    -15.42397093
 H   -107.57126890    129.77985996    -14.58641453
 H   -108.48378353    128.69310433    -12.52618581
 H   -108.65661511    127.16815453    -13.42780881
 H   -110.31260020    128.37728476    -14.89584190
 H   -110.05915523    129.84772986    -13.92536596
 H   -110.97554511    128.67191154    -11.95024978
 H   -111.22002228    127.21210183    -12.93891211
 H   -112.72949305    128.00941434    -14.43253529
 H   -112.73890730    129.61854674    -13.67169959
 H   -113.70249524    127.56297082    -11.91884533
 H   -113.34516717    126.53350890    -13.32625126
 H   -114.71754555    127.29159774    -14.86590611
 H   -115.41152811    128.51443116    -13.77442395
 H   -116.32521156    127.14147428    -12.20886759
 H   -115.77699233    125.68224272    -13.06814962
 H   -116.83153456    125.76938294    -14.97821295
 H   -117.66494065    127.28456383    -14.55639802
 H   -118.39348338    125.12698998    -12.82207885
 H   -117.24189654    124.23276680    -13.84309760
 H   -118.61751705    124.55320279    -15.81498163
 H   -119.81279967    125.45617059    -14.85362047
 H   -120.22474735    123.39661153    -13.52393711
 H   -119.02087990    122.53166229    -14.50924551
 H   -120.30705175    122.79424597    -16.52645057
 H   -121.57306433    123.66996560    -15.63280973
 H   -122.30121161    122.14706381    -14.20768224
 H   -121.17457391    120.91113462    -14.81713542
 H   -122.23662114    120.96027820    -17.01514170
 H   -123.38270585    122.19652901    -16.44379203
 H   -124.15642733    120.33708978    -14.82832279
 H   -122.92678774    119.27352121    -15.55294340
 H   -123.45869600    119.02726412    -17.59849766
 H   -124.91020970    120.04741332    -17.45472608
 H   -125.88337279    118.45694272    -15.85330205
 H   -124.43610735    117.42986632    -15.99042787
 H   -124.52017625    116.84345130    -18.14824323
 H   -126.01677944    117.76682723    -18.42360200
 H   -127.23218925    116.34925800    -16.84791460
 H   -125.75528807    115.40220413    -16.54771709
 H   -125.76196499    114.69249154    -18.91973077
 H   -127.23854214    115.64744024    -19.19551978
 H   -128.10796336    113.83746580    -17.42324774
 H   -126.67670465    113.36608628    -17.14435024
 H   -125.48139435    113.02415392    -16.95741082
 H   -125.53065404    112.51156010    -18.66125581
 H   -127.39477167    110.91984937    -17.59312295
 H   -127.03533167    111.71823004    -16.04339463
 H   -124.92956316    111.16957907    -15.68569730
 H   -124.82987195    110.21792450    -17.18659100
 H   -126.60480858    108.72528370    -16.14300274
 H   -126.59316673    109.77743818    -14.70734885
 H   -124.13245451    108.93939071    -14.52749314
 H   -124.42400054    107.98046045    -15.99845213
 H   -126.05049447    106.58895430    -15.18836349
 H   -125.98924545    107.34774255    -13.57940245
 H   -123.81271193    106.79394469    -13.05377865
 H   -123.34958864    106.70437259    -13.97843805
 H   -122.65324679    106.95960934    -14.97381705
 H   -123.42198299    105.50504235    -15.65318896
 H   -122.48202930    104.08890635    -13.93246258
 H   -121.67680562    105.49262731    -13.19121434
 H   -120.37009066    105.67478577    -15.35859952
 H   -121.25755283    104.25947942    -15.97307936
 H   -120.05007750    103.06550236    -13.99619909
 H   -119.29972893    104.63018818    -13.59996430
 H   -118.21897247    104.32578601    -15.95195417
 H   -119.10456925    102.78739529    -16.08363189
 H   -117.48368079    102.30680938    -13.99655858
 H   -116.87967373    103.96471921    -14.23060369
 H   -115.97682325    104.07541149    -16.12010496
 H   -116.29315980    102.36469745    -16.49647626
 H   -114.67962612    102.10647111    -14.39379439
 H   -114.62551245    103.88491575    -14.34406474
 H   -113.52516776    103.74080643    -16.62899578
 H   -113.65094827    101.96759091    -16.53870389
 H   -112.07135134    102.21308208    -14.52210458
 H   -112.08907125    103.97294444    -14.78825705
 H   -111.01835029    103.58736347    -17.00367699
 H   -111.02562001    101.83549748    -16.68874946
 H   -109.60582970    101.90121256    -14.83411523
 H   -109.44394917    103.66938437    -14.95913456
 H   -108.36638846    103.28886166    -17.20271513
 H   -107.67257479    101.87205876    -15.94162196
 H   -107.15639534    101.42628411    -15.07664107
 H   -106.84092840    103.17561608    -15.16929598
 H   -105.83022780    103.37941371    -17.12509715
 H   -105.92057063    101.63210698    -17.45224241
 H   -104.96527910    100.47461411    -16.22001889
 H   -104.34225717    101.81785384    -15.23218419
 H   -103.07720871    102.72957416    -17.07106857
 H   -103.64485753    101.42252990    -18.13768789
 H   -102.34078666     99.92561009    -16.45597971
 H   -101.91981843    101.40817400    -15.56544241
 H   -100.71247133    102.52909642    -17.03948297
 H   -100.86819036    101.25160116    -18.26912686
 H    -99.49285030    100.13122127    -16.14297161
 H    -99.68744199    101.73294172    -15.39137841
 H    -98.27751619    102.64941825    -17.26403510
 H    -98.14596025    101.00668191    -17.93662486
 H    -97.05122755     99.96106205    -16.27418858
 H    -96.97443730    101.44191568    -15.28958590
 H    -95.76970536    102.80845965    -16.50194690
 H    -95.54719751    101.61009671    -17.79912968
 H    -94.31749877    100.23293122    -16.03664338
 H    -94.63270699    101.53192374    -14.86125881
 H    -93.07281896    102.77823409    -16.66416805
 H    -93.04577672    101.22801376    -17.53844050
 H    -91.86441562    100.30491003    -15.48022022
 H    -91.97417845    101.91995080    -14.74004316
 H    -90.53861824    102.83004002    -16.52623303
 H    -90.43191144    101.21314461    -17.26279908
 H    -89.38538993    100.08919749    -15.60472930
 H    -89.30348733    101.53820059    -14.57422038
 H    -87.81361768    102.42651668    -16.51855909
 H    -88.07217682    100.86736122    -17.33736804
 H    -87.07587898     99.48539312    -15.83120919
 H    -86.64583669    100.84399952    -14.76466386
 H    -85.28567001    102.04688177    -15.99677856
 H    -85.39729413    100.92707524    -17.37585073
 H    -84.27442051     99.37383500    -15.48929811
 H    -84.37523137    100.79608648    -14.42379139
 H    -82.75368609    101.85469770    -16.12495666
 H    -82.80579796    100.33003142    -17.04198652
 H    -81.92088508     98.90060638    -15.56757627
 H    -81.68468560    100.17728519    -14.34996890
 H    -80.33127668    101.58263458    -15.14562397
 H    -80.12729626    100.68851844    -16.67114519
 H    -79.26479038     98.80287918    -16.14523397
 H    -79.21155567     99.19317117    -14.40940423
 H    -77.55806267    100.95765288    -15.90773419
 H    -78.15545795     99.99278195    -17.27901448
 H    -77.20073914     97.96701173    -16.58246551
 H    -76.50203837     98.73951694    -15.13909460
 H    -75.10934395    100.19656241    -16.47473076
 H    -75.75548338     99.47585345    -17.96850086
 H    -74.82025596     97.29898130    -17.37689995
 H    -74.15705347     97.98257368    -15.87319433
 H    -72.73434898     99.46914357    -17.32928431
 H    -73.46643677     98.71755897    -18.76714199
 H    -72.22412109     96.61963874    -17.67185568
 H    -71.69774115     97.73617927    -16.38946415
 H    -70.51086960     98.72273607    -18.63089612
 H    -71.30915373     97.37765550    -19.48046507
 H    -69.95836881     95.79106976    -18.11963019
 H    -69.18873984     97.16929892    -17.29718123
 H    -68.22762489     97.86597921    -19.48410477
 H    -69.01799206     96.47391040    -20.26239188
 H    -68.18703784     94.72326567    -19.40280666
 H    -67.09158223     95.63554885    -18.33698160
 H    -65.86308638     96.63477350    -20.07754616
 H    -66.84775273     95.80555413    -21.30681183
 H    -65.90769641     93.64964919    -20.32816674
 H    -64.98731648     94.62711442    -19.15952258
 H    -63.69347851     95.68525374    -20.89843114
 H    -64.55877879     94.74943509    -22.14091476
 H    -63.41209031     92.75172215    -20.87728179
 H    -62.69544337     93.95992396    -19.78415224
 H    -61.63735458     94.52169067    -22.25195967
 H    -62.62748996     93.15611038    -22.82036890
 H    -60.93809956     91.93798649    -21.12349523
 H    -60.23997622     93.55090384    -20.84173628
 H    -59.90242321     92.70478990    -23.54862808
 H    -60.77618828     91.26871859    -22.96339269
 H    -59.26093543     90.52114121    -21.43282670
 H    -58.13730584     91.85351855    -21.79406598
 H    -57.80879164     91.15710606    -24.06034358
 H    -58.91297049     89.78062452    -23.82720352
 H    -57.49213924     88.77029458    -22.16681643
 H    -56.32073433     90.10092252    -22.32652386
 H    -55.82119562     89.81394802    -24.57963197
 H    -56.77624187     88.41538943    -24.68684097
 H    -54.46765061     90.24452139    -23.61515174
 H    -55.61329409     90.86528069    -24.82776280
 H    -54.05640205     88.67176366    -25.81515300
 H    -53.52045773     88.52803036    -24.29468347
 H    -53.24171927     88.32383845    -23.16582591
 H    -52.51542430     89.93569193    -23.37244304
 H    -51.10297151     90.04458304    -24.73482325
 H    -51.19180664     88.31689647    -25.15371953
 H    -50.49229264     87.74657829    -22.85038919
 H    -50.41001722     89.47927623    -22.45132119
 H    -48.68187396     89.95137687    -24.00427067
 H    -48.62958748     88.24849695    -24.51976343
 H    -47.92173242     87.68687976    -22.16957344
 H    -48.00785684     89.41614623    -21.75667309
 H    -46.72401336     90.54669794    -22.77899959
 H    -46.02872455     89.17393545    -23.67362985
 H    -45.19400511     88.12052151    -21.69056584
 H    -45.84129606     89.43872407    -20.68477108
 H    -44.05066181     90.75617670    -22.17315783
 H    -43.70534415     89.19180960    -22.94890133
 H    -42.90510198     88.24322203    -20.86528403
 H    -43.22410664     89.77957555    -20.02497423
 H    -41.67258327     91.03698458    -21.28071411
 H    -41.21493694     89.60196339    -22.22915530
 H    -40.41726541     88.13305837    -21.26738696
 H    -40.47066743     88.96015472    -19.69216427
 H    -38.90090471     90.66600518    -20.71716791
 H    -38.94057724     89.74085111    -22.23729379
 H    -37.79804525     88.05860019    -20.38262855
 H    -38.03846836     89.40581504    -19.24443897
 H    -36.74653694     90.98754623    -20.11218613
 H    -36.21861316     89.94070220    -21.45146979
 H    -35.17728590     88.43699010    -19.73791782
 H    -35.74366732     89.53595123    -18.45738544
 H    -34.56767008     91.40071050    -19.02616344
 H    -33.80142247     90.57967285    -20.40711545
 H    -32.79711381     89.08294067    -18.52255738
 H    -33.69141827     90.08005226    -17.35027129
 H    -32.39225523     92.05456008    -17.99735805
 H    -31.48418955     91.07747349    -19.17591020
 H    -30.65098269     89.77438527    -17.14503567
 H    -31.62514106     90.84568531    -16.10985532
 H    -30.17235861     92.73947573    -16.90509339
 H    -29.26056852     91.58698349    -17.90941761
 H    -28.47911824     90.35069030    -16.00107686
 H    -29.35205553     91.44667350    -14.90332098
 H    -27.65857695     93.17251391    -15.96122337
 H    -27.02064692     91.82108628    -16.92815423
 H    -26.36927371     90.86573854    -14.60743155
 H    -27.08451235     92.32230457    -13.87591547
 H    -25.25970004     93.59486672    -15.13064282
 H    -24.67855088     92.04110941    -15.77591065
 H    -24.21039234     91.53294744    -13.27310983
 H    -24.85132803     93.14894836    -12.89099838
 H    -23.00225526     94.16449818    -14.18071815
 H    -22.37574952     92.54063609    -14.55331597
 H    -22.07874679     92.47403048    -11.94725364
 H    -22.75668544     94.11933315    -11.90669534
 H    -20.80938418     94.91012223    -13.22638306
 H    -20.16109948     93.25255386    -13.24784678
 H    -20.03567255     93.60447801    -10.67757034
 H    -20.70771620     95.23288150    -10.93237624
 H    -18.64728401     95.78607909    -12.23837421
 H    -18.03941349     94.13912886    -11.94458003
 H    -17.83901572     94.14545226     -9.71281178
 H    -18.40900638     95.82699686     -9.58717316
 H    -16.11977885     96.06691520    -11.01384322
 H    -15.99558895     94.29712847    -10.86997361
 H    -15.79316840     94.27121578     -8.52740635
 H    -15.89369840     96.04687084     -8.45522945
 H    -13.66044888     95.81659583     -9.83655417
 H    -13.87338714     94.05296498     -9.72461600
 H    -13.64396838     94.20628600     -7.26560846
 H    -13.43365777     95.96866104     -7.40003444
 H    -11.37113418     95.65675752     -8.68207458
 H    -11.55643375     93.89051864     -8.56236254
 H    -11.29104902     94.29472310     -6.03289904
 H    -11.13408678     96.03330720     -6.38068466
 H     -9.05662412     95.53909689     -7.65390924
 H     -9.25299248     93.80927381     -7.28320959
 H     -9.07404813     93.82495677     -5.04926180
 H     -8.82896288     95.58733785     -5.00222136
 H     -6.67715545     94.90702599     -6.36544101
 H     -7.22918678     93.22025621     -6.23003129
 H     -6.82203726     93.81065916     -3.66263954
 H     -6.33684727     95.43066696     -4.21800613
 H     -4.43078268     94.31899825     -5.42466282
 H     -4.99753767     92.74361585     -4.82032373
 H     -4.65710088     93.25701539     -2.54128766
 H     -4.05470534     94.88001846     -2.95510804
 H     -2.16095542     93.91352384     -4.16145647
 H     -2.73422656     92.27567591     -3.76512200
 H     -2.49712929     92.50324397     -1.43837727
 H     -1.89369953     94.16813724     -1.61801462
 H      0.02241471     93.69194168     -2.80039893
 H     -0.32188492     91.94580957     -2.77306618
 H     -0.14157553     91.94494457     -0.31822714
 H      0.20305097     93.69106156     -0.34220033
 H      2.27972446     93.23197054     -1.61264730
 H      1.91077682     91.49108080     -1.57460518
 H      1.99076795     91.12398645      0.65824381
 H      2.38830936     92.82562072      0.99687086
 H      4.51795732     92.45308190     -0.29725864
 H      4.02152149     90.76721147     -0.57949795
 H      4.12473424     90.38187653      1.87556193
 H      4.61815180     92.07593379      2.11003108
 H      6.66084889     91.79557051      0.88693420
 H      6.27858838     90.08291408      0.58868676
 H      6.36968695     89.65743171      3.02136339
 H      7.65865641     91.26034638      2.79416803
 H      8.80460427     91.32806523      2.14128984
 H      8.59940414     89.60088136      1.76314243
 H      8.53609840     88.39723934      3.29887287
 H      8.76100732     89.69671897      4.49429553
 H     11.00368645     89.39455835      2.72047452
 H      9.97278879     88.11420780      2.03767207
 H     10.14688304     86.92653022      4.23441539
 H     11.17117177     88.24709994      4.84694692
 H     12.83725876     87.58166408      3.06439916
 H     11.72147487     86.29634562      2.54358305
 H     11.86282384     85.13894626      4.64097513
 H     12.98996052     86.36421315      5.27069779
 H     14.73279490     86.17884442      3.95107937
 H     13.99060769     84.86786910      3.00304533
 H     13.72793820     83.25062926      4.43500376
 H     14.44002689     84.18813314      5.77002542
 H     16.51397368     83.98432542      4.07240982
 H     15.40908503     83.07455356      3.01420243
 H     15.12072230     81.29606726      4.58272184
 H     16.21298508     82.09713446      5.73750321
 H     18.06351362     81.86118346      4.11113718
 H     16.95340321     81.06282947      2.97159674
 H     16.55963063     79.20649255      4.43320384
 H     17.65215947     79.90104116      5.65478054
 H     19.16015635     79.34026240      3.37095352
 H     17.60571557     78.78110381      2.70813969
 H     17.71942163     77.02091025      4.57484829
 H     19.26814685     77.73417568      5.08569982
 H     20.16217239     77.03952020      2.82356493
 H     18.56214898     76.36512736      2.43191962
 H     18.95279276     74.75261647      4.34833297
 H     20.53179270     75.52363052      4.63216954
 H     21.09369748     74.65747025      2.27565380
 H     19.45638596     73.96381234      2.19617826
 H     19.49824748     72.47329586      3.83852456
 H     21.18442031     72.85785421      4.25947910
 H     21.72787995     72.00817982      1.90471071
 H     19.99205316     71.69392489      1.66719049
 H     20.84862080     70.04102886      3.73204534
 H     22.43049211     70.80816102      3.45373242
 H     21.59762608     69.33625294      1.16913625
 H     20.17155135     69.00166483      2.18038713
 H     20.58908563     67.97670685      3.83730750
 H     22.32756726     67.85204820      3.47618633
 H     21.46323062     66.50219878      1.42239711
 H     19.80999841     66.78758326      2.01707820
 H     20.42039308     65.45809419      4.05405217
 H     22.05343687     65.22230489      3.38634111
 H     20.92562239     63.95720099      1.50226790
 H     19.35383739     64.26873340      2.27732026
 H     19.85044677     63.04054417      4.23801414
 H     21.46552400     62.62569911      3.61536193
 H     20.31689299     61.38303910      1.76171055
 H     18.74389168     61.84697745      2.45358825
 H     19.27504176     60.55804231      4.49157172
 H     20.84558219     60.10064942      3.78981596
 H     19.49086121     58.90044774      2.00268465
 H     18.00427826     59.43979520      2.81965596
 H     18.92665570     57.95902339      4.75366828
 H     20.32279450     57.58922838      3.71332469
 H     18.71613405     56.48926250      2.12865775
 H     17.37996590     56.90335202      3.22931719
 H     18.41624027     55.44841229      4.95690812
 H     19.73483825     55.06083107      3.82582597
 H     17.37424435     54.08814594      2.71538306
 H     16.61828376     54.76161934      4.17935841
 H     18.14155545     52.95178212      5.32365393
 H     18.70946105     52.51614062      3.69394034
 H     16.53180909     51.80289722      2.98054698
 H     15.85076043     52.19932720      4.57656786
 H     17.34357680     50.45041772      5.55732777
 H     17.98196242     50.10683609      3.93169493
 H     16.09576783     49.37367144      2.91749071
 H     15.12997225     49.58829902      4.39716654
 H     16.20697382     48.08199003      5.73928771
 H     17.33838750     47.63443555      4.44010922
 H     15.11276682     46.82874849      3.30497046
 H     14.25892816     47.39250218      4.76147586
 H     15.44297514     45.75771374      6.13911229
 H     16.31485810     45.16757777      4.70390280
 H     14.43462823     44.39992522      3.55271439
 H     13.35657523     44.90556283      4.87574085
 H     15.09041664     42.92245118      5.84006244
 H     15.84705371     43.01727549      4.36415478
 H     16.57117496     43.23322932      3.51805873
 H     15.10199530     42.64362512      2.70433601
 H     14.88654154     40.59883062      3.50072409
 H     16.35072284     40.73940543      4.50306062
 H     17.55420036     40.99215282      2.23681854
 H     15.97067331     40.83290584      1.43973061
 H     15.19565881     38.93961329      1.86277448
 H     16.60761650     38.45202276      2.83070921
 H     18.26031354     38.48726716      1.40343129
 H     17.20947670     38.98364428      0.05524052
 H     15.97498285     38.46589928     -0.73774365
 H     15.92183163     36.94124252      0.17924239
 H     17.90269031     36.04439823     -0.35529310
 H     18.33279403     37.41932371     -1.40069128
 H     16.46545446     36.93255723     -2.89388025
 H     16.00068703     35.54751395     -1.87706513
 H     17.77135229     34.22143194     -2.05645172
 H     18.61401338     35.35171036     -3.14303335
 H     16.74186500     34.98293085     -4.78353239
 H     15.97747875     33.86927010     -3.62433437
 H     18.23222438     32.55404723     -4.11291018
 H     18.66229843     33.89148354     -5.20587272
 H     16.74192848     33.35585284     -6.64082261
 H     16.30148177     32.01524958     -5.55590038
 H     19.06752370     31.78402379     -6.40691804
 H     18.85234244     32.32280677     -7.21503173
 H     18.54797908     30.14993329     -5.40284154
 H     19.70022968     31.61509981     -5.42471921
 H     18.49106545     28.93916722     -6.60488488
 H     17.71441679     29.49893195     -5.10430267
 H     19.87059154     29.17477495     -3.91762773
 H     20.61393386     28.62086264     -5.43713094
 H     19.30817207     26.73848527     -5.74635921
 H     18.39780487     27.05382104     -4.24967568
 H     20.02634088     26.88294935     -2.71611535
 H     21.25714334     26.51902723     -3.94938444
 H     19.72057386     24.41290695     -4.29158373
 H     18.67808094     25.06601124     -3.00514292
 H     19.73032251     25.15207395     -1.22759160
 H     21.21438563     24.47100109     -1.93608512
 H     20.05612633     22.37473026     -2.43634697
 H     18.55659511     23.02747504     -1.73378234
 H     19.75005720     23.15805815      0.46339775
 H     21.21187224     22.50243575     -0.31218120
 H     20.34565630     20.44167826     -0.90135187
 H     18.76402712     20.83823553     -0.18758851
 H     19.40422424     21.07987182      1.98972160
 H     21.10092919     20.70679992      1.60206671
 H     20.33828171     18.42826092      0.89133142
 H     18.66639495     18.88058268      1.30177793
 H     19.73999902     19.05173247      3.70288722
 H     21.28351192     18.57846954      2.95331615
 H     19.39893659     16.59712921      2.21896906
 H     18.74897378     16.89606899      3.09610036
 H     21.53008091     16.11958393      2.14777462
 H     20.09310239     16.31324299      1.11537181
 H     19.11841232     14.36959129      2.44696641
 H     20.62563693     14.31345156      3.39215897
 H     22.11761483     13.79393950      1.81043289
 H     20.87198020     13.73830156      0.54017093
 H     19.62704435     11.99663237      1.37482947
 H     20.71623408     11.80501534      2.76953923
 H     22.25942422     11.25147491      0.56301437
 H     20.77934016     11.59129125     -0.36550202
 H     19.84292659      9.54184651      0.88819743
 H     21.41536542      9.39371768      1.70902665
 H     22.50715778      8.96188221     -0.45496733
 H     20.93573528      9.10955094     -1.27782329
 H     20.63206828      6.94272587      0.35218343
 H     22.30841023      7.26439705      0.85683378
 H     22.83145486      6.73633786     -1.62964680
 H     21.08803891      6.47467104     -1.87520321
 H     20.95838656      4.66275395     -0.32137381
 H     22.65923597      4.72942828     -0.03490240
 H     19.78875089      4.57256413     -0.96052067
 H     20.35577100      4.96233210      0.68107483
 H     21.18919867      2.37984433      0.19448758
 H     20.41513407      2.59933914     -1.39325065
 H     18.22976030      2.85423464     -0.23439920
 H     19.04585570      2.63094483      1.33161377
 H     19.41173070      0.26094690      0.00196230
 H     18.49877342      1.03275699     -1.31678136
 H     16.65085946      0.96572084      0.61429951
 H     17.89565409      0.20116600      1.63126013
 H     17.70061372     -1.67104256     -0.19355431
 H     16.47431435     -0.65742821     -0.99170371
 H     15.20681480     -1.03903133      1.27861071
 H     16.52857686     -2.03579135      1.77807042
 H     14.12419671     -0.79990925      0.28598726
 H     14.89434515     -0.04421519      1.70163713
 H     14.00365737     -2.25897730      2.83255962
 H     13.35924722     -2.71009809      1.23584667
 H     11.85202721     -0.79309738      1.24374514
 H     12.46556918     -0.30415932      2.84148495
 H     11.56778001     -2.44214269      3.76219448
 H     10.97842117     -2.87697399      2.13989840
 H      9.53454575     -1.43071759      1.58713028
 H      9.68636248     -0.53492626      3.11774331
 H      8.89917511     -2.42193337      4.40994159
 H      8.71663374     -3.38620986      2.92497824
 H      7.09321708     -2.06551631      1.92204413
 H      7.07858730     -0.94063970      3.30142996
 H      6.36585090     -2.32321585      4.93849035
 H      6.24637265     -3.70430664      3.82198694
 H      4.47289477     -2.34024057      2.61322238
 H      4.70941749     -1.04212189      3.80788199
 H      4.08144848     -2.03891880      5.69600021
 H      3.69998247     -3.56432528      4.86180275
 H      1.93242535     -2.30119677      3.59843345
 H      2.38715352     -0.82484517      4.48267035
 H      1.80123647     -1.61425748      6.60649112
 H      1.27855867     -3.17713349      5.93381499
 H     -0.62342513     -1.66720601      6.41989206
 H      0.26369272     -0.27569880      5.53164514
 H      0.09266861     -0.37682458      7.53800383
 H     -0.79843185     -1.91682178      7.51043681
 H     -1.05997514      1.06844650      6.54695507
 H      0.50199915      0.80846303      7.35991976
 H     -0.70855518      0.29927503      9.45940357
 H     -2.25763989      0.56413166      8.62366785
 H     -1.33616927      2.98511650      8.37602129
 H      0.12391502      2.44616136      9.23970404
 H     -1.74364815      2.10844862     11.12456464
 H     -2.91201115      2.70483286      9.92143522
 H     -2.02538172      4.83635026      9.68984919
 H     -0.74654064      4.49289979     10.87933392
 H     -2.17539673      4.14854443     12.69763106
 H     -3.60996025      4.46404651     11.69226913
 H     -2.57669388      6.82051129     11.45359145
 H     -1.23191606      6.27252022     12.48293350
 H     -2.45642753      5.86176601     14.39752654
 H     -3.96934156      6.36863392     13.60857616
 H     -3.52050719      8.52206127     13.16873398
 H     -1.90059765      8.41496168     13.89858973
 H     -3.41117676      7.91528499     16.02846631
 H     -4.64561096      9.00506601     14.78166277
 H     -5.11455632      9.77567747     14.11761461
 H     -3.71078044     10.55639800     14.88452752
 H     -4.40770455     10.36521758     17.07664169
 H     -5.91781048      9.55969617     16.58778382
 H     -6.78157059     11.36151252     15.37050907
 H     -5.35465546     12.35858669     15.74202350
 H     -5.75403130     12.36536016     18.08818105
 H     -7.21413625     11.36963152     17.87632103
 H     -8.32046452     13.07970947     16.58131277
 H     -6.90488518     14.14662797     16.74282660
 H     -7.34856556     14.13782282     19.22584555
 H     -8.74309238     13.06770406     18.94583223
 H    -10.00895104     14.50870658     17.67575126
 H     -8.77793710     15.78914594     17.79127777
 H     -9.29456765     15.70044353     20.31216978
 H    -10.48109737     14.41839513     19.97045970
 H    -11.39297364     16.68452374     18.67326449
 H    -10.17641549     17.29823603     18.76487177
 H     -9.14249034     17.73352265     18.44807567
 H     -8.99130759     17.82292255     20.17340338
 H     -8.55647426     17.50597306     21.13176397
 H     -8.68894336     19.34414984     20.54592800
 H     -7.96050646     19.99059343     19.90932110
 H     -7.40610621     18.95178352     19.51435345
 H     -7.09291755     18.12973884     18.74307078
 H     -6.48899706     17.41219747     20.25590953
 H     -4.98980192     19.44109930     20.44351714
 H     -5.67733920     20.05253426     18.91980245
 H     -5.19297650     18.68915518     17.39455166
 H     -4.29621914     17.61016241     18.48993630
 H     -2.64438421     19.21682399     19.03817562
 H     -3.41242230     20.42330288     17.97855642
 H     -2.51092068     18.23120970     16.44163177
 H     -1.98581064     17.60632613     18.02341767
 H     -0.43842560     19.67278170     18.01760298
 H     -1.11760014     20.10719062     16.43069482
 H     -0.40805559     18.28432425     15.24093331
 H      0.38985032     17.58215881     16.66872058
 H      1.53572430     20.09189720     15.87572239
 H      0.27198410     19.99444403     14.62603033
 H      1.02572615     19.02713464     13.13992232
 H      0.93070889     18.90926348     13.16383788
 H      0.04245723     19.23966925     12.60521086
 H     -0.21343298     17.63889072     13.39268567
 H      0.02915590     16.35784796     13.67874512
 H      1.30883561     16.39130362     12.44198838
 H     -0.44868497     16.89166191     10.74171504
 H     -1.68192897     16.84642734     12.02441911
 H     -1.25448572     14.83278666     13.01945475
 H     -0.72361560     14.31484752     12.01851333
 H     -2.40770164     15.72048079     13.81925535
 H     -0.84314151     14.89922694     14.03363907
 H     -0.79087368     13.00347861     13.70359569
 H     -2.52393619     12.88765290     13.31456433
 H     -3.35757018     13.54100042     15.35836152
 H     -1.56116830     13.45255566     16.04416609
 H     -0.57348661     13.75244485     16.41647914
 H     -0.68987598     12.00972237     16.07349439
 H     -2.55746273     12.47511731     18.02919390
 H     -2.02058550     14.16912216     17.92732606
 H      0.23354067     13.40673404     18.70614685
 H     -0.37711117     11.73645929     18.78066711
 H     -1.96058275     12.66101529     20.58324603
 H     -1.49845348     14.17154925     20.29370447
 H     -1.59057601     15.21915902     19.91584549
 H      0.09668792     15.00307561     20.43997814
 H     -1.97864291     14.70119756     22.48695922
 H     -3.00380638     15.03923159     21.07167143
 H     -2.10186004     17.23752343     20.76549723
 H     -1.04554461     17.13015830     21.35210261
 H      0.12015087     17.02223789     21.46796538
 H     -0.38549071     16.81275476     23.16169206
 H     -0.67711130     19.42211191     21.94679062
 H     -0.42936250     19.41716143     21.97965918
 H     -2.23297879     19.48064802     21.51125019
 H     -0.58311499     19.77342993     20.91083796
 H     -0.14512745     21.46522254     22.55913418
 H     -1.77634359     21.25862015     23.24083500
 H     -3.06620311     21.86462372     21.53169893
 H     -2.11178694     21.83373624     20.49513001
 H     -1.46053252     21.53269086     19.55783593
 H     -0.48542674     22.88270273     20.18624929
 H     -1.80064793     24.60468686     20.08145930
 H     -3.12220740     23.81512793     19.67778254
 H     -4.06461195     23.59280373     20.19926956
 H     -3.82054392     22.87977998     18.58672666
 H     -3.60062048     24.54235335     17.24363919
 H     -3.80852256     25.74700184     18.53741869
 H     -6.14193706     24.79512303     18.82196475
 H     -5.96015559     23.70337659     18.30633224
 H     -6.94018337     22.96950695     17.86076538
 H     -5.47569267     23.07611853     16.42724577
 H     -7.92933347     23.86623886     16.55140527
 H     -7.86706910     22.32386756     17.92508313
 H     -8.23780056     21.44766076     16.03007526
 H     -7.26176484     21.09875745     16.48846600
 H     -7.15202431     19.81548274     16.31474127
 H     -7.97694800     20.21944139     15.46104638
 H     -8.67760544     19.26978324     16.30933195
 H     -8.51826759     19.31810722     15.15865590
 H     -9.45917323     19.69387564     14.68888034
 H     -9.52401844     18.30047312     16.16514120
 H    -10.35905749     17.45406502     16.14020418
 H    -10.38612473     17.69221358     14.62536973
 H    -11.32340044     16.60524628     14.72090695
 H    -11.36670625     16.52895142     15.74442730
 H    -11.17822131     15.55572307     14.40227821
 H    -10.66112372     15.40714042     15.37443712
 H    -10.54757222     14.19829267     14.79381908
 H    -11.40033125     14.28690020     14.05371446
 H    -10.51760948     13.11643937     13.65954639
 H    -10.17795046     13.15643002     14.84849557
 H     -9.90357274     11.83461451     14.51644976
 H    -10.38410857     11.95577094     13.29573269
 H    -10.51709770     10.85746167     14.76891799
 H    -11.41813415     11.18965323     13.75585371
 H    -11.94003055      9.97889547     14.39870585
 H    -10.96392214      9.83931686     15.25730298
 H    -11.12337770      8.65040549     15.19185267
 H    -11.77361612      9.06207971     13.58686638
 H    -12.80793508      9.20169729     15.02872555
1502
Final Conformation Chain 1 (Simulation Frame 2)
 C      0.00000000      0.00000000      0.00000000
 C      1.54000000      0.00000000      0.00000000
 C      2.16637443     -0.65348070     -1.24588043
 C      3.69348866     -0.83212614     -1.15865695
 C      4.17001014     -1.52959643      0.12900080
 C      5.70164307     -1.60699247      0.26939462
 C      6.17895438     -2.43845243      1.47457023
 C      5.27102110     -2.32442647      2.71322080
 C      5.50015659     -1.04707089      3.54235268
 C      4.57937666     -0.92399432      4.77061017
 C      4.47763454      0.50463273      5.33653711
 C      3.68134798      0.60240297      6.65105933
 C      3.54763909      2.03606986      7.19724719
 C      2.63341749      2.15363816      8.43093133
 C      2.79454628      3.47436917      9.20637127
 C      4.24860717      3.79801148      9.59696388
 C      4.40543479      5.10048230     10.40354608
 C      5.86080771      5.58802265     10.52922065
 C      6.03516986      6.80801854     11.45269661
 C      7.50370915      7.16311461     11.75085619
 C      7.68849677      8.10270720     12.95693219
 C      9.15232169      8.50056291     13.22250220
 C      9.32201532      9.56945124     14.31807594
 C     10.77380981     10.04676197     14.50798966
 C     10.89538657     11.45155174     15.12717041
 C     12.30950898     11.79319488     15.63228205
 C     12.52444357     13.28907868     15.92848263
 C     13.80411742     13.59131678     16.73016023
 C     15.09892832     13.11428446     16.04641694
 C     16.38550610     13.51858708     16.78996047
 C     17.57122521     12.56456627     16.55434531
 C     18.91484646     13.09046874     17.09259110
 C     20.12145778     12.19968081     16.74303998
 C     21.48587418     12.84473008     17.04943733
 C     22.42335305     11.95796095     17.88989784
 C     23.89009942     12.42722530     17.89668225
 C     24.74425286     11.79692160     19.01236104
 C     26.24041669     12.15292405     18.93263631
 C     27.02776700     11.84159845     20.21900945
 C     28.45421163     12.42173647     20.23620262
 C     28.51119206     13.94978678     20.05340363
 C     29.90202492     14.55973108     20.30865239
 C     29.97612142     16.07732003     20.05758769
 C     31.06610318     16.79498903     20.87520066
 C     31.07208401     18.32539700     20.70369075
 C     31.35694999     18.79328654     19.26440942
 C     31.46185240     20.32212841     19.11196919
 C     32.31607845     20.77494016     17.91327850
 C     32.66351978     22.27520422     17.92288398
 C     33.11180881     22.82310732     16.55524399
 C     33.43922296     24.32789183     16.56009588
 C     34.54041808     24.73254117     15.56248462
 C     35.12519712     26.13550527     15.81012386
 C     36.26541396     26.51760924     14.84809366
 C     36.81653978     27.93941566     15.06333034
 C     37.97035413     28.31421545     14.11473266
 C     38.36603057     29.80160539     14.16680318
 C     39.46976846     30.19154891     13.16615003
 C     39.88848314     31.67165245     13.24079270
 C     41.01781341     32.05306521     12.26573504
 C     41.53343636     33.49400211     12.43729792
 C     42.68274162     33.86590155     11.48210777
 C     43.13446802     35.33438140     11.58751269
 C     44.14829322     35.75687714     10.50804253
 C     44.69667263     37.18460174     10.68827150
 C     45.97891905     37.46922603      9.88426085
 C     46.45855491     38.93030746      9.96666525
 C     47.42367214     39.33736183      8.83774741
 C     47.94009104     40.78411654      8.94643201
 C     48.73939493     41.25781177      7.71829272
 C     49.47827097     42.59252410      7.92854308
 C     50.70751317     42.77793168      7.01959445
 C     51.38512036     44.15415506      7.15545360
 C     52.58258895     44.35890787      6.20901540
 C     53.45280558     45.58136688      6.55530570
 C     54.95799268     45.36884134      6.30863850
 C     55.83021983     46.58460728      6.67296385
 C     57.34431076     46.30985503      6.61263269
 C     58.21648102     47.52435863      6.98127895
 C     59.72567658     47.29728704      6.77544586
 C     60.56537519     48.58735630      6.82264297
 C     62.07592561     48.35897397      6.62853234
 C     62.89761511     49.65738324      6.52577173
 C     64.35971732     49.44080376      6.09339407
 C     65.30146286     50.60097162      6.46585331
 C     66.79261234     50.21654462      6.48285682
 C     67.73606621     51.38234018      6.83273607
 C     69.15667289     50.94066029      7.23072541
 C     70.21055262     52.05942281      7.13424782
 C     71.64335361     51.60025463      7.46264682
 C     72.62106442     52.75511524      7.74896578
 C     74.04840807     52.29513734      8.09926625
 C     75.11426007     53.39764223      7.95769470
 C     76.50991889     52.98830748      8.46383848
 C     77.60341796     54.04164362      8.20626758
 C     78.95676609     53.71322176      8.86367757
 C     80.11261103     54.62189599      8.40549242
 C     81.44422076     54.35591772      9.13190215
 C     82.60210383     55.25905598      8.66795380
 C     83.80918758     55.27079798      9.62420219
 C     84.88220234     56.31563074      9.26564422
 C     86.02316750     56.42024337     10.29465088
 C     87.11926775     57.43271837      9.91378528
 C     88.26897978     57.52464180     10.93423239
 C     89.44113551     58.41359402     10.47880413
 C     90.46683747     58.71423367     11.58747508
 C     91.39682827     59.90134149     11.27523776
 C     92.61744458     60.00319525     12.20868387
 C     93.56336565     61.17246490     11.87756183
 C     95.04777972     60.87710634     12.16195277
 C     95.98657360     62.06708937     11.88954419
 C     97.47367205     61.76444351     12.15135266
 C     98.41679794     62.94109188     11.83892320
 C     98.35622736     63.42125006     10.37694532
 C     99.03839098     64.78061709     10.13533806
 C     99.13658363     65.17703704      8.65047798
 C     99.85180922     66.51885074      8.40637080
 C     99.70512006     67.05462986      6.97004805
 C    100.66231777     68.21291047      6.63276690
 C    100.71219859     68.56840875      5.13519123
 C    101.16064666     70.01361909      4.84907689
 C    101.58254518     70.26106720      3.38881285
 C    102.36843914     71.56836640      3.17682351
 C    102.91110553     71.74812716      1.74685874
 C    103.94888772     72.87744117      1.60808556
 C    104.42416364     73.11727567      0.16302770
 C    105.61451611     74.08755331      0.04803943
 C    105.22503229     75.57309370      0.16237271
 C    106.27453078     76.44238751      0.87964615
 C    105.85029736     77.91112912      1.06518344
 C    106.84231376     78.74996393      1.89214149
 C    106.49187032     80.24805158      1.95939303
 C    107.05594458     80.96828991      3.19821383
 C    106.26211716     82.22227080      3.60927340
 C    106.65602659     82.78968855      4.98567176
 C    105.92996691     84.09644178      5.35558167
 C    106.14340310     84.54015552      6.81474688
 C    105.43355362     85.85732989      7.17911674
 C    105.37901050     86.14187013      8.69161861
 C    105.11310264     87.61768105      9.04215410
 C    105.01947792     87.89533019     10.55402227
 C    104.72926658     89.36671990     10.90386467
 C    105.31528505     89.81661735     12.25507695
 C    105.14187721     91.31933163     12.54383209
 C    105.41464862     91.71139656     14.00789522
 C    105.10206545     93.18441988     14.33053130
 C    105.37616285     93.57684137     15.79425122
 C    105.12844093     95.06561044     16.10051991
 C    105.46824692     95.47264348     17.54636084
 C    105.06800683     96.91680991     17.90103136
 C    105.56554789     97.38356867     19.28167945
 C    105.86454142     98.89209546     19.36261026
 C    106.02277703     99.42308888     20.79948447
 C    106.32150963    100.93166683     20.88042511
 C    106.53883791    101.45114735     22.31378076
 C    107.25550570    102.81237838     22.38475508
 C    107.49088199    103.32232703     23.81868339
 C    108.17406976    104.70069629     23.88905851
 C    108.47894054    105.17626527     25.32170918
 C    108.62262281    106.70352592     25.45746754
 C    108.69314980    107.19903051     26.91386760
 C    108.93705762    108.71356699     27.04910157
 C    108.95546319    109.21758424     28.50417127
 C    109.43398169    110.67337569     28.65678610
 C    109.23561296    111.25307047     30.06965687
 C    109.59263892    112.74628298     30.18986030
 C    109.17051810    113.38567392     31.52574699
 C    109.64388701    114.84059454     31.70104062
 C    109.04721318    115.54953074     32.93107713
 C    109.17457103    117.08377819     32.89280522
 C    108.96940421    117.76361949     34.25930527
 C    109.05361973    119.30062328     34.21318467
 C    108.71304867    119.98696452     35.54905407
 C    108.50250862    121.50829787     35.43583862
 C    108.59572009    122.25523887     36.77933807
 C    108.47587522    123.78551406     36.65485886
 C    108.26652078    124.50875053     37.99824999
 C    108.09119653    126.03320569     37.86825817
 C    107.70008894    126.73310369     39.18308806
 C    107.20985791    128.18145730     38.99993414
 C    106.94488327    128.92499570     40.32225751
 C    106.57232046    130.40845238     40.14294427
 C    106.44622129    131.18692107     41.46570105
 C    105.95821495    132.63751291     41.29472412
 C    105.22603390    133.20137491     42.52662125
 C    104.93778766    134.71205478     42.44686882
 C    104.08789796    135.24998660     43.61302355
 C    104.39359724    136.71185168     43.98865428
 C    103.91096001    137.11113728     45.39550619
 C    104.02228847    138.61829833     45.69160003
 C    103.48608116    139.02585114     47.07651245
 C    103.67394042    140.51828904     47.40657005
 C    103.11552599    140.93091902     48.78116447
 C    103.03360676    142.45416472     48.99237943
 C    101.88655207    142.89718154     49.91952647
 C    101.55058922    144.39726870     49.82750765
 C    100.61250913    144.89853189     50.94121361
 C     99.94549979    146.25262942     50.63606052
 C     98.55821509    146.42709623     51.28150804
 C     97.87049412    147.76130111     50.93721573
 C     96.46774289    147.92003659     51.55259532
 C     95.74418830    149.21435989     51.13690800
 C     94.53228825    149.56569363     52.01977994
 C     93.78922167    150.84234727     51.58434046
 C     92.47079170    151.08865909     52.34109201
 C     91.50044095    152.03939751     51.61575355
 C     90.18546656    152.29218623     52.37637187
 C     89.08691779    152.95541853     51.52495334
 C     87.78295070    153.23748776     52.29417814
 C     86.69133292    153.91857917     51.44796002
 C     85.28959407    153.87907636     52.08448788
 C     84.50738663    152.58404558     51.79700431
 C     83.25720058    152.39895835     52.67699156
 C     82.69922330    150.96359814     52.67855337
 C     81.53294141    150.74600513     53.66040866
 C     80.82314536    149.38890174     53.49897767
 C     79.49125093    149.28361864     54.26485801
 C     78.90092659    147.86174802     54.30228942
 C     78.85426415    147.16655287     52.92892628
 C     78.19345935    145.77574158     52.95303017
 C     78.02059286    145.14018499     51.56098672
 C     77.59240046    143.66133503     51.59639965
 C     77.20459645    143.08840020     50.22055310
 C     77.14846239    141.55007260     50.17586342
 C     77.28070399    140.95932842     48.75983606
 C     77.55731592    139.44455572     48.73639452
 C     77.56592594    138.83118143     47.32384439
 C     78.02011678    137.36026454     47.28244167
 C     77.98187969    136.73222912     45.87684235
 C     78.24456297    135.21487651     45.86139722
 C     78.11269563    134.57049827     44.46892183
 C     78.24759803    133.03642460     44.47331533
 C     78.50107424    132.42593692     43.08239671
 C     77.92692422    131.00781257     42.90668366
 C     78.24285007    130.36884257     41.54157993
 C     77.86705726    128.87848545     41.44558298
 C     78.49156837    128.15141818     40.24019546
 C     78.57792806    126.62288021     40.40666963
 C     79.11733447    125.88715802     39.16596274
 C     78.91103850    124.36149970     39.20349512
 C     79.77730261    123.58723663     38.19270179
 C     79.67985281    122.05625416     38.32759515
 C     80.22867407    121.28426938     37.11333211
 C     80.25164277    119.75591708     37.30097992
 C     80.79715599    118.98371651     36.08536419
 C     80.54339050    117.46583135     36.14217715
 C     80.86647206    116.72720576     34.83006034
 C     80.35210349    115.27634662     34.78497447
 C     81.02213560    114.40752485     33.70432387
 C     80.80652808    112.89458456     33.89438981
 C     81.31850830    112.03680496     32.72234442
 C     80.81027741    110.58320682     32.74115430
 C     81.64320140    109.61721325     31.87819773
 C     80.90688551    108.31715394     31.50498907
 C     81.35006599    107.71001905     30.16089894
 C     80.50026925    106.50917937     29.70545457
 C     81.00390504    105.83954682     28.41334651
 C     80.13733022    104.65702532     27.94186905
 C     80.58846461    104.04457135     26.60284780
 C     79.96294490    102.67023456     26.30031934
 C     80.03705147    102.26102897     24.81753176
 C     79.44416761    100.87101670     24.52096033
 C     79.49204954    100.47392845     23.03380592
 C     78.49231277     99.36779097     22.64833704
 C     78.64298430     98.86395681     21.20090855
 C     77.73496514     97.66892958     20.85592865
 C     77.94667702     97.11066698     19.43637910
 C     77.23829757     95.76762913     19.17938127
 C     77.00263042     95.45885552     17.68917328
 C     76.64708103     93.98807287     17.40284650
 C     75.74859268     93.78983152     16.16792989
 C     75.17846269     92.36589909     16.03020465
 C     74.38633896     92.13133246     14.73054374
 C     73.74871801     90.73319486     14.62929771
 C     73.20983905     90.39049938     13.22795218
 C     74.29768667     89.95983877     12.22659360
 C     73.80656055     88.96693209     11.15676584
 C     73.84560553     87.49391063     11.60429603
 C     74.05264763     86.49424245     10.45130119
 C     74.10674828     85.02224906     10.90064356
 C     74.46260395     84.03575877      9.77290083
 C     74.60079529     82.57460272     10.23929782
 C     75.56899825     81.73379509      9.38652261
 C     75.62513153     80.24724521      9.78479199
 C     76.29626742     79.34239129      8.73483199
 C     76.30255242     77.84824679      9.10778333
 C     77.11159716     76.96454725      8.14024948
 C     76.56483129     75.53230490      7.99420522
 C     77.29541190     74.68806040      6.93349640
 C     77.12575143     73.16844228      7.11673422
 C     78.13140499     72.32434084      6.31190275
 C     78.00831672     70.80785312      6.55005035
 C     79.17355125     69.98586731      5.96852836
 C     79.17457186     68.50783881      6.40099883
 C     80.34585871     67.68838718      5.82812350
 C     80.43270437     66.25197137      6.37654618
 C     81.54633332     65.40305592      5.73563034
 C     81.57701952     63.94147150      6.21980937
 C     82.48711080     63.02335882      5.38290856
 C     82.67075546     61.61407975      5.97604190
 C     83.46556075     60.65295697      5.07264412
 C     83.83655776     59.32020108      5.74919638
 C     84.61165140     58.34989506      4.83851748
 C     85.21502947     57.14225041      5.57955008
 C     85.97557130     56.16301358      4.66616552
 C     86.76553960     55.08189757      5.42691400
 C     87.47260387     54.06349248      4.51339816
 C     87.98277298     52.81051345      5.24917736
 C     88.30690669     51.62655245      4.31924527
 C     88.64393410     50.32045804      5.06229971
 C     88.69337640     49.07787776      4.15392219
 C     89.04205582     47.77370799      4.89497811
 C     89.11081684     46.53443951      3.98333917
 C     89.62061081     45.26459576      4.68988497
 C     89.65365628     44.01656261      3.78826351
 C     89.84067768     42.69439764      4.55540287
 C     89.59681879     41.43550476      3.70257136
 C     90.10236764     40.13281333      4.34988535
 C     89.78833408     38.86503213      3.53397252
 C     90.14986852     37.55196900      4.25283140
 C     89.86330911     36.28530935      3.42514967
 C     90.06317980     34.97081585      4.20216868
 C     90.01099198     33.70851029      3.32156599
 C     90.20358722     32.39356710      4.09966076
 C     90.13011789     31.13006333      3.22230080
 C     90.02637850     29.81773468      4.02144513
 C     89.86286613     28.56197979      3.14512135
 C     89.78976568     27.24669192      3.94278929
 C     89.72866557     25.98364420      3.06382557
 C     89.66365921     24.66794696      3.86151910
 C     89.76160730     23.40179296      2.99039326
 C     89.01193416     22.18594298      3.56597905
 C     88.45077056     21.23174932      2.49536713
 C     87.75867902     19.98217004      3.07083296
 C     87.10591028     19.08134450      2.00593564
 C     86.32652425     17.88739084      2.58785668
 C     86.02170606     16.77899228      1.56309403
 C     84.91169600     15.80667478      2.00363503
 C     84.34248983     14.94633957      0.86020700
 C     83.15521293     14.05803275      1.27600087
 C     82.55723047     13.23141302      0.12243387
 C     81.30669965     12.42249532      0.51412868
 C     80.38400670     12.08254397     -0.67105941
 C     79.22603074     11.13324901     -0.31115558
 C     78.25089910     10.86619287     -1.47279205
 C     77.15750401      9.83165237     -1.14750275
 C     76.07613794      9.69986374     -2.23602430
 C     74.80882537      8.95729115     -1.77330969
 C     73.66025781      8.97938502     -2.79893361
 C     72.64109368      7.83840089     -2.62269604
 C     71.22235526      8.18475520     -3.11138815
 C     70.10472851      7.40719433     -2.39172883
 C     68.68290613      7.87465649     -2.75435850
 C     67.56412951      7.04311970     -2.09977050
 C     66.14465614      7.56670725     -2.38708815
 C     65.02991919      6.77700551     -1.67622060
 C     63.61437486      7.33051335     -1.92413857
 C     62.49777898      6.52847332     -1.23020383
 C     61.09271670      7.13585396     -1.39898993
 C     59.95098482      6.21097234     -0.93785840
 C     58.55250463      6.84953525     -1.02780605
 C     57.41053389      5.92380715     -0.56897022
 C     56.14224522      6.67079376     -0.11614039
 C     54.91313213      5.76197179      0.07073832
 C     53.62063141      6.52118419      0.42378000
 C     52.38138313      5.61751079      0.56248140
 C     51.05280999      6.38867556      0.67110136
 C     49.86299437      5.52512237      1.12959310
 C     48.59114854      6.33149315      1.45173337
 C     47.42667692      5.47739042      1.98662997
 C     46.10633446      6.25237030      2.15306912
 C     44.84890482      5.36442252      2.10813101
 C     44.36305746      5.03818182      0.68365941
 C     42.92846923      4.48148537      0.62328005
 C     42.39047874      4.29024164     -0.80696192
 C     40.85343928      4.27920698     -0.90176665
 C     40.31075244      3.66809052     -2.20699753
 C     39.30314736      4.56670000     -2.94783017
 C     38.54452808      3.85388606     -4.08272800
 C     37.57847474      4.76689969     -4.86038283
 C     36.58301027      4.00687089     -5.75648926
 C     35.55921244      4.91352199     -6.46460069
 C     34.80421967      4.22502453     -7.61679736
 C     33.79767001      5.13871564     -8.34041767
 C     33.12197352      4.48437200     -9.55978990
 C     32.77221393      2.99805566     -9.35946030
 C     31.33358197      2.75394813     -8.86717015
 C     30.99243626      1.26936756     -8.64080730
 C     29.48868490      0.99333332     -8.45604538
 C     29.16868935     -0.43231710     -7.96950275
 C     27.70265703     -0.63448842     -7.54350274
 C     27.49634070     -1.77646738     -6.53112059
 C     26.03036480     -1.97835951     -6.10479415
 C     25.81536592     -3.16020597     -5.14114772
 C     24.33831658     -3.42625625     -4.79597746
 C     24.13550843     -4.32580637     -3.56257630
 C     22.66178293     -4.50379301     -3.15263249
 C     22.43707641     -5.58069735     -2.07495721
 C     20.98079768     -5.68163563     -1.58438233
 C     19.97421045     -6.06498697     -2.68502937
 C     18.55345103     -6.34904977     -2.16315678
 C     17.61479673     -6.97538628     -3.21112180
 C     16.13965572     -7.03737420     -2.77326737
 C     15.14920411     -7.23750692     -3.93540011
 C     13.69789345     -7.48806707     -3.48538126
 C     12.70540227     -7.67671199     -4.64769548
 C     11.39501040     -8.37825156     -4.24481164
 C     10.34043349     -8.42730918     -5.36599891
 C      8.97179722     -8.97068874     -4.91525129
 C      8.32961321     -8.17383131     -3.76450461
 C      6.80675698     -8.36748257     -3.64199707
 C      6.16245826     -7.55961938     -2.50014059
 C      4.64517466     -7.34997173     -2.65982255
 C      3.93987224     -6.87529326     -1.37575524
 C      2.49293429     -6.39641902     -1.59632273
 C      1.72437840     -6.10451373     -0.29412722
 C      2.22377195     -4.85950896      0.46229146
 C      1.30828284     -4.42115257      1.62044661
 C      1.78321323     -3.14928984      2.34736223
 C      0.77911150     -2.60689339      3.38137664
 C      0.94267371     -1.10618740      3.68589089
 C     -0.05049920     -0.56750237      4.73232579
 C     -0.01975866      0.96355678      4.89515355
 C     -0.74252489      1.47405790      6.15554936
 C     -0.58725445      2.98704877      6.39710627
 C     -1.05796698      3.45082797      7.78812696
 C     -0.80373197      4.94331126      8.07001027
 C     -1.10239315      5.36659561      9.52026261
 C     -0.67841104      6.80953678      9.85156303
 C     -0.43933898      7.06339585     11.35156307
 C      1.02947831      7.35459405     11.71125649
 C      1.23937046      7.80983143     13.16738293
 C      2.71827047      7.96068558     13.56949957
 C      2.93909282      8.80111565     14.84092192
 C      4.40864799      9.19014280     15.08722551
 C      4.63476361      9.99783206     16.37877875
 C      6.11806892     10.19306141     16.74386899
 C      6.34429620     11.00541163     18.03247612
 C      7.82770863     11.20546020     18.39450947
 C      8.10291633     12.46654541     19.23446470
 C      9.52638835     13.03059936     19.06962980
 C      9.73662815     14.40417510     19.73347385
 C     11.05848770     15.09201891     19.34468310
 C     11.35018734     16.38084011     20.13553785
 C     12.50335307     17.22256031     19.55820269
 C     12.86879201     18.45227656     20.41017237
 C     13.80538335     19.44886072     19.70220580
 C     14.44702325     20.48363180     20.64515174
 C     15.75643309     21.09201220     20.10950342
 C     16.92092069     20.08863560     20.01567364
 C     17.77550095     19.99955078     21.29370199
 C     18.63417598     18.72445667     21.38542012
 C     17.82251470     17.41707287     21.32580819
 C     18.65806425     16.14888004     21.58104122
 C     17.90655108     14.83552069     21.29483295
 C     18.78710381     13.57589077     21.39260489
 C     18.04161662     12.26479890     21.08133819
 C     18.94061266     11.01451740     21.09556155
 C     18.27795974      9.75972080     20.49725008
 C     19.15974895      9.00951971     19.48174719
 C     18.45835464      7.81850986     18.80267314
 C     17.35933589      8.22545499     17.80359684
 C     15.95619139      7.70777072     18.17073237
 C     14.86314239      8.08599894     17.15397906
 C     13.46692288      8.27363036     17.77604460
 C     13.42818177      9.28857299     18.93362423
 C     12.05866558      9.39218253     19.63025216
 C     12.02627102     10.38994657     20.80286357
 C     12.78875975      9.91253214     22.05277812
 C     13.04320812     11.01991633     23.09227621
 C     13.60422682     10.50543472     24.43099452
 C     14.12114801     11.61762908     25.36234632
 C     15.57312771     12.04632080     25.08024996
 C     15.93564364     13.43539211     25.63762156
 C     17.39303296     13.85610709     25.37188624
 C     18.44023097     12.88170952     25.94243485
 C     19.83328913     13.50664414     26.14354597
 C     20.53421116     13.90955162     24.83283094
 C     21.89670790     14.59767133     25.03702173
 C     22.44139181     15.29500824     23.77660883
 C     22.66334321     14.34755169     22.58301608
 C     23.28059947     15.02981600     21.34806260
 C     22.34736477     16.04383700     20.66072396
 C     23.02426636     16.86212677     19.54546341
 C     22.08281203     17.85333054     18.83639443
 C     20.82720067     17.19990912     18.22969799
 C     19.72490332     18.20266018     17.84107107
 C     18.48072553     17.55181670     17.20859626
 C     18.64365898     17.20850180     15.71621977
 C     17.37202516     16.63631517     15.06265272
 C     16.06318751     17.09314815     15.73335953
 C     14.79457556     16.74648572     14.93208000
 C     13.51462806     16.67534128     15.78546904
 C     12.22991643     16.44060010     14.96937309
 C     10.98790053     16.14037281     15.82894280
 C      9.83128653     15.48544789     15.05117843
 C      8.62855297     15.09356861     15.92950788
 C      7.54206700     14.29624570     15.18423988
 C      6.16244736     14.32744167     15.86781611
 C      5.02077887     13.76543865     15.00043749
 H     -0.36333333      0.00000000      1.02766186
 H     -0.36333333     -0.88998127     -0.51383093
 H     -0.36333333      0.88998127     -0.51383093
 H      1.88274777     -0.79642871     -0.66054923
 H      1.88274777     -0.97006675     -0.35999232
 H      3.24961757     -0.55353705     -1.17735621
 H      3.02151830     -1.24943492     -0.92702698
 H      3.95304917     -1.06358058     -0.12562394
 H      3.89995383     -1.77073712     -0.64437924
 H      5.14630544     -1.97450342     -0.06336672
 H      5.24814214     -1.67496953      0.06119170
 H      5.96805163     -1.31311073      1.28465813
 H      5.96335433     -2.60378187      0.62438491
 H      6.00237949     -1.86012563      2.38146572
 H      5.88372557     -1.92028600      2.38695365
 H      5.84544781     -1.86603680      3.51821326
 H      4.77191030     -1.35584276      2.68434145
 H      4.54771631     -0.52597075      3.63936892
 H      5.66091392     -1.33673563      4.58078968
 H      5.12306413     -0.39776354      5.55520249
 H      4.36654831      0.13231780      4.93495374
 H      3.45057313      0.67256872      5.66063948
 H      4.37530579      0.43775163      6.41966025
 H      4.27440332      1.16792695      7.36978598
 H      3.22797105      1.59220618      6.70434129
 H      3.73942247      2.01343424      8.27000381
 H      3.48065127      1.98399115      8.28393962
 H      3.18151729      2.67576996      9.21519212
 H      1.64044185      1.79725965      8.15689895
 H      2.56610449      4.29860460      8.53068621
 H      3.77467169      3.89086418      8.97402221
 H      4.84246894      3.86126925      8.68513788
 H      4.62483557      2.98663557     10.22003797
 H      5.41350013      5.12817269     10.81723380
 H      4.02052277      5.92429924      9.80249001
 H      6.25366244      5.75640983      9.52651884
 H      6.44225473      4.80819110     11.02103577
 H      5.67656149      6.53971246     12.44643294
 H      5.43263268      7.62588784     11.05755265
 H      8.00393989      7.37437450     10.80574325
 H      7.97450274      6.30291821     12.22679270
 H      7.26774223      7.61705305     13.83738983
 H      7.14604924      9.02691054     12.75768648
 H      9.53754468      9.00239652     12.33488388
 H      9.72676358      7.59226278     13.40445655
 H      8.89896531      9.18092257     15.24445285
 H      8.77407540     10.46145734     14.01445290
 H     11.12336966     10.46495787     13.56405105
 H     11.38621343      9.18470393     14.77240931
 H     10.40816480     11.43972153     16.10214477
 H     10.38454267     12.15927176     14.47427618
 H     12.99899263     11.72880604     14.79051821
 H     12.58982554     11.05990217     16.38845956
 H     11.80575505     13.59462933     16.68889411
 H     12.34337848     13.84955767     15.01132466
 H     14.52911499     12.80274257     16.52859330
 H     13.74771583     13.05859780     17.67943856
 H     15.17681097     13.60775788     15.07764541
 H     15.03240303     12.03612249     15.90067348
 H     16.35027181     13.09238467     17.79256212
 H     16.41456307     14.60605729     16.85825568
 H     17.78564636     12.54166975     15.48588880
 H     17.28112954     11.56830934     16.88813663
 H     18.81404907     13.25345688     18.16561242
 H     19.13411822     14.03787070     16.60019958
 H     20.19149847     12.12791882     15.65766238
 H     19.94861820     11.20849647     17.16230134
 H     21.52558041     13.07312029     18.11450133
 H     21.56456948     13.76868235     16.47653310
 H     22.59749696     11.03023319     17.34483353
 H     21.92887684     11.73636154     18.83567106
 H     23.92417258     13.43971618     18.29892749
 H     24.25313699     12.43216972     16.86892777
 H     24.73125760     10.71459005     18.88394947
 H     24.29761810     12.05424451     19.97277882
 H     26.53743056     12.59980638     19.88141391
 H     26.62378106     11.80927542     17.97188796
 H     26.93977652     10.77486692     20.42502282
 H     26.58393292     12.40763210     21.03798272
 H     28.52848915     13.17226299     19.44925104
 H     29.00272183     12.00797426     19.39001269
 H     27.94308119     14.41291165     20.86016592
 H     28.05179054     14.19788287     19.09658673
 H     30.60843985     14.10489014     19.61424784
 H     30.19640277     14.32571479     21.33172524
 H     29.26012031     16.56903301     20.71611694
 H     29.70417196     16.26661509     19.01917021
 H     32.03092465     16.35759970     20.61847102
 H     30.86350294     16.63219642     21.93376182
 H     30.10085654     18.70909807     21.01608587
 H     30.87365138     18.55371242     19.65650569
 H     30.58971828     18.37814784     18.61086879
 H     32.33342993     18.41121501     18.96673801
 H     32.26893393     20.67596289     19.75346788
 H     30.51974376     20.76432910     19.43599057
 H     31.87274407     20.36942875     17.00381980
 H     33.32163223     20.37310349     18.03773287
 H     33.21391276     22.49370725     18.83799271
 H     31.73288496     22.84260727     17.91436286
 H     32.30463303     22.66278898     15.84049557
 H     33.99465086     22.26886686     16.23664171
 H     34.24035523     24.50203263     17.27840089
 H     32.54739798     24.87170154     16.87157495
 H     34.21323769     24.45619275     14.56014508
 H     35.44816824     24.18345544     15.81267355
 H     35.54755895     26.15836325     16.81470736
 H     34.31536703     26.86168535     15.73985492
 H     35.88049032     26.48171571     13.82895410
 H     37.06708396     25.78754886     14.95961522
 H     37.19119861     28.01085373     16.08442160
 H     35.99988450     28.64806892     14.92554535
 H     37.60928749     28.23819843     13.08908541
 H     38.78361948     27.60466081     14.26715210
 H     38.66921467     30.04013419     15.18625568
 H     37.49401370     30.39785574     13.89815451
 H     39.11566882     29.96609108     12.16022647
 H     40.35512836     29.59358998     13.38221241
 H     40.25184617     31.87467290     14.24819034
 H     39.01114548     32.28658178     13.04019219
 H     40.67987494     31.84322673     11.25091220
 H     41.88892854     31.43855326     12.49296512
 H     41.90722766     33.60537021     13.45512758
 H     40.69917893     34.17759761     12.27978050
 H     42.32887415     33.74816416     10.45789309
 H     43.51206251     33.18153748     11.66091686
 H     43.46506485     35.51875678     12.60967288
 H     42.28047604     35.97277302     11.36111961
 H     43.68971170     35.60867838      9.53037177
 H     45.02861887     35.12027141     10.59669858
 H     45.18642769     37.24349161     11.66026531
 H     43.85769243     37.87993758     10.66143309
 H     45.76162146     37.31643502      8.82712479
 H     46.74683889     36.76434604     10.20291948
 H     46.64964264     39.16984264     11.01270940
 H     45.66526649     39.57347100      9.58570050
 H     46.91446497     39.19703638      7.88427123
 H     48.29713718     38.68684816      8.88236551
 H     48.46084788     40.89159085      9.89793691
 H     47.08267472     41.45673198      8.92350328
 H     48.09449069     41.18898335      6.84224410
 H     49.59654848     40.59655125      7.59131905
 H     50.16986857     42.47374325      8.76261973
 H     48.74133418     43.35732820      8.17369377
 H     50.37710954     42.72881408      5.98203920
 H     51.40583976     41.96472309      7.21741191
 H     51.70237246     44.27928572      8.19072817
 H     50.65397514     44.92249645      6.90410092
 H     52.23114353     44.24969649      5.18302369
 H     53.32408767     43.58916196      6.42295671
 H     53.83442751     45.45450081      7.56840476
 H     52.82564570     46.47182044      6.51214405
 H     55.10256739     45.13279217      5.25437148
 H     55.28983788     44.52821803      6.91800802
 H     55.68414671     46.80679074      7.73003393
 H     55.50138154     47.43407448      6.07432301
 H     57.59609538     45.99889669      5.59872470
 H     57.57411813     45.50247387      7.30791984
 H     57.96415610     47.83215738      7.99601638
 H     57.98717126     48.33395224      6.28840434
 H     59.89635459     47.05876342      5.72564802
 H     60.03296024     46.45419323      7.39421041
 H     60.41888828     49.05625555      7.79566665
 H     60.20953688     49.25677158      6.03946849
 H     62.22915835     47.88556582      5.65873625
 H     62.42603465     47.69308414      7.41727462
 H     62.75235950     50.22840550      7.44279648
 H     62.52601665     50.23191651      5.67728714
 H     64.36021352     48.95667758      5.11680736
 H     64.83972438     48.78823012      6.82266827
 H     65.27917384     50.72649482      7.54837219
 H     64.93332697     51.50842537      5.98720557
 H     67.06564220     49.85865420      5.49014884
 H     66.93180161     49.41552166      7.20886549
 H     67.46720363     51.75618479      7.82069008
 H     67.59399141     52.17163142      6.09453956
 H     69.58974841     50.38754673      6.39729216
 H     69.08160632     50.28768101      8.10025579
 H     69.90757673     52.87341951      7.79281822
 H     70.23837237     52.41622993      6.10467764
 H     71.91822984     50.80934044      6.76479454
 H     71.65278295     51.20724349      8.47928507
 H     72.24054173     53.32399549      8.59730400
 H     72.66013181     53.39724481      6.86905478
 H     74.43736859     51.71651531      7.26140811
 H     73.99680820     51.66214202      8.98512988
 H     74.84674942     54.22018870      8.62098601
 H     75.11054263     53.74743047      6.92535059
 H     76.83906747     52.11836950      7.89553475
 H     76.42822519     52.72390843      9.51812463
 H     77.31436896     54.96538753      8.70751389
 H     77.66575574     54.21534531      7.13200424
 H     79.30395446     52.75636220      8.47383140
 H     78.80454313     53.63334485      9.94003617
 H     79.85494256     55.65284914      8.64806729
 H     80.22209236     54.51913911      7.32588376
 H     81.73124195     53.31972088      8.95297491
 H     81.28907633     54.51076986     10.19963387
 H     82.31812883     56.29693662      8.84191349
 H     82.75573129     55.09836638      7.60086550
 H     84.18464272     54.25151734      9.71475832
 H     83.47064782     55.62126178     10.59922319
 H     84.41975840     57.30247394      9.28529339
 H     85.24405400     56.10391810      8.25949257
 H     86.50571333     55.44590932     10.37160979
 H     85.59160501     56.68912792     11.25878517
 H     86.65810132     58.41512676      9.81229997
 H     87.54677193     57.13148137      8.95743992
 H     88.72788241     56.53995856     11.02315532
 H     87.85030221     57.81863291     11.89671788
 H     89.05972786     59.41903277     10.30069987
 H     89.83938271     58.00616795      9.54955542
 H     90.87298554     57.76781537     11.94445707
 H     89.95080478     59.21923959     12.40404062
 H     90.78172938     60.78899477     11.12750485
 H     91.94011484     59.67880748     10.35685967
 H     93.19472272     59.08290700     12.11969240
 H     92.25822349     60.10921468     13.23231470
 H     92.99811353     62.10163835     11.94985802
 H     93.92251325     61.04417625     10.85645702
 H     95.34621840     60.01523727     11.56511438
 H     95.15337366     60.64006121     13.22061208
 H     95.67591781     62.90009491     12.52017463
 H     95.88784921     62.34853932     10.84114569
 H     97.77348066     60.93711241     11.50812794
 H     97.58525773     61.47185146     13.19540176
 H     98.12502401     63.78833393     12.45952684
 H     98.02324176     63.47555254     10.97430459
 H     97.33467514     63.73412993     10.16098875
 H     98.62470363     62.58579186      9.73039285
 H    100.08574373     64.69476771     10.42478944
 H     98.54831355     65.52613907     10.76153379
 H     98.12770286     65.22212710      8.24032376
 H     99.70730952     64.40944537      8.12781653
 H    100.86197947     66.44711018      8.80949529
 H     99.30460033     67.29992260      8.93418628
 H     98.64380954     67.18894626      6.76105262
 H    100.11973379     66.31554369      6.28452118
 H    101.68561117     67.86136041      6.76461215
 H    100.46727342     69.03152495      7.32553528
 H     99.70852700     68.84917629      4.81595317
 H    101.03510806     67.68531164      4.58385743
 H    102.15744389     70.15241478      5.26768296
 H    100.46289542     70.69243706      5.33943327
 H    100.73476226     70.03113979      2.74344667
 H    102.41040791     69.59231063      3.15321159
 H    103.26762426     71.53129387      3.79179648
 H    101.74236070     72.40064783      3.49843416
 H    102.06760343     71.73950860      1.05654727
 H    103.57211339     70.91075081      1.52332021
 H    104.78774378     72.65500790      2.26758836
 H    103.48151827     73.81232661      1.91736701
 H    103.55644880     73.37252147     -0.44526544
 H    104.86982862     72.19465118     -0.20878780
 H    106.44740702     73.67743535      0.61917512
 H    105.47645685     74.88717533      0.77580606
 H    104.74809396     75.72888650      1.13002886
 H    104.51661554     75.80390383     -0.63322292
 H    107.21124163     76.37525052      0.32632400
 H    106.41749193     76.04715316      1.88535581
 H    104.93092590     77.93102838      1.65038438
 H    105.66392410     78.34099704      0.08101954
 H    107.80861816     78.73337130      1.38807751
 H    106.93862513     78.29393591      2.87746508
 H    105.50252105     80.34892121      2.40561420
 H    106.47396863     80.64182101      0.94316217
 H    108.14148103     80.87039628      3.18692498
 H    106.65657302     80.48256126      4.08853402
 H    105.23618525     81.92329310      3.82415953
 H    106.26921206     82.92171686      2.77331594
 H    107.71479309     83.04746469      4.95988467
 H    106.48842201     82.01678240      5.73575494
 H    104.85719493     83.90343735      5.35867495
 H    106.16242327     84.84417144      4.59731761
 H    107.21169560     84.68401432      6.97647438
 H    105.78001671     83.74875606      7.47029033
 H    104.36408623     85.72758264      7.01326995
 H    105.81027746     86.64243680      6.52353587
 H    106.40062834     86.18734575      9.06888370
 H    104.84907065     85.32160657      9.17579982
 H    104.15785128     87.90723155      8.60425532
 H    105.90976652     88.22194391      8.60822661
 H    105.96067587     87.59749779     11.01612861
 H    104.20754442     87.29417882     10.96326673
 H    103.78161787     89.64777346     10.44444022
 H    105.52941587     89.98133286     10.49141828
 H    106.39604603     89.67870103     12.22290870
 H    104.89196148     89.18810550     13.03857551
 H    104.07625902     91.54853650     12.53903765
 H    105.63769596     91.88005783     11.75146230
 H    106.43927272     91.43137864     14.25250804
 H    104.72479393     91.15809151     14.64511891
 H    104.04854253     93.36580174     14.11771664
 H    105.71639537     93.81408379     13.68693041
 H    106.42992829     93.39572494     16.00608900
 H    104.76258531     92.94717955     16.43857148
 H    104.08690248     95.29347569     15.87385920
 H    105.77845705     95.66033750     15.45874210
 H    106.52166375     95.25670715     17.72464286
 H    104.85565373     94.87695057     18.22310271
 H    103.99195595     97.01867334     17.76018266
 H    105.58879929     97.59311025     17.22317218
 H    106.65339709     97.31637369     19.29467752
 H    105.15130611     96.71741224     20.03847490
 H    104.95002356     99.43594736     19.12600470
 H    106.63008857     99.12988470     18.62403472
 H    106.84271035     98.88514884     21.27533095
 H    105.09723271     99.22758320     21.34100569
 H    105.50145037    101.46947142     20.40464256
 H    107.24698412    101.12734636     20.33884734
 H    107.37926822    100.91142022     22.75021119
 H    105.63732973    101.24875221     22.89207067
 H    106.65649452    103.54379552     21.84224740
 H    108.22917256    102.71252875     21.90506467
 H    108.09726202    102.58769161     24.34850794
 H    106.52338775    103.41824317     24.31148659
 H    107.54490923    105.42209837     23.36767951
 H    109.13922435    104.63087235     23.38736017
 H    109.13444249    104.44433317     25.79361234
 H    107.53958642    105.23082409     25.87192475
 H    107.68987439    107.16562530     25.13413404
 H    109.43443108    107.03051340     24.80773951
 H    109.55177172    106.72993966     27.39430716
 H    107.77963930    106.89399223     27.42430879
 H    108.12354106    109.23786048     26.54769640
 H    109.88066224    108.95385566     26.55923253
 H    109.74812578    108.69372215     29.03835714
 H    107.99360572    108.98325123     28.96026144
 H    108.76804483    111.31529807     28.08010269
 H    110.44514242    110.74557187     28.25623438
 H    109.79024698    110.63424366     30.77501811
 H    108.17310877    111.21455977     30.30986879
 H    108.96299041    113.30599556     29.49822125
 H    110.63900146    112.87198502     29.91160784
 H    109.66605748    112.84859860     32.33450581
 H    108.09038295    113.28212479     31.62911833
 H    109.22747610    115.43670101     30.88903137
 H    110.73218609    114.85638202     31.64225403
 H    109.32987096    114.98752782     33.82122167
 H    107.96169967    115.55181969     32.83230879
 H    108.65983109    117.44836488     32.00386240
 H    110.23255374    117.33842458     32.83013309
 H    109.71656561    117.37482357     34.95117778
 H    107.97274872    117.51135236     34.62143665
 H    108.28653435    119.66557465     33.53018356
 H    110.03782941    119.57880305     33.83629300
 H    109.41012083    119.62807654     36.30627914
 H    107.69725806    119.70759829     35.82873952
 H    107.68454126    121.69017387     34.73873711
 H    109.41803858    121.95291852     35.04568818
 H    109.58400807    122.07658308     37.20297586
 H    107.83533762    121.85286617     37.44867708
 H    107.51322076    124.01800878     36.19950998
 H    109.27867298    124.14075692     36.00877971
 H    109.11438707    124.28282897     38.64492007
 H    107.35149523    124.12914894     38.45292667
 H    107.22409104    126.22585415     37.23650296
 H    108.98383496    126.44171360     37.39453048
 H    108.47987779    126.53934806     39.91962598
 H    106.75839732    126.30819203     39.53060347
 H    106.33774996    128.16803937     38.34621580
 H    108.00759330    128.75644333     38.52971151
 H    107.87205176    128.94680466     40.89495548
 H    106.18672521    128.37436215     40.87912288
 H    105.67140099    130.46414592     39.53192681
 H    107.39251626    130.90792136     39.62728005
 H    107.40207709    131.13416867     41.98690818
 H    105.67528778    130.71071922     42.07150079
 H    104.97957365    132.61564022     40.81526318
 H    106.66531640    133.16368129     40.65343293
 H    105.90808926    133.16709112     43.37616532
 H    104.36077365    132.57034310     42.72965709
 H    104.32139540    134.89740416     41.56720628
 H    105.88726530    135.23710519     42.34239744
 H    104.61848526    135.05098142     44.54413796
 H    103.13590817    134.71913652     43.61671638
 H    104.20983999    137.33604576     43.11417442
 H    105.44439578    136.78088702     44.27000201
 H    104.39842565    136.46137195     46.12233647
 H    102.83200351    136.96364659     45.44240373
 H    103.42268201    139.15695952     44.95783152
 H    105.06754887    138.91087884     45.59196398
 H    104.05100220    138.48477904     47.83559425
 H    102.43531240    138.74188446     47.13437394
 H    103.15179194    141.10485664     46.65066039
 H    104.73935786    140.74571341     47.37101951
 H    103.62232949    140.34404148     49.54720949
 H    102.04879148    140.70761398     48.79883803
 H    102.38805587    142.87300706     48.22041107
 H    104.03667318    142.86862012     48.89146128
 H    102.02866114    142.42360978     50.89093515
 H    100.94526923    142.56025487     49.48528343
 H    101.26681217    144.62251926     48.79948393
 H    102.44293050    144.96514065     50.09084868
 H    101.09184363    144.71297979     51.90241539
 H     99.68140457    144.33466387     50.88467013
 H     99.36487507    146.14983338     49.71932288
 H    100.72950956    146.99530920     50.48822470
 H     98.66889369    146.33530231     52.36198207
 H     97.90711210    145.63381028     50.91427201
 H     97.75451479    147.81783663     49.85487912
 H     98.51135785    148.57491995     51.27694807
 H     96.55921591    147.85129260     52.63657270
 H     95.83978090    147.10682297     51.18866217
 H     95.64469842    149.21794466     50.05146389
 H     96.35328112    150.06280949     51.44874004
 H     94.87848440    149.68127790     53.04685760
 H     93.81968529    148.74258196     51.96701453
 H     93.43926312    150.70322477     50.56146513
 H     94.49094715    151.67573960     51.61808345
 H     92.69585965    151.16894089     53.40457649
 H     91.81402718    150.23530927     52.17211142
 H     91.26208858    151.60919020     50.64302038
 H     91.99995803    152.99813785     51.47647090
 H     90.42855527    152.72533505     53.34662440
 H     89.68380589    151.33536402     52.52103639
 H     88.87247357    152.30625231     50.67601465
 H     89.46374668    153.91254158     51.16437678
 H     88.01410983    153.89767261     53.13013353
 H     87.39766571    152.29131531     52.67419547
 H     86.45773337    153.27006982     50.60358636
 H     87.08425869    154.86647586     51.08026284
 H     85.33760716    154.38143069     53.05063221
 H     85.17400059    152.92566875     52.59999935
 H     85.08308505    151.74297182     52.18335425
 H     84.39652417    152.48309358     50.71736632
 H     82.59165120    153.24574587     52.50937615
 H     83.57162443    152.38496423     53.72056322
 H     83.47764318    150.29366049     53.04371913
 H     82.44016939    150.69545287     51.65430282
 H     80.72595597    151.42715078     53.39038068
 H     81.88351437    150.97855323     54.66595328
 H     81.55618151    148.59779425     53.65679702
 H     80.43261168    149.32503176     52.48334778
 H     78.82393235    150.06486972     53.90094502
 H     79.69180754    149.44161144     55.32453500
 H     79.62484100    147.20258694     54.78140798
 H     79.56065545    147.20179275     53.73898056
 H     79.87105738    147.10541706     52.54099079
 H     78.24538180    147.77291508     52.25833911
 H     77.17155339    145.88803543     53.31524322
 H     78.75457278    145.14152523     53.63934012
 H     79.00523510    145.04394434     51.10347454
 H     77.40205194    145.80309510     50.95596001
 H     76.64172796    143.59233767     52.12513509
 H     78.35150129    143.09760729     52.13868828
 H     78.06388459    143.18061243     49.55630857
 H     76.37561183    143.67589833     49.82592614
 H     76.41398958    141.21251044     50.90709626
 H     78.13178800    141.16329817     50.44340088
 H     78.23533644    141.27973606     48.34256418
 H     76.46741025    141.34989498     48.14818987
 H     76.73605866    138.93828023     49.24366331
 H     78.48689462    139.25753032     49.27398632
 H     78.33842109    139.32976259     46.73838041
 H     76.59234829    139.00892174     46.86705677
 H     77.34421332    136.77515980     47.90606572
 H     79.03034063    137.30195294     47.68759292
 H     78.63575921    137.31133364     45.22478444
 H     76.95853028    136.78554066     45.50534018
 H     77.48533089    134.72933423     46.47451656
 H     79.22957635    135.03316189     46.29131400
 H     78.82851839    135.04908743     43.80060291
 H     77.71287668    133.56414614     44.59342163
 H     77.46902240    132.62572793     45.11615920
 H     79.22633166    132.77958057     44.87854566
 H     79.42316979    132.84995686     42.68484561
 H     77.66794490    132.69488585     42.43304166
 H     76.85024216    131.05116966     43.07092714
 H     78.38263625    130.35848368     43.65421194
 H     79.32586621    130.31638115     41.43011771
 H     77.82766006    131.00590544     40.76063937
 H     76.79702645    128.78227316     41.62964074
 H     78.41808985    128.33589986     42.21373919
 H     79.57611165    128.22706714     40.31857348
 H     78.15755560    128.64846751     39.32943894
 H     77.56946580    126.23673982     40.55499182
 H     79.18261398    126.40767512     41.28765869
 H     80.11663824    126.26548462     38.95064680
 H     78.45795278    126.10368307     38.32546724
 H     77.84238102    124.16197816     39.28263009
 H     79.42019362    123.96833021     40.08342626
 H     80.82508628    123.79682225     38.40793018
 H     79.53426345    123.94142472     37.19091201
 H     78.63972643    121.76483144     38.18161600
 H     79.99690225    121.77990844     39.33318587
 H     81.27754660    121.55081184     36.98324930
 H     79.66470033    121.58720477     36.23113952
 H     79.23252804    119.41840398     37.48963320
 H     80.87620902    119.52592576     38.16418382
 H     81.81589559    119.32090643     35.89412456
 H     80.17048285    119.21386910     35.22373169
 H     79.46756190    117.30007382     36.19889812
 H     81.01951829    117.07209988     37.04016260
 H     81.91824164    116.89030851     34.59494707
 H     80.24751227    117.14878339     34.03806219
 H     79.26961219    115.29237510     34.91168539
 H     80.80625389    114.72592754     35.60892001
 H     82.09442442    114.38513449     33.89873416
 H     80.83850555    114.86661930     32.73292678
 H     79.73483701    112.69634000     33.87773626
 H     81.21372154    112.60954538     34.86446515
 H     82.38684444    112.21875746     32.60550616
 H     80.79608306    112.34642114     31.81718715
 H     79.72107725    110.60041800     32.70311757
 H     81.13401062    110.11895151     33.67269271
 H     82.66908044    109.62641412     32.24641988
 H     81.62359422    109.97386331     30.84838401
 H     80.00542456    108.58053469     30.95172716
 H     80.63094188    107.80312284     32.42571005
 H     82.41727336    107.49548935     30.21698325
 H     81.16783769    108.44445165     29.37635984
 H     79.46578056    106.83855808     29.60828033
 H     80.56463391    105.73434250     30.46938193
 H     82.02373932    105.49355749     28.58165999
 H     80.99955456    106.58410217     27.61728219
 H     79.12533465    105.02210905     27.76671530
 H     80.12125336    103.90711974     28.73274398
 H     81.61462656    103.69440661     26.71454518
 H     80.55098315    104.82245918     25.84023016
 H     78.87920356    102.78453973     26.27710232
 H     80.23887001    101.98428680     27.10121947
 H     81.08577186    102.23288603     24.52173872
 H     79.51326241    103.01331227     24.22777345
 H     78.39714134    100.87321915     24.82399685
 H     79.99074932    100.13291255     25.10794474
 H     80.53320722    100.47840314     22.71120608
 H     78.93166002    101.21444713     22.46310839
 H     77.48644150     99.72010447     22.87680622
 H     78.71215314     98.48347606     23.24646524
 H     79.65246414     98.47163576     21.07788558
 H     78.49665867     99.70818755     20.52714058
 H     76.69866189     97.97086460     21.00762181
 H     77.97693014     96.84839069     21.53140542
 H     78.98448095     96.79006172     19.34541065
 H     77.74901006     97.90903832     18.72109525
 H     76.16890407     95.90864206     19.33626625
 H     77.61734426     95.03779737     19.89476173
 H     77.96950933     95.43810754     17.18636646
 H     76.39042872     96.25561454     17.26669944
 H     75.73808811     93.74207390     17.95176942
 H     77.46612601     93.36221356     17.75719865
 H     76.26768901     94.19254200     15.29818092
 H     74.82212789     94.34191193     16.32594954
 H     74.59053116     92.14446277     16.92093608
 H     76.01276233     91.66769635     15.96269865
 H     75.04998864     92.31796077     13.88624582
 H     73.55612681     92.83708827     14.70303843
 H     73.07000525     90.60414513     15.47238439
 H     74.54335459     89.98921438     14.68538468
 H     73.99616524     90.59034628     12.50004261
 H     72.45630441     91.13108102     12.95995148
 H     74.80101137     89.07896344     12.62511949
 H     75.01489896     90.77471366     12.12817891
 H     72.99504603     89.43609330     10.60049976
 H     73.18715037     88.21497348     11.64563115
 H     73.21462781     87.38692299     12.48663427
 H     74.87437195     87.24066696     11.86043524
 H     74.99711041     86.72837618      9.96010728
 H     73.23423350     86.61526688      9.74161717
 H     73.16767640     84.78121612     11.39878725
 H     74.93106780     84.90889521     11.60473746
 H     75.43980196     84.30864235      9.37450579
 H     73.71181350     84.12714937      8.98800501
 H     73.65325340     82.26433640     10.67975121
 H     75.38502307     82.52872613     10.99493141
 H     76.55331289     82.20042307      9.42503268
 H     75.20744341     81.73261608      8.35823437
 H     74.62466756     79.82693149      9.68228240
 H     75.94126734     80.18305691     10.82596345
 H     77.31617424     79.69462424      8.58048816
 H     75.73779859     79.42660627      7.80256572
 H     75.27007999     77.52164430      9.23200691
 H     76.83618558     77.73270308     10.05117365
 H     78.14197513     77.32000078      8.13164636
 H     76.68353181     77.06711209      7.14308324
 H     75.53997675     75.59236319      7.62791819
 H     76.57241775     75.06067356      8.97685792
 H     78.34801574     74.62658379      7.20980379
 H     77.20120429     75.19071326      5.97091392
 H     76.06235335     72.93400802      7.06851494
 H     77.51369640     72.89614203      8.09828976
 H     79.13826028     72.59736652      6.62781320
 H     78.00639074     72.55815701      5.25464146
 H     77.00092858     70.49792129      6.27218098
 H     78.16880707     70.61329186      7.61046949
 H     80.09953388     70.33099808      6.42846416
 H     79.21420043     70.16182306      4.89359245
 H     78.23872173     68.05447562      6.07427823
 H     79.23690939     68.46897154      7.48852050
 H     81.27827941     68.14377265      6.16176360
 H     80.29149168     67.72713359      4.74016994
 H     79.50324240     65.73621073      6.13531721
 H     80.54850741     66.30482224      7.45908784
 H     82.50094986     65.89720125      5.91626163
 H     81.36211485     65.34971359      4.66263539
 H     80.61711130     63.48205822      5.98397967
 H     81.72439310     63.94119773      7.29980055
 H     83.50209166     63.41880129      5.42214011
 H     82.13194977     63.03568454      4.35246753
 H     81.69004752     61.14494305      6.05492601
 H     83.10640868     61.71469309      6.97011595
 H     84.45199364     61.08288563      4.89882953
 H     82.93768322     60.55928109      4.12360769
 H     82.91587329     58.82221870      6.05325832
 H     84.43925781     59.53934621      6.63057488
 H     85.53147937     58.84006381      4.51953298
 H     83.99501816     58.13167333      3.96659849
 H     84.40348153     56.59155609      6.05518197
 H     85.89773879     57.51486898      6.34320144
 H     86.78572087     56.70659852      4.18008623
 H     85.28334208     55.79080359      3.91093149
 H     86.06493241     54.50961179      6.03497530
 H     87.48822555     55.57774315      6.07495889
 H     88.16544728     54.60441509      3.86882796
 H     86.71755736     53.56962203      3.90176367
 H     87.13091593     52.31736426      5.71741174
 H     88.68689910     53.12766124      6.01841314
 H     89.07359446     51.94529523      3.61306335
 H     87.40063610     51.35959408      3.77563987
 H     87.78846376     50.04695997      5.67993173
 H     89.50907861     50.50231910      5.69991365
 H     89.45212398     49.24255605      3.38888418
 H     87.71885299     48.96085428      3.67988671
 H     88.28941777     47.60544445      5.66525297
 H     90.01921222     47.89576077      5.36227725
 H     89.87144141     46.71029344      3.22266469
 H     88.14016880     46.40728118      3.50399259
 H     88.95085103     45.04225938      5.52060054
 H     90.62127871     45.46399144      5.07329743
 H     90.30733576     44.22314722      2.94084040
 H     88.64227122     43.82634254      3.42907474
 H     89.01546724     42.58690678      5.25937264
 H     90.78141663     42.74626721      5.10350848
 H     90.29507165     41.44791369      2.86567892
 H     88.57527539     41.47056904      3.32399565
 H     89.59239789     40.00411825      5.30459391
 H     91.17461987     40.22864624      4.52073968
 H     90.25458525     38.96406616      2.55371638
 H     88.70714820     38.79219132      3.41636595
 H     89.58885490     37.50654117      5.18626593
 H     91.21776248     37.56342169      4.47093989
 H     90.44064642     36.34101867      2.50228559
 H     88.79970539     36.26441668      3.18764049
 H     89.39444603     34.97638100      5.06290335
 H     91.09688328     34.92936084      4.54544495
 H     90.79483639     33.78373116      2.56788849
 H     89.03802744     33.67244615      2.83152580
 H     89.41629293     32.32083236      4.84997894
 H     91.17454285     32.42680769      4.59386742
 H     90.90805980     31.19528990      2.46160909
 H     89.15254707     31.10343190      2.74090071
 H     89.12728339     29.86092380      4.63615049
 H     90.90276192     29.73791213      4.66462510
 H     90.72507915     28.49218318      2.48193425
 H     88.95580528     28.67422384      2.55120057
 H     88.93874322     27.30424993      4.62142604
 H     90.70862443     27.14446617      4.52015268
 H     90.62192407     25.95682802      2.43975015
 H     88.84441094     26.04965628      2.42992009
 H     88.77327612     24.69168775      4.48981388
 H     90.53058117     24.06293916      3.59597840
 H     90.70843928     23.42921252      2.45108133
 H     88.93704044     23.41154582      2.27758587
 H     87.95949864     22.44991965      3.66988182
 H     89.42839737     21.95970953      4.54754760
 H     89.28181258     20.86753329      1.89136725
 H     87.76116772     21.79228674      1.86422078
 H     86.93445216     20.30838126      3.70513283
 H     88.48467032     19.43433026      3.67158932
 H     87.88022236     18.75512452      1.31158607
 H     86.36110218     19.66923528      1.46951665
 H     85.54140764     18.27439574      3.23740968
 H     87.01663962     17.28045119      3.17391559
 H     86.96729118     16.41014009      1.16570652
 H     85.43219035     17.21203666      0.75498278
 H     83.99974650     16.38014824      2.16969613
 H     85.21950806     15.33530329      2.93699490
 H     85.15775894     14.36397446      0.43092020
 H     83.93298722     15.61272527      0.10103791
 H     82.35916250     14.70242026      1.64905375
 H     83.48752335     13.39265806      2.07283605
 H     83.34042654     12.58981406     -0.28136644
 H     82.21618349     13.91929597     -0.65126117
 H     80.54557635     13.11793117      0.86790869
 H     81.57821429     11.74034134      1.31976243
 H     80.95551661     11.50119278     -1.39459740
 H     80.05847436     13.01576177     -1.13066057
 H     78.62533948     11.60482748      0.46658715
 H     79.65018858     10.20447852      0.07038800
 H     78.81195702     10.42541139     -2.29682222
 H     77.82702973     11.81885982     -1.79037737
 H     76.58379373     10.19577201     -0.29522733
 H     77.64248093      8.89168730     -0.88413407
 H     76.56084793      9.40513376     -3.16677156
 H     75.60045334     10.67193068     -2.36606284
 H     74.38198171      9.50036402     -0.93011555
 H     75.09615291      7.95594557     -1.45260748
 H     74.01345580      8.51401178     -3.71913953
 H     73.39615451     10.01848940     -2.99543180
 H     72.21053582      7.91460086     -1.62424048
 H     73.16874325      6.88954061     -2.71939192
 H     71.27642698      8.43543065     -4.17079273
 H     70.86848196      9.05003349     -2.55088197
 H     70.16398935      7.62932384     -1.32624930
 H     70.27139250      6.34178847     -2.55057928
 H     68.54642109      7.75492416     -3.82913103
 H     68.59115245      8.92853268     -2.49163008
 H     67.67964761      7.10476887     -1.01766378
 H     67.67598739      6.00682839     -2.41865628
 H     65.98920265      7.56135644     -3.46593271
 H     66.07449612      8.58881122     -2.01495774
 H     65.20393029      6.83039013     -0.60152519
 H     65.08455258      5.73825667     -2.00197516
 H     63.42031971      7.30754225     -2.99647943
 H     63.58273349      8.36129794     -1.57117687
 H     62.68603021      6.53715895     -0.15661823
 H     62.53382951      5.50271674     -1.59711499
 H     60.86697020      7.18666255     -2.46414579
 H     61.10202615      8.14253720     -0.98113567
 H     60.10070007      5.98145498      0.11713313
 H     59.99884701      5.29082951     -1.52022116
 H     58.36939947      7.12897275     -2.06534505
 H     58.54297090      7.74315406     -0.40374313
 H     57.59291598      5.64274211      0.46825647
 H     57.42061147      5.03118077     -1.19444330
 H     55.78186657      7.27168888     -0.95109684
 H     56.40784721      7.32494064      0.71430976
 H     55.15422519      5.00952310      0.82160123
 H     54.70143261      5.27206320     -0.87966837
 H     53.40677015      7.22597819     -0.37973029
 H     53.78693277      7.06792051      1.35196276
 H     52.57567048      4.88759950      1.34834521
 H     52.22705121      5.09975472     -0.38420246
 H     50.93504104      6.99659063     -0.22593251
 H     51.10355827      7.03739575      1.54556504
 H     50.09882080      5.10899006      2.10904182
 H     49.73127805      4.71472172      0.41265404
 H     48.29423062      6.87587559      0.55530294
 H     48.82651899      7.04005882      2.24585895
 H     47.75716052      4.97982470      2.89839142
 H     47.17675645      4.72909874      1.23450012
 H     45.81918213      6.65302544      1.18089681
 H     46.27653653      7.07401989      2.84878688
 H     44.91890964      4.63022975      2.91072699
 H     44.93487006      4.69142109      1.25503134
 H     45.16607290      4.52209759      0.15742441
 H     44.13896213      5.97571628      0.17482699
 H     42.25489172      5.22242059      1.05387072
 H     42.89020411      3.56763861      1.21617117
 H     43.04916254      3.59784351     -1.33119516
 H     42.40451447      5.25683986     -1.31053999
 H     40.47960957      5.22889457     -0.51908552
 H     40.47768007      3.46473072     -0.28246589
 H     40.66590218      2.64000018     -2.27770052
 H     40.70166793      4.24593799     -3.04448029
 H     39.79650808      5.50816580     -3.18936143
 H     38.46095733      4.75798533     -2.28282951
 H     38.00208672      3.01048224     -3.65549578
 H     39.27378412      3.48823487     -4.80562830
 H     38.15400130      5.58486136     -5.29375089
 H     36.84730987      5.16880048     -4.15897447
 H     35.99310656      3.34161640     -5.12597354
 H     37.15084675      3.41683749     -6.47587951
 H     36.10339939      5.62608293     -7.08445346
 H     34.99376689      5.45147510     -5.70369480
 H     34.27567612      3.36165054     -7.21265994
 H     35.53444833      3.89155461     -8.35413305
 H     34.34040251      5.99175730     -8.74767848
 H     33.06619376      5.48780005     -7.61159494
 H     33.54728372      3.48987813     -9.69467196
 H     33.89825842      4.19944627    -10.26993008
 H     32.00045298      2.92785280     -8.59293790
 H     33.69282290      2.45514369     -9.14539089
 H     30.64461084      3.17230670     -9.60092411
 H     31.20556946      3.26762192     -7.91435745
 H     31.68167741      0.86878672     -7.89744896
 H     31.12664176      0.73921839     -9.58369157
 H     28.96552462      1.33278594     -9.35001139
 H     29.13953929      1.56065602     -7.59329264
 H     29.66580994     -0.58734087     -7.01193357
 H     29.55974368     -1.13985320     -8.70064513
 H     27.06364847     -0.41250607     -8.39819093
 H     27.48179137      0.06150864     -6.73423984
 H     28.08468596     -1.55546769     -5.64055392
 H     27.85316346     -2.70260708     -6.98172327
 H     25.44177146     -2.19920333     -6.99523555
 H     25.67383244     -1.05216620     -5.65407181
 H     26.41172565     -2.98518737     -4.24570171
 H     26.15761735     -4.07048673     -5.63344122
 H     23.80259903     -3.63689472     -5.72157896
 H     23.92711454     -2.52849362     -4.33442016
 H     24.60629183     -3.84386396     -2.70572480
 H     24.62079135     -5.28306530     -3.75298595
 H     22.12369352     -4.94561794     -3.99129245
 H     22.24629990     -3.52057720     -2.93181464
 H     23.00820213     -5.30336753     -1.18895292
 H     22.80309274     -6.53248735     -2.45996090
 H     20.36310963     -5.03667177     -2.20934881
 H     20.69110369     -4.71610695     -1.16973579
 H     20.26580169     -7.03219859     -3.09439014
 H     20.02002385     -5.30967058     -3.46956635
 H     18.18746140     -5.45365551     -1.66074190
 H     18.60868622     -7.16994759     -1.44819115
 H     18.05221405     -7.91662737     -3.54403516
 H     17.53910407     -6.29095401     -4.05606150
 H     15.79905328     -6.02180685     -2.57149289
 H     16.07773084     -7.62950939     -1.86022782
 H     15.39662403     -8.17168064     -4.43958544
 H     15.26544786     -6.40698360     -4.63168913
 H     13.36839270     -6.63106341     -2.89795126
 H     13.68161049     -8.38290653     -2.86320991
 H     13.03203292     -8.52989121     -5.24225216
 H     12.72302501     -6.77707763     -5.26287632
 H     10.90957561     -7.78075700     -3.47315542
 H     11.64192352     -9.36057223     -3.84209585
 H     10.76762363     -8.96057443     -6.21525550
 H     10.10518196     -7.40448510     -5.66025667
 H      8.64627217     -8.40044518     -4.04521927
 H      9.11332046     -9.98173855     -4.53334888
 H      8.19774055     -7.14298589     -4.09324054
 H      9.00654480     -8.19909360     -2.91055763
 H      6.60801214     -9.42661586     -3.47817656
 H      6.34473127     -8.05153041     -4.57730797
 H      6.36056311     -6.50202503     -2.67434924
 H      6.62353729     -7.86577495     -1.56111189
 H      4.16634659     -8.32833983     -2.70006605
 H      4.46899999     -6.82044624     -3.59612658
 H      4.38620679     -5.92928263     -1.06924365
 H      4.10276920     -7.62245060     -0.59901817
 H      1.91910931     -7.22196381     -2.01739362
 H      2.51030828     -5.56772614     -2.30418306
 H      2.30258118     -5.39055317      0.29242361
 H      1.69626887     -7.01828017      0.29945575
 H      2.12417328     -3.99601204     -0.19539629
 H      3.27471624     -5.00789298      0.71048148
 H      1.23358824     -5.24581495      2.32928557
 H      0.32138745     -4.20172047      1.21303152
 H      1.83064030     -2.33728499      1.62175986
 H      2.77902138     -3.33591282      2.74940451
 H      0.60251665     -3.38210857      4.12700100
 H     -0.15401513     -2.37899857      2.86616927
 H      0.81114328     -0.55160150      2.75678689
 H      1.95030531     -0.94175126      4.06764910
 H      0.09325218     -1.12294806      5.65910280
 H     -1.06215183     -0.73386342      4.36221368
 H     -0.25773824      1.41549088      3.93223024
 H      0.98646572      1.25620347      5.19510423
 H     -0.26665069      1.02693530      7.02831801
 H     -1.78375709      1.15545328      6.10628873
 H     -0.99054654      3.51524233      5.53312302
 H      0.47483073      3.21102575      6.49665217
 H     -0.47429638      2.92178558      8.54148131
 H     -2.11131416      3.19264425      7.89721814
 H     -1.33087515      5.52900639      7.31689589
 H      0.26734117      5.12945535      7.99093612
 H     -0.46970183      4.77944512     10.18588713
 H     -2.14992386      5.15152348      9.73126828
 H     -1.12318614      7.08657977     10.80734663
 H      0.39469406      6.89883620      9.68253329
 H      0.39599782      6.44254847     11.67538547
 H     -1.36325716      6.84601958     11.88749473
 H      1.34890009      8.23831894     11.15889786
 H      1.63273745      6.49888480     11.40804023
 H      0.87399909      7.02381400     13.82827654
 H      0.66016716      8.71892786     13.32914574
 H      3.17930407      8.69642601     12.91053520
 H      3.20937662      6.99656566     13.43763777
 H      2.40708728      8.32389441     15.66392252
 H      2.52715956      9.79572742     14.67016355
 H      4.75896442      9.76596808     14.23060210
 H      4.99525892      8.27562879     15.17469975
 H      4.29296258      9.39810728     17.22234395
 H      4.04360885     10.91168006     16.31946697
 H      6.60725796     10.71634440     15.92230403
 H      6.57215241      9.21024823     16.87030645
 H      5.85421377     10.48568906     18.85576687
 H      5.89118988     11.98816153     17.90210239
 H      8.31426020     11.72733148     17.57048402
 H      8.28442619     10.22417746     18.52332430
 H      7.53113733     12.39369057     20.15959223
 H      8.78797605     13.10621389     18.67803194
 H      9.67715259     13.27889199     18.01904857
 H     10.23716969     12.25932245     19.36631449
 H      9.52830263     14.30546064     20.79881695
 H      9.03466252     15.11027578     19.28989061
 H     11.06857218     15.22880554     18.26334702
 H     11.88245428     14.44072590     19.63622469
 H     11.39301387     16.13028199     21.19548432
 H     10.53442926     17.08231307     19.96068232
 H     12.24743189     17.49863447     18.53527190
 H     13.40563441     16.61102516     19.55457720
 H     13.15949059     18.10759129     21.40253641
 H     11.98706004     19.08807624     20.49021929
 H     13.31325104     19.79545814     18.79348361
 H     14.72605275     18.92734370     19.44050394
 H     15.02332261     19.94857453     21.39993169
 H     13.64942107     21.04734081     21.12905557
 H     15.54361133     21.58042470     19.15857748
 H     16.22110764     20.36912821     19.43896908
 H     16.62232731     19.27822564     19.35070920
 H     17.14212589     19.72545107     21.01929970
 H     17.12904407     19.69826751     22.11797251
 H     18.75003099     19.59085021     21.02657835
 H     19.30176546     18.69812114     20.52418222
 H     18.23688192     17.99238251     20.68233772
 H     17.27636664     17.39540593     20.38275313
 H     17.11540529     17.41451277     22.15531993
 H     19.10789055     16.22822047     22.57071864
 H     19.44414432     16.09894469     20.82759276
 H     17.59796088     14.83801871     20.24943070
 H     17.02436418     14.79913411     21.93399043
 H     19.19853427     13.52270489     22.40057128
 H     19.60021645     13.66938996     20.67273981
 H     17.64532175     12.32814140     20.06790931
 H     17.21788970     12.16284436     21.78786437
 H     19.39001865     10.92673858     22.08471732
 H     19.72506651     11.14792239     20.35062179
 H     18.00672372      9.97510548     19.46374127
 H     17.37748668      9.54094844     21.07117247
 H     20.07820433      8.70567365     19.98395957
 H     19.40009233      9.69196504     18.66651505
 H     18.24041180      8.09226541     17.77036562
 H     18.10531553      8.14161291     17.82335306
 H     17.81247502      8.84364850     17.02861186
 H     16.56272938      8.72491366     18.35501239
 H     15.69101251      8.10249124     19.15153606
 H     15.99318396      6.61929846     18.21500081
 H     15.13865078      7.67121680     16.18436526
 H     14.82029943      9.17298645     17.08525761
 H     13.59247701      8.62008351     18.80186446
 H     13.17817216      7.33967097     18.25816790
 H     13.76731180     10.25295730     18.55539978
 H     14.10757115      8.94492234     19.71364621
 H     11.80059303      8.41016161     20.02665281
 H     11.31825429      9.69042797     18.88799831
 H     12.29228008     11.37579548     20.42149616
 H     12.91373581     10.22859674     21.41480513
 H     13.82921655      9.74302937     21.77561670
 H     12.34470587      8.97520484     22.38794029
 H     12.08018261     11.41951293     23.41008812
 H     13.62504969     11.80939806     22.61658831
 H     14.54789452      9.99662164     24.23427005
 H     12.89057960      9.79735787     24.85222465
 H     13.29615761     12.29750829     25.57507878
 H     14.81605475     12.24070455     24.79933515
 H     15.63102635     12.40530389     24.05269029
 H     16.21680581     11.17450397     25.19735646
 H     15.78604689     13.42123048     26.71721420
 H     15.26781300     14.17012893     25.18788382
 H     17.55582111     13.86607841     24.29415687
 H     17.96285274     12.96676671     25.10266679
 H     18.27858611     11.90245223     25.49185067
 H     18.29410826     12.81421040     27.02048495
 H     20.39898079     13.38764587     25.21946136
 H     20.47772316     13.17699729     25.32859950
 H     19.90479579     14.63420681     24.31629329
 H     20.64431506     13.01830891     24.21504168
 H     22.54918766     13.91228813     25.57796538
 H     21.74060931     15.49704998     25.63271568
 H     21.71982183     16.04958874     23.46348740
 H     21.91976672     14.89108421     22.90893802
 H     21.70981474     13.88265021     22.33251642
 H     23.37472467     13.57836054     22.88365107
 H     24.24405469     15.45115924     21.63498406
 H     22.74340039     15.96068823     21.16642000
 H     22.08746921     16.81599963     21.38482281
 H     21.44392311     15.52059222     20.34750188
 H     23.39480089     16.17003848     18.78927695
 H     23.86182110     17.40735743     19.98057900
 H     21.69143634     18.54666684     19.58084715
 H     21.06182331     17.64478237     19.15606567
 H     19.95282957     17.75135525     18.57536017
 H     21.14669376     16.45183042     17.50416204
 H     20.13663593     18.89824251     17.10981087
 H     18.77529049     17.83632547     18.23111511
 H     18.22738925     18.10435190     16.30381696
 H     18.77165788     17.11143661     16.25490672
 H     18.01677183     16.34528764     15.49267152
 H     17.74534894     17.53157579     15.19013776
 H     16.63839278     16.44873130     15.84667811
 H     16.57808368     17.37796247     15.15049467
 H     16.01423261     18.18092429     15.68389758
 H     15.32364732     16.30094515     15.61676310
 H     14.28770931     15.92154090     15.43273223
 H     13.99505296     17.41585631     15.24958059
 H     12.69851024     17.12148036     15.21712792
 H     12.76988558     16.09691820     15.23876494
 H     11.49472827     15.96325364     15.61724555
 H     11.43512469     17.05092710     15.39821695
 H     10.10190068     16.26539171     15.20646826
 H     10.51433690     15.23749632     15.44338925
 H      9.28711394     14.83140825     15.73250680
 H      8.89776765     15.94859977     15.37076073
 H      7.71512121     15.29947744     15.37152583
 H      8.26268340     14.12242348     15.59616634
 H      6.85419839     13.88238492     15.92157022
 H      6.68043754     14.94713102     15.03577111
 H      5.39714891     14.37624912     15.09319614
 H      5.72639898     13.33041122     15.80542948
 H      4.92081292     12.69506547     15.18045992
 H      5.24572514     13.93739541     13.94785493
 H      4.08773450     14.26607371     15.25907381
1502
Final Conformation Chain 2 (Simulation Frame 3)
 C      0.00000000      0.00000000      0.00000000
 C      1.54000000      0.00000000      0.00000000
 C      2.16637443      1.35130093      0.39145993
 C      2.24249337      2.36498332     -0.76536932
 C      2.79896691      3.74146946     -0.35644007
 C      3.03910591      4.69683432     -1.54016775
 C      3.82590378      5.96777833     -1.16969447
 C      4.10073224      6.90393474     -2.36119793
 C      4.90398649      8.16557094     -1.99424194
 C      4.18319159      9.10177732     -1.00653130
 C      4.88330575     10.45855032     -0.80501904
 C      4.68917933     11.44317442     -1.97310735
 C      5.46667922     12.76311905     -1.81549992
 C      6.99480404     12.60688808     -1.92516496
 C      7.77346337     13.92347946     -1.74662425
 C      9.30135407     13.74325073     -1.67830440
 C     10.03389972     14.88032130     -0.94206573
 C     10.74173112     14.43527681      0.35118990
 C      9.78087516     13.99976869      1.47310278
 C      8.77810760     15.08900919      1.89690978
 C      7.85468990     14.67309517      3.05704566
 C      6.66603751     13.79343711      2.62703727
 C      5.61798589     13.57217996      3.73348794
 C      4.75382716     12.31304640      3.53496247
 C      3.40101633     12.35961076      4.26935650
 C      2.36904355     11.34321597      3.74631364
 C      0.93542375     11.58955695      4.25193245
 C     -0.02149121     10.40471142      4.02377713
 C      0.08436034      9.29957829      5.09105226
 C     -1.10177018      8.31739972      5.09548626
 C     -0.81282656      6.98960809      5.82011097
 C     -2.07523216      6.25391711      6.30661983
 C     -1.89489841      4.73177895      6.45553316
 C     -2.69809617      4.11647688      7.61651409
 C     -2.64182999      2.57847658      7.67118744
 C     -3.19160870      1.97763750      8.97822063
 C     -3.13972606      0.43941515      9.03094806
 C     -3.45133604     -0.15061762     10.41888198
 C     -3.97108342     -1.59976838     10.38113646
 C     -4.55428914     -2.09108930     11.71907325
 C     -5.84333362     -1.36413673     12.14510647
 C     -6.52615138     -1.97377363     13.38353400
 C     -7.31704617     -0.95665161     14.22706718
 C     -8.46998734     -1.57715408     15.03780966
 C     -9.46920012     -0.54651439     15.59544363
 C     -8.85278879      0.44217553     16.60248351
 C     -9.88006728      1.36770360     17.28049287
 C     -9.45736679      1.85460333     18.67901099
 C    -10.60824186      2.45515271     19.50751991
 C    -10.14253735      3.26317184     20.73300936
 C    -11.28249618      3.97821763     21.48187742
 C    -11.02383763      4.16128168     22.98892199
 C    -12.26969017      4.57883904     23.79210148
 C    -11.98916821      4.86625468     25.27880915
 C    -13.24554052      5.21919420     26.09646573
 C    -13.02171442      5.21920859     27.62011329
 C    -14.24532154      5.68145637     28.43295559
 C    -14.02905415      5.65981345     29.95754078
 C    -15.27975577      6.03709136     30.77302029
 C    -15.08715039      5.93692888     32.29764177
 C    -16.36235605      6.22785891     33.11054412
 C    -16.20012439      6.01648898     34.62731821
 C    -17.44874562      6.38801045     35.44860794
 C    -17.23538119      6.33223367     36.97273542
 C    -18.50576582      6.62067082     37.79403129
 C    -18.40872537      6.19076620     39.26962106
 C    -19.63989323      6.56815463     40.11425333
 C    -19.39872851      6.50934577     41.63411553
 C    -20.64696014      6.82491063     42.47906323
 C    -20.35841117      6.99980126     43.98164526
 C    -21.61992974      7.00837296     44.86487650
 C    -21.35693547      6.63758899     46.33625451
 C    -22.58922016      6.78205776     47.24850624
 C    -22.31783873      6.44348505     48.72611263
 C    -23.58895264      6.34584438     49.59001988
 C    -23.46870868      5.36709691     50.77289551
 C    -24.74403148      5.26005934     51.62945532
 C    -24.69827481      4.13828338     52.68355448
 C    -25.96545980      4.04426232     53.55361325
 C    -25.86467638      3.01899627     54.69828448
 C    -26.94330617      3.18518746     55.78481026
 C    -26.85642412      2.14581389     56.91783899
 C    -27.81896433      2.41456260     58.08954308
 C    -27.54088159      1.55684154     59.33797592
 C    -28.74029743      1.43871644     60.29664589
 C    -28.65580953      0.24099608     61.26097350
 C    -29.83376009      0.14766470     62.24855728
 C    -29.91034207     -1.19013070     63.00752939
 C    -30.74523440     -1.13002741     64.30017877
 C    -30.98344704     -2.50270923     64.95637945
 C    -32.10180454     -2.50524624     66.01509097
 C    -32.39636423     -3.89407839     66.61173142
 C    -33.17147369     -3.85283724     67.94180830
 C    -33.73537422     -5.21701058     68.38072433
 C    -34.39849569     -5.20283119     69.77056924
 C    -35.14296506     -6.50412886     70.12269098
 C    -35.59269258     -6.59024759     71.59304085
 C    -36.29842412     -7.91004154     71.95592777
 C    -36.73806182     -8.00079390     73.42904783
 C    -37.72178408     -9.14949815     73.71951133
 C    -38.30724962     -9.12773617     75.14371515
 C    -39.42234542    -10.16362284     75.37844940
 C    -39.97769639    -10.17152408     76.81480690
 C    -41.12834097    -11.17086971     77.03599763
 C    -41.57970412    -11.29162959     78.50340636
 C    -42.82023591    -12.18137658     78.70596789
 C    -43.51514504    -11.98691710     80.06644090
 C    -44.55479245    -13.07304965     80.39968155
 C    -45.24126250    -12.88507687     81.76534078
 C    -45.60916148    -14.20490281     82.46841247
 C    -46.35611195    -14.01716319     83.80198617
 C    -46.68274525    -15.33545015     84.52795462
 C    -47.40642832    -15.14653474     85.87413209
 C    -46.61642760    -14.31041401     86.89804663
 C    -47.45221648    -13.84487776     88.10483282
 C    -46.62181558    -13.20230505     89.23139160
 C    -47.45257648    -12.77221664     90.45469053
 C    -46.68086528    -11.89679269     91.45952621
 C    -47.38910914    -11.72822597     92.81657296
 C    -46.51408642    -11.07590294     93.90303968
 C    -47.31566508    -10.37606094     95.01627498
 C    -46.49204661    -10.06378127     96.27949864
 C    -47.34577472     -9.74691503     97.52141012
 C    -46.52910955     -9.57500686     98.81566882
 C    -47.38047618     -9.58062496    100.09892378
 C    -46.57235282     -9.34123694    101.38781090
 C    -47.37684999     -9.56379479    102.68197175
 C    -48.42081582     -8.46807155    102.96679792
 C    -49.70576103     -8.98665663    103.63879890
 C    -50.78628932     -7.90805760    103.84049852
 C    -52.11525311     -8.44956569    104.39926881
 C    -53.14615201     -7.35556117    104.73393515
 C    -54.60707000     -7.84190852    104.70591936
 C    -55.63273188     -6.72814984    104.42456671
 C    -57.05449908     -7.24442357    104.13536184
 C    -58.10057157     -6.12923811    103.95180327
 C    -59.46409617     -6.62781925    103.43817160
 C    -60.51651376     -5.51554352    103.27428168
 C    -61.76139903     -5.94391418    102.47530782
 C    -62.98886605     -5.04050086    102.69614511
 C    -64.22183294     -5.44529496    101.86696818
 C    -65.44504456     -4.53368071    102.07747420
 C    -66.79713415     -5.24555000    101.88591254
 C    -68.01919183     -4.36781632    102.21417863
 C    -69.35655232     -4.94298665    101.71193765
 C    -70.55858946     -4.00183267    101.91426386
 C    -71.89652823     -4.57842547    101.41520417
 C    -73.10870221     -3.66542104    101.67722926
 C    -74.45617273     -4.27445473    101.24711162
 C    -75.64571642     -3.30231718    101.35450994
 C    -77.01508809     -3.95686023    101.09375215
 C    -78.17630983     -3.31147931    101.87262799
 C    -79.57268532     -3.72384319    101.37093933
 C    -80.73390592     -3.07780296    102.14927007
 C    -82.12961484     -3.53325891    101.68434374
 C    -83.25051949     -3.25656301    102.70346696
 C    -84.64215918     -3.73461847    102.24915213
 C    -85.76979371     -3.42093996    103.24997486
 C    -87.14106210     -3.99573373    102.84893231
 C    -88.33716040     -3.26764321    103.48989490
 C    -89.70407370     -3.68065697    102.91320810
 C    -90.90593484     -3.03154879    103.62439612
 C    -92.27049964     -3.40658584    103.01701641
 C    -93.47694095     -2.96032248    103.86374446
 C    -94.83580602     -3.14082590    103.16195801
 C    -96.03000366     -2.57827002    103.95506764
 C    -97.34635672     -2.53292393    103.15709624
 C    -98.56914861     -2.10500992    103.98972437
 C    -99.84055917     -1.86107171    103.15569240
 C   -100.92544043     -1.05128666    103.88977743
 C   -102.32212237     -1.14998104    103.24857624
 C   -103.39698581     -0.30320676    103.95514677
 C   -104.75629343     -0.28571548    103.23156067
 C   -105.73142038      0.78456967    103.75617209
 C   -107.19975726      0.54216118    103.36016082
 C   -108.18647004      1.56183580    103.95871036
 C   -109.59582530      1.50699310    103.34039811
 C   -110.56829460      2.55998397    103.90352659
 C   -111.91601268      2.62822468    103.16150288
 C   -112.75687423      3.87233638    103.50317222
 C   -114.15781217      3.87645030    102.86367557
 C   -115.04689339      5.05180112    103.31053686
 C   -116.49316351      4.97765064    102.78670058
 C   -117.34810283      6.21139027    103.13103370
 C   -118.49560118      6.47511490    102.13841249
 C   -119.48547527      7.56101904    102.59945637
 C   -120.55283052      7.92206017    101.54969349
 C   -121.90085643      8.35985616    102.15198977
 C   -123.08332956      8.27442588    101.16910678
 C   -124.38415822      8.90690842    101.69769986
 C   -125.54750611      8.88245068    100.68892660
 C   -126.87503208      9.42458725    101.25049827
 C   -128.03372901      9.41732703    100.23611731
 C   -129.26666142     10.22199954    100.68775855
 C   -130.06572867     10.84680290     99.52900393
 C   -131.04482011     11.95167044     99.96746451
 C   -132.03858821     12.37906013     98.87139744
 C   -132.72751906     13.72942132     99.14250432
 C   -133.11190883     14.50354627     97.86791613
 C   -133.75280973     15.87739688     98.13880454
 C   -134.10177860     16.66805395     96.86417434
 C   -134.66110131     18.07717575     97.13460706
 C   -135.35384607     18.72010172     95.91873252
 C   -135.88038800     20.14383699     96.17821564
 C   -136.39832718     20.85969155     94.91691026
 C   -136.45834962     22.39301126     95.04701774
 C   -136.98498405     23.10824925     93.78896734
 C   -136.73844400     24.62837597     93.78324363
 C   -137.29340811     25.34826475     92.54011250
 C   -137.06456480     26.87116213     92.54389351
 C   -137.28233194     27.54069495     91.17425733
 C   -136.04901304     27.49800171     90.25300722
 C   -136.36210207     27.78811833     88.77334253
 C   -135.23806596     27.37906588     87.80338432
 C   -135.59918084     27.55411527     86.31659121
 C   -134.40881840     27.37010674     85.35701937
 C   -134.69867002     27.80578444     83.90865099
 C   -133.60108277     27.40941499     82.90376617
 C   -132.17306532     27.74901208     83.36964167
 C   -131.08172603     27.42169947     82.33356976
 C   -129.66698159     27.86161926     82.75377059
 C   -128.54743598     27.32341463     81.84352149
 C   -127.15813045     27.91729939     82.14139902
 C   -125.99251171     27.12790311     81.51707021
 C   -124.63523939     27.36641336     82.20447454
 C   -123.54880559     26.34621908     81.81657605
 C   -122.16019310     26.65521048     82.40638930
 C   -121.11984752     25.54359462     82.17489143
 C   -119.72110373     25.86910524     82.73091179
 C   -118.63880944     24.84455826     82.34291365
 C   -117.22321412     25.21731417     82.82118440
 C   -116.12204965     24.26323821     82.32241003
 C   -114.79066588     24.38965102     83.08597866
 C   -113.54773851     24.06896260     82.23516111
 C   -112.23157773     24.04204677     83.03428335
 C   -111.02717948     23.50398854     82.23960216
 C   -109.82469525     23.10791153     83.11638873
 C   -108.86049739     22.11262097     82.44458578
 C   -107.60846009     21.79132306     83.28170599
 C   -106.49865976     21.06788957     82.49647533
 C   -105.44227192     20.38814482     83.38731303
 C   -104.41860334     19.54045902     82.60941108
 C   -103.16401845     19.17128535     83.42263155
 C   -102.19874675     18.22198077     82.68868921
 C   -100.94647302     17.84903517     83.50374879
 C    -99.84370054     17.16081322     82.67801070
 C    -98.51310358     16.98522590     83.43318010
 C    -97.33290016     16.57107848     82.53473600
 C    -96.12944262     15.99808889     83.30608086
 C    -95.12092258     15.24188894     82.42140637
 C    -93.83096130     14.82915607     83.15438077
 C    -92.69280941     14.38460280     82.21705337
 C    -91.62208677     13.51422759     82.90086622
 C    -90.28364064     13.45582977     82.14142455
 C    -89.05477603     13.27182728     83.05116894
 C    -87.70713651     13.39766550     82.31657213
 C    -86.47984025     13.14354667     83.21142826
 C    -85.13125732     13.30384131     82.48532240
 C    -83.90347507     13.11798215     83.39615010
 C    -82.58000180     12.92708271     82.63222870
 C    -81.32242237     13.16056659     83.48988786
 C    -79.99904338     12.92773139     82.73752104
 C    -78.74162757     13.23115312     83.57324871
 C    -77.47487380     13.47634435     82.73252514
 C    -76.18834405     13.62246813     83.56624515
 C    -74.90356472     13.72274672     82.72310442
 C    -73.60749830     13.72988352     83.55482607
 C    -72.32549770     13.56156111     82.71832023
 C    -71.04166920     14.00645875     83.44319985
 C    -69.74392073     13.50257188     82.78475705
 C    -68.53637458     14.43720014     82.98451265
 C    -67.31784742     14.08127724     82.11266951
 C    -66.07134129     14.93938075     82.39811794
 C    -64.88204359     14.64641309     81.46466149
 C    -63.56484500     15.31533582     81.89955259
 C    -62.83923544     14.58426505     83.04437847
 C    -61.30836046     14.75024833     83.02266742
 C    -60.58083025     13.73402458     82.12289574
 C    -59.15085732     13.39866140     82.58583087
 C    -58.42929069     12.36998357     81.69545817
 C    -57.06122361     11.91987306     82.24079569
 C    -56.37094765     10.84015288     81.38679134
 C    -55.41928757      9.92664583     82.18142834
 C    -54.63842860      8.92577309     81.30958372
 C    -53.44694186      8.26569044     82.02808929
 C    -52.63078909      7.30941551     81.13868899
 C    -51.54228493      6.52582492     81.89548782
 C    -50.30100642      6.19775792     81.04507633
 C    -49.17994839      5.48347438     81.82265457
 C    -48.19044320      4.71301933     80.92885453
 C    -47.27862960      3.73934863     81.69837472
 C    -46.32451627      2.93146718     80.79915543
 C    -45.61350538      1.77243789     81.52214549
 C    -44.84714023      0.82373090     80.58180540
 C    -44.15401072     -0.34748474     81.30251714
 C    -43.49908356     -1.36780159     80.35297834
 C    -42.72989806     -2.49039685     81.07390381
 C    -41.98535576     -3.44851378     80.12560602
 C    -40.98476329     -4.37979511     80.83492244
 C    -40.40234099     -5.48017806     79.92853310
 C    -39.29172772     -6.31553738     80.59209393
 C    -38.86194763     -7.54802954     79.77487172
 C    -37.74279932     -8.37656236     80.43262579
 C    -37.48873136     -9.73579200     79.75472885
 C    -36.34946091    -10.55131395     80.39393679
 C    -36.23761060    -11.99303135     79.86427610
 C    -35.05718402    -12.78712777     80.45385558
 C    -34.74749830    -14.09703484     79.70563222
 C    -33.35495817    -14.67905140     80.01171833
 C    -32.97827791    -15.89268269     79.14176944
 C    -31.49589955    -16.29816037     79.24047230
 C    -31.12259662    -17.52124925     78.38239391
 C    -29.64800143    -17.94739464     78.50717013
 C    -29.31716594    -19.27380483     77.79809756
 C    -27.83558344    -19.68282460     77.89409823
 C    -27.43476451    -20.81542969     76.93069286
 C    -25.91426677    -21.03060658     76.81499711
 C    -25.51894343    -22.35761648     76.14093169
 C    -24.00092813    -22.53739408     75.95409065
 C    -23.61310713    -23.79162431     75.14904319
 C    -22.09412669    -23.98828833     74.98897542
 C    -21.70793733    -25.13493445     74.03626327
 C    -20.21032105    -25.49284925     74.06161035
 C    -19.82346485    -26.63690609     73.10606013
 C    -18.32157982    -26.97735201     73.11222035
 C    -17.88284302    -27.89615234     71.95683470
 C    -16.36660778    -28.16129427     71.90855997
 C    -15.93363495    -29.11838803     70.78245782
 C    -14.43266491    -29.46265135     70.79556045
 C    -14.00136642    -30.42683877     69.67488019
 C    -12.53818380    -30.89541482     69.78039375
 C    -11.88164087    -31.20950229     68.42322742
 C    -10.36660893    -30.93638532     68.38217444
 C     -9.69998738    -31.30361841     67.04338559
 C     -8.20648784    -30.93615551     66.96573169
 C     -7.56474209    -31.20950742     65.59276368
 C     -6.02524930    -31.24139163     65.61611597
 C     -5.37453486    -31.09257266     64.22830343
 C     -3.87671836    -30.73747702     64.27361155
 C     -3.25318322    -30.47458189     62.89024967
 C     -1.76244670    -30.09111408     62.93775843
 C     -1.16642424    -29.72274832     61.56638543
 C      0.08357898    -28.82686436     61.64690790
 C      0.77475435    -28.59263549     60.29080560
 C      1.97245427    -27.62683698     60.35674602
 C      2.73149862    -27.47843931     59.02504418
 C      3.81069799    -26.37991539     59.03823178
 C      4.31847989    -25.98386869     57.63933773
 C      5.27280447    -24.77520676     57.63837890
 C      6.19880011    -24.70923457     56.40964795
 C      6.65088007    -23.28377601     56.04182786
 C      7.00519511    -23.10334241     54.55404274
 C      7.27156911    -21.64238645     54.14630190
 C      7.70088741    -21.47035981     52.67739324
 C      7.86654113    -20.00280786     52.24098733
 C      8.16403717    -19.82530452     50.74045787
 C      8.25700651    -18.35562844     50.28989277
 C      8.53229708    -18.17801388     48.78514423
 C      8.44472476    -16.71895476     48.30029623
 C      8.95772593    -16.50425514     46.86421341
 C      8.74660091    -15.07511184     46.33075708
 C      9.27992762    -14.85429005     44.90303149
 C      8.61714326    -13.67839561     44.16168868
 C      9.33953009    -13.26847777     42.86487541
 C      8.69907474    -12.06787861     42.14377999
 C      9.46045382    -11.61482137     40.88416059
 C      8.97812324    -10.26940892     40.31073009
 C      9.54312481     -9.94458143     38.91543072
 C      8.88271685     -8.72844956     38.23979428
 C      9.40215426     -8.44283246     36.81845419
 C      8.84805551     -7.14698366     36.19768815
 C      9.76936578     -6.51693265     35.13664003
 C     10.89774369     -5.64833444     35.72307027
 C     11.57787165     -4.72648280     34.69388831
 C     12.62217433     -3.77180770     35.30185820
 C     12.92836541     -2.54051112     34.42907199
 C     14.23731312     -1.81924561     34.80059854
 C     14.07096954     -0.30883264     35.05076338
 C     15.40184555      0.45809338     35.16118774
 C     15.23810812      1.95089237     35.50227603
 C     16.51373356      2.78627146     35.28658756
 C     16.32375693      4.29458223     35.53257030
 C     17.64172051      5.08728817     35.61124247
 C     17.45132432      6.59754697     35.84462548
 C     18.76964647      7.37920502     35.99508283
 C     19.87413020      6.93885983     35.01640424
 C     20.03224083      7.86192455     33.79388530
 C     21.18108385      7.46035500     32.85022138
 C     21.47300160      8.49174901     31.74450423
 C     22.36867648      7.95831963     30.61100539
 C     22.48136363      8.90655009     29.40279986
 C     22.82531272      8.19727781     28.07983658
 C     22.92441905      9.14373340     26.86905181
 C     23.23945009      8.43080372     25.54086254
 C     23.33667339      9.37703629     24.32975085
 C     23.41069992      8.65227812     22.97297317
 C     23.41990947      9.59779382     21.75744233
 C     23.82898764      8.91750762     20.43779627
 C     23.82000603      9.85865492     19.21887827
 C     24.72758246     11.09310051     19.37395599
 C     24.88890999     11.91801292     18.08357118
 C     26.02008089     12.96125578     18.14437193
 C     26.04718214     13.92642326     16.94465644
 C     26.84324334     15.21990410     17.19920285
 C     27.02513058     16.09984144     15.94851212
 C     27.83029471     17.38813335     16.20073164
 C     28.38633499     18.03990798     14.92104064
 C     28.96424023     19.45092807     15.13702174
 C     29.35078872     20.17563947     13.83434233
 C     28.17746947     20.37616249     12.85724844
 C     28.37553124     21.54271214     11.87158447
 C     27.20315742     21.74188294     10.89308019
 C     27.21658907     23.10026625     10.16767382
 C     26.28888078     23.16401892      8.94011815
 C     26.08627323     24.58464383      8.38121292
 C     25.30984787     24.62999283      7.05203757
 C     23.82118155     24.25815306      7.18321596
 C     23.03861711     24.32976062      5.85880467
 C     21.54716540     23.97010228      5.99228752
 C     20.82017191     23.80278823      4.64503607
 C     19.28705463     23.91029305      4.74298556
 C     18.56105167     23.75935136      3.39326843
 C     17.06474911     24.12017938      3.44308589
 C     16.34025991     23.97572524      2.09184631
 C     14.82949923     24.26723825      2.15682584
 C     14.05494851     23.84339489      0.89506993
 C     12.53113183     24.03978409      1.00001766
 C     11.74132159     23.45755510     -0.18691502
 C     10.21968169     23.39741342      0.04242097
 C      9.49583260     22.35335485     -0.82797216
 C      8.87134177     21.19525667     -0.02770983
 C      7.81969682     20.38797385     -0.81125138
 C      7.33473831     19.11967673     -0.08472701
 C      6.09708937     18.46501006     -0.72600437
 C      5.54909346     17.25868934      0.05891016
 C      4.36660642     16.54978072     -0.62721882
 C      3.79525580     15.36579716      0.17486686
 C      2.57679794     14.69277141     -0.48391745
 C      1.87292312     13.65676542      0.41210254
 C      0.68884119     12.94326537     -0.26647513
 C     -0.21489280     12.16473311      0.70756409
 C     -1.61230872     11.84435008      0.14526214
 C     -2.61382029     11.34502835      1.20320938
 C     -4.05483056     11.19641887      0.68071094
 C     -5.07999347     10.82385473      1.76783420
 C     -6.49834099     10.56223480      1.22797744
 C     -7.54256373     10.27633696      2.32317664
 C     -8.95525784      9.98846698      1.78185767
 C     -9.80903107      9.09657988      2.70229707
 C     -9.21830394      7.69429602      2.93944984
 C     -9.49277703      6.69772566      1.79791051
 C     -8.61038166      5.43636040      1.84191148
 C     -7.10117260      5.73040252      1.92809295
 C     -6.22375163      4.47095297      2.05266928
 C     -4.71811173      4.76690407      2.18328871
 C     -3.86175658      3.52789110      2.50438481
 C     -2.34559462      3.79779609      2.50643808
 C     -1.49168910      2.57213784      2.88088061
 C      0.02253300      2.85060116      2.91537156
 C      0.78460034      2.03893179      3.97934815
 C      2.28062701      2.38960940      4.08196116
 C      2.55640235      3.80793165      4.61479316
 C      3.21188534      4.74729255      3.58545204
 C      3.35283153      6.20331722      4.06683166
 C      3.04117933      7.25375786      2.98468225
 C      1.71343837      7.01345833      2.24241541
 C      1.42391926      8.03746985      1.12923120
 C     -0.00102215      7.94898611      0.55189888
 C     -0.04725836      7.67433691     -0.96270669
 C     -1.38784103      7.09722338     -1.45400912
 C     -1.45814436      6.88637225     -2.97788551
 C     -2.79415558      6.29758171     -3.46778314
 C     -3.27138169      5.07357366     -2.66425372
 C     -4.71802253      4.64605700     -2.97418882
 C     -5.18105209      3.39670678     -2.20196628
 C     -4.17916383      2.22789090     -2.24306826
 C     -4.78860097      0.86669981     -1.85921259
 C     -5.32669728      0.80550227     -0.41757907
 C     -5.70505058     -0.61213438      0.05013357
 C     -6.34046355     -0.66044543      1.45210233
 C     -5.34010368     -0.43616852      2.60126725
 C     -5.97539942     -0.48515467      4.00326571
 C     -6.92192035      0.69193710      4.30352075
 C     -7.22145772      0.88851771      5.80126352
 C     -7.94511053      2.20820641      6.12737450
 C     -7.24035934      3.46174893      5.57641451
 C     -7.86978231      4.78872186      6.03963107
 C     -7.18463356      6.04178007      5.46342251
 C     -5.75606830      6.27270336      5.99018214
 C     -5.02848287      7.45786075      5.32865254
 C     -5.29186341      8.81367985      6.00981717
 C     -4.79003253     10.02696333      5.20501348
 C     -4.97246465     11.37558525      5.92580292
 C     -4.25057860     12.55280769      5.24416675
 C     -2.78344733     12.26073381      4.87835438
 C     -2.04954291     13.45150104      4.23410466
 C     -1.88858993     14.66671927      5.16627353
 C     -1.16708062     15.86259600      4.51750304
 C     -1.11833170     17.12080877      5.40413947
 C     -0.20495103     18.23516673      4.86050163
 H     -0.36333333      0.00000000      1.02766186
 H     -0.36333333     -0.88998127     -0.51383093
 H     -0.36333333      0.88998127     -0.51383093
 H      1.88274777      1.02806933     -0.11703597
 H      1.88274777      0.93151625     -0.45044582
 H      2.35970288      1.91643233     -0.52032437
 H      1.68997205      2.13382754     -0.19912696
 H      2.37018687      3.36071053     -0.34072629
 H      3.12021496      2.99317160     -0.61343413
 H      3.38125474      4.13679764     -1.18876002
 H      3.08133656      4.27959837     -1.26130727
 H      2.70148643      5.69214790     -1.25126646
 H      4.02946697      5.13830420     -1.42886043
 H      4.53173895      6.18019110     -1.97267487
 H      4.43568431      6.25526088     -2.02621153
 H      4.04577740      7.93361065     -2.00786031
 H      5.17143723      7.10445935     -2.39967785
 H      4.28436249      9.03834954     -2.20021186
 H      4.96258188      8.23062531     -0.90776391
 H      4.91174517      9.45827736     -0.27837101
 H      4.59180949     10.10530338     -1.12513510
 H      5.37866466     10.73041116     -1.73711948
 H      4.32724644     11.21647065     -1.35679329
 H      4.40660018     12.41203525     -1.56133349
 H      5.57708784     12.07154678     -2.04286877
 H      6.16551053     12.85070191     -2.64740378
 H      6.32934498     12.73434453     -2.48114233
 H      7.39486311     13.49048518     -2.42246659
 H      7.32574835     11.91914017     -1.14697560
 H      8.52498151     13.98664420     -2.53359992
 H      8.74403565     13.81604586     -2.23092527
 H      9.63259668     13.27192112     -2.60362960
 H      9.53226162     13.09151248     -0.83567817
 H     10.10516977     14.61554443      0.11288156
 H      9.82194323     15.81603249     -1.45938479
 H     10.07679031     14.63408062      1.19168427
 H     10.22747530     13.55551375      0.73804635
 H      9.18112298     13.16668706      1.10653447
 H      8.95992710     14.71538321      1.51827087
 H      8.18457953     15.36616252      1.02569772
 H      9.34018931     15.95587854      2.24433126
 H      8.47595425     14.42555496      3.91777468
 H      7.42020716     13.70238847      2.81818741
 H      7.05921132     12.88988665      2.16108564
 H      6.07385747     14.34903926      1.89989971
 H      5.23183841     14.54455825      4.03921753
 H      6.10962648     13.09380151      4.58056739
 H      5.41314439     11.44545000      3.50893783
 H      4.23248523     12.40192154      2.58186027
 H      2.84164690     13.22046161      3.90310294
 H      3.59374886     12.47842832      5.33558188
 H      2.78602199     10.34246691      3.85914221
 H      2.19279071     11.54642415      2.69002705
 H      0.62656984     12.58563375      3.93485159
 H      0.94292089     11.54091393      5.34082071
 H      0.45620851      9.50069268      4.40147155
 H     -0.06565746     10.20091062      2.95391052
 H     -0.13997071      9.73908802      6.06296109
 H      1.10608775      8.91987696      5.09110811
 H     -1.15786969      7.84331578      4.11558971
 H     -2.01504803      8.88373679      5.27793048
 H     -0.54938879      7.21354237      6.85381982
 H      0.03048746      6.50635946      5.32676300
 H     -2.70359263      6.04253025      5.44141539
 H     -2.61085287      6.90955855      6.99316535
 H     -1.09445920      4.55000381      7.17271854
 H     -1.61284668      4.32348084      5.48504901
 H     -3.75535027      4.32154291      7.44840193
 H     -2.37878821      4.59181223      8.54398308
 H     -1.59973571      2.27719775      7.77782033
 H     -3.03906635      2.18745262      6.73448922
 H     -4.23123020      2.28665789      9.08681873
 H     -2.60670420      2.37177151      9.80927123
 H     -2.10114956      0.12751846      8.92058818
 H     -3.72687455      0.04799084      8.20019921
 H     -4.37492030     -0.72508468     10.34760993
 H     -2.72348537      0.24142630     11.12925863
 H     -3.21380568     -2.22322552      9.90581383
 H     -4.88452719     -1.62090960      9.78676828
 H     -4.87979004     -1.22204362     12.29083262
 H     -3.77402780     -2.02645284     12.47743620
 H     -6.59364539     -1.51349127     11.36868810
 H     -5.62261443     -0.30070856     12.23732131
 H     -5.82221841     -1.93892968     14.21501717
 H     -6.77523095     -3.01146397     13.16159230
 H     -8.08626614     -0.51211513     13.59557058
 H     -6.62891667     -0.18062683     14.56227358
 H     -8.05206228     -2.32761554     15.70881357
 H     -9.15955668     -2.05540633     14.34220281
 H     -9.89690496      0.00423736     14.75768406
 H     -8.90793832      0.31816967     15.94957167
 H     -8.04681292      0.98098237     16.10429670
 H     -8.44655786     -0.12810633     17.43786069
 H    -10.60420178      0.74737383     17.80862184
 H    -10.38919735      1.94064288     16.50549148
 H     -8.51731275      2.39793308     18.58314034
 H     -9.30949800      0.98216964     19.31548117
 H    -11.37786727      1.69277036     19.62814276
 H    -11.01927409      3.30280667     18.95921774
 H     -9.50875212      4.07885788     20.38505451
 H     -9.56339890      2.60315087     21.37881969
 H    -11.99625865      3.22621583     21.81823502
 H    -11.77346691      4.66046131     20.78790962
 H    -10.11279983      4.74698377     23.11165416
 H    -10.88548934      3.17643236     23.43505152
 H    -13.03220566      3.81020816     23.66609875
 H    -12.63601309      5.52341085     23.38999251
 H    -11.25636762      5.67083875     25.34002822
 H    -11.57672621      3.96402494     25.73044296
 H    -13.94111564      4.38227590     26.03447368
 H    -13.70310101      6.10527524     25.65646710
 H    -12.24552181      5.94832952     27.85250884
 H    -12.68731048      4.22528704     27.91742452
 H    -15.07763656      5.01429242     28.20880392
 H    -14.49901927      6.69543519     28.12378830
 H    -13.19216540      6.31680007     30.19436515
 H    -13.78560149      4.63976242     30.25473887
 H    -16.07361851      5.33102545     30.52939581
 H    -15.58656353      7.04246857     30.48460102
 H    -14.27585617      6.60563036     32.58528741
 H    -14.81552778      4.91000268     32.54206710
 H    -17.12865867      5.51162132     32.81409172
 H    -16.69735572      7.23753418     32.87299188
 H    -15.40901951      6.67675375     34.98271024
 H    -15.91271648      4.97934729     34.80004289
 H    -18.28081891      5.77398443     35.10404142
 H    -17.67523877      7.43938135     35.27135082
 H    -16.43549552      7.02565291     37.23245195
 H    -16.93833539      5.31821149     37.24035979
 H    -19.26179868      5.88245621     37.52653642
 H    -18.86299357      7.61715001     37.53418986
 H    -17.57586233      6.72405252     39.72792758
 H    -18.21560597      5.11850627     39.30223288
 H    -20.51608233      6.09107921     39.67517283
 H    -19.76026212      7.65094403     40.07992486
 H    -18.59036238      7.19803359     41.87978459
 H    -19.10239984      5.49337804     41.89507316
 H    -21.42313714      6.10234497     42.22697569
 H    -20.98828092      7.82836983     42.22476074
 H    -19.64781210      7.81762569     44.10127873
 H    -19.91595995      6.07642862     44.35543646
 H    -22.14327750      6.06264081     44.72417176
 H    -22.25960151      7.82931560     44.54088080
 H    -20.64530624      7.35316892     46.74811517
 H    -20.92471893      5.63737757     46.36568184
 H    -23.37644030      6.13199395     46.86666663
 H    -22.92391153      7.81871698     47.21083202
 H    -21.53917319      7.11192869     49.09348582
 H    -21.96829985      5.41261417     48.78292644
 H    -24.22850788      5.56839421     49.17211998
 H    -24.10673548      7.30406647     49.54745979
 H    -22.64684902      5.69685657     51.40843092
 H    -23.24662908      4.37624061     50.37668288
 H    -25.55995011      4.92509222     50.98900719
 H    -24.97521006      6.24907256     52.02506789
 H    -23.85431236      4.32592123     53.34734618
 H    -24.55102805      3.18928481     52.16797705
 H    -26.81822588      3.86477760     52.89888029
 H    -26.09779710      4.99487408     54.07026025
 H    -25.02925792      3.30149936     55.33888420
 H    -25.67370475      2.03777775     54.26372718
 H    -27.92150878      3.08000178     55.31560282
 H    -26.85002022      4.18432646     56.21039103
 H    -25.87793493      2.23434406     57.38987850
 H    -26.96042689      1.15274549     56.48069076
 H    -28.83800247      2.41549811     57.70268343
 H    -27.58731032      3.39511449     58.50542095
 H    -26.52480569      1.76171038     59.67519768
 H    -27.62611502      0.50677962     59.05832394
 H    -29.57177726      0.99156925     59.75185172
 H    -29.01738846      2.44078432     60.62403026
 H    -27.74927874      0.34437648     61.85730765
 H    -28.59902415     -0.67240733     60.66888429
 H    -30.75628519      0.06108517     61.67449157
 H    -29.85844572      1.06287002     62.84007215
 H    -28.98354389     -1.32081038     63.56615983
 H    -30.01078065     -1.99317547     62.27737106
 H    -31.75881587     -0.82523421     64.03969134
 H    -30.30061506     -0.38597375     64.96108556
 H    -30.01451436     -2.94166130     65.19426714
 H    -31.50468947     -3.13877940     64.24096275
 H    -33.02828399     -2.18909447     65.53573319
 H    -31.83569995     -1.79337493     66.79645363
 H    -31.48393763     -4.26815607     67.07610583
 H    -32.69069329     -4.56014142     65.80066395
 H    -34.12067500     -3.34537518     67.76976435
 H    -32.58283006     -3.28731173     68.66415142
 H    -32.90336129     -5.91260069     68.49030933
 H    -34.40891658     -5.57590645     67.60249914
 H    -35.21710952     -4.48335752     69.75243014
 H    -33.65432756     -4.88812338     70.50219264
 H    -34.42849439     -7.32674760     70.09219370
 H    -35.91847126     -6.66851584     69.37458200
 H    -36.25563435     -5.74977008     71.79848124
 H    -34.70860527     -6.51897332     72.22660979
 H    -35.61015907     -8.73207193     71.75931332
 H    -37.17876963     -8.01364073     71.32161004
 H    -37.42335279     -7.17819468     73.63351497
 H    -35.85311997     -7.90124016     74.05759137
 H    -37.24161299    -10.08921215     73.44661333
 H    -38.61018318     -9.00356809     73.10505917
 H    -38.83247120     -8.18297868     75.28398484
 H    -37.48321504     -9.19428992     75.85409364
 H    -39.01290913    -11.15631746     75.19131487
 H    -40.22916459     -9.96448465     74.67312196
 H    -40.37814655     -9.18148679     77.03290281
 H    -39.15726829    -10.39026134     77.49829190
 H    -40.76274322    -12.17126298     76.80436947
 H    -41.94058901    -10.91435964     76.35588314
 H    -41.90878316    -10.30945026     78.84271555
 H    -40.72595246    -11.61460386     79.09913762
 H    -42.59001815    -13.18007631     78.33489022
 H    -43.64256887    -11.75964979     78.12802756
 H    -43.82387426    -10.94472036     80.14775656
 H    -42.79703378    -12.21563102     80.85390909
 H    -44.05051148    -14.03935244     80.40740286
 H    -45.31773142    -13.06757824     79.62122526
 H    -45.74380346    -11.91783750     81.76610053
 H    -44.47373167    -12.89635184     82.53920724
 H    -44.69495799    -14.77868348     82.62042469
 H    -46.28434032    -14.76242728     81.81925917
 H    -47.27554200    -13.46578615     83.60518231
 H    -45.72108518    -13.43741003     84.47185726
 H    -45.74691160    -15.85661881     84.72969362
 H    -47.30321387    -15.94425699     83.87032788
 H    -48.34070907    -14.61629524     85.68956354
 H    -47.02001251    -14.24380653     86.34727541
 H    -46.43146908    -13.32637367     86.46728574
 H    -45.66566540    -14.80885460     87.08701283
 H    -47.84345492    -14.72706079     88.61157297
 H    -48.28081204    -13.24074517     87.73530174
 H    -46.09984568    -12.33746411     88.82188265
 H    -45.89363914    -13.93431511     89.58070570
 H    -47.95189737    -13.65366178     90.85697539
 H    -48.19962942    -12.05019898     90.12499005
 H    -46.34207625    -10.99902430     90.94248278
 H    -45.81731551    -12.46042473     91.81265611
 H    -47.52589178    -12.71593217     93.25683081
 H    -48.36274045    -11.27087651     92.64057996
 H    -46.20852681    -10.09055346     93.55115941
 H    -45.63171719    -11.69828886     94.05190306
 H    -47.95867888    -11.11612101     95.49266173
 H    -47.93060945     -9.60034726     94.55997276
 H    -45.66200285     -9.41659458     95.99616714
 H    -46.10270094    -11.00175694     96.67536679
 H    -47.98014726    -10.60837075     97.73013364
 H    -47.96991947     -8.88201798     97.29669601
 H    -45.82169509     -8.75887511     98.66872069
 H    -45.98322378    -10.49990102     99.00189320
 H    -47.91263461    -10.53035111    100.15303148
 H    -48.09984617     -8.76409720    100.03655994
 H    -46.07895749     -8.37257690    101.30806898
 H    -45.82062869    -10.12606829    101.47177865
 H    -47.73673121    -10.59264538    102.68918057
 H    -48.41555804     -9.29453888    102.49043365
 H    -49.11919555     -8.43437816    102.13059788
 H    -47.90211002     -7.51265537    103.04569163
 H    -49.43302140     -9.45442505    104.58479351
 H    -50.15930808     -9.73010776    102.98330253
 H    -51.05031038     -7.50068288    102.86456885
 H    -50.36889375     -7.11706111    104.46355989
 H    -51.91601518     -8.91944563    105.36239762
 H    -52.50089280     -9.19525615    103.70405103
 H    -53.35988467     -6.79592224    103.82331853
 H    -52.70878054     -6.68807093    105.47640600
 H    -54.71412213     -8.64748198    105.43234296
 H    -54.82266226     -8.22207699    103.70737446
 H    -55.40041839     -6.28490861    103.45623430
 H    -55.53847163     -5.97082754    105.20281984
 H    -57.39508038     -7.81346107    105.00040559
 H    -57.01111660     -7.89840344    103.26442654
 H    -57.78821751     -5.50012556    103.11828522
 H    -58.13104095     -5.53426278    104.86458800
 H    -59.85607538     -7.35112349    104.15321235
 H    -59.31030208     -7.11532811    102.47547617
 H    -60.13155713     -4.78097554    102.56694988
 H    -60.66804602     -5.04148158    104.24402559
 H    -62.22749423     -6.78348661    102.99103392
 H    -61.43971282     -6.26029258    101.48307665
 H    -62.72468896     -4.02509232    102.40075392
 H    -63.23997417     -5.05666858    103.75670313
 H    -64.49488607     -6.46600651    102.13471793
 H    -63.95290638     -5.40613470    100.81139014
 H    -65.16588380     -3.51657456    101.80240266
 H    -65.71688591     -4.56308240    103.13262244
 H    -66.85566100     -6.06777344    102.59909079
 H    -66.83530475     -5.64143029    100.87106191
 H    -67.99733371     -3.49298875    101.56433330
 H    -67.94348668     -4.04996084    103.25405199
 H    -69.50333510     -5.92050532    102.17129814
 H    -69.29628153     -5.05558546    100.62944564
 H    -70.36145605     -3.07383868    101.37754646
 H    -70.65418942     -3.79212476    102.97961979
 H    -72.09253045     -5.50543033    101.95404098
 H    -71.80249335     -4.79018979    100.35011576
 H    -72.93641345     -2.71408801    101.17385856
 H    -73.18662934     -3.49910556    102.75164376
 H    -74.60268927     -5.20465515    101.79607435
 H    -74.41116951     -4.48624329    100.17883249
 H    -75.44157789     -2.43951937    100.72046940
 H    -75.73136206     -2.97875828    102.39185003
 H    -77.15780387     -4.75494102    101.82231187
 H    -77.00729770     -4.37928192    100.08896401
 H    -78.23851156     -2.26130223    101.58739294
 H    -77.95793268     -3.38632022    102.93790272
 H    -79.66197159     -4.80673187    101.45742676
 H    -79.65983551     -3.43458306    100.32364118
 H    -80.64439102     -1.99497984    102.06220015
 H    -80.64698351     -3.36650284    103.19674173
 H    -82.19534615     -4.61449909    101.80558339
 H    -82.23982069     -3.27847405    100.63028523
 H    -83.28525227     -2.18352908    102.89185964
 H    -83.00960040     -3.78026161    103.62856035
 H    -84.59523276     -4.80954110    102.07468368
 H    -84.89221876     -3.22598764    101.31809633
 H    -85.80874926     -2.34134890    103.39511488
 H    -85.53275444     -3.90649105    104.19662819
 H    -87.04782908     -5.07856504    102.76596269
 H    -87.41709419     -3.57952539    101.88007892
 H    -88.30283941     -2.22077146    103.18826332
 H    -88.24005085     -3.33695764    104.57334552
 H    -89.83188924     -4.75198993    103.06815609
 H    -89.70442108     -3.46549739    101.84465477
 H    -90.81090575     -1.94904937    103.53916421
 H    -90.87712486     -3.31713547    104.67592369
 H    -92.38392625     -4.48930526    103.07135851
 H    -92.27915001     -3.09228513    101.97334969
 H    -93.43672326     -1.87658274    103.97324658
 H    -93.39851818     -3.42783849    104.84526301
 H    -94.95885421     -4.19638991    102.91958688
 H    -94.82712177     -2.55552655    102.24247486
 H    -95.86486181     -1.51253784    104.11331773
 H    -96.07159513     -3.08648296    104.91844179
 H    -97.59135751     -3.54726202    102.84214725
 H    -97.19300945     -1.90664964    102.27825317
 H    -98.37827321     -1.11044108    104.39283650
 H    -98.68982482     -2.81253710    104.81005512
 H   -100.08883687     -2.78388009    102.63139967
 H    -99.62876019     -1.07630083    102.42948592
 H   -100.50446948     -0.08393367    104.16384249
 H   -101.20645796     -1.59408336    104.79227446
 H   -102.62262515     -2.19771378    103.24121595
 H   -102.25556442     -0.78388267    102.22405585
 H   -103.08186666      0.73997805    103.93136930
 H   -103.47064373     -0.63700409    104.99016070
 H   -105.11977046     -1.31084099    103.16013140
 H   -104.60623558      0.11719694    102.22993987
 H   -105.26539929      1.76229875    103.63381938
 H   -105.90918975      0.59675444    104.81505050
 H   -107.50665361     -0.42535119    103.75744467
 H   -107.26291755      0.52475625    102.27213148
 H   -107.89951562      2.55684304    103.61853722
 H   -108.11206070      1.51377267    105.04510494
 H   -109.99988331      0.50674990    103.49644509
 H   -109.50887699      1.70102328    102.27133671
 H   -110.14963315      3.54860161    103.71522430
 H   -110.65915943      2.40257661    104.97826679
 H   -112.39353384      1.65062084    103.22756540
 H   -111.72004160      2.86696804    102.11618142
 H   -112.17793293      4.75892105    103.24453234
 H   -112.95551982      3.86801062    104.57490970
 H   -114.69532162      2.99375270    103.21012692
 H   -114.04052942      3.82877448    101.78105294
 H   -114.54535880      5.98190551    103.04320020
 H   -115.16438062      5.00047871    104.39297058
 H   -116.94149613      4.05210513    103.14789771
 H   -116.46289111      4.96569221    101.69718666
 H   -116.87127469      7.09058185    102.69772424
 H   -117.38125401      6.31351189    104.21573282
 H   -119.14571362      5.60030391    102.12578147
 H   -118.06499649      6.62212122    101.14792334
 H   -118.93361993      8.49040275    102.74017454
 H   -119.91906475      7.24851867    103.54942672
 H   -121.11853966      7.02112801    101.31221843
 H   -120.04525567      8.27912581    100.65360650
 H   -121.72803768      9.23402438    102.77973462
 H   -122.28426309      7.54327730    102.76378900
 H   -123.17684535      7.24131610    100.83438454
 H   -122.86559910      8.91495770    100.31446508
 H   -124.19174541      9.95819896    101.91186222
 H   -124.66537347      8.39426966    102.61760174
 H   -125.75270995      7.84435225    100.42750158
 H   -125.23915013      9.42764517     99.79686183
 H   -126.71761302     10.45561502    101.56720156
 H   -127.15563436      8.81867661    102.11202868
 H   -128.19461925      8.39076584     99.90689635
 H   -127.74616592     10.03167445     99.38289710
 H   -128.96056103     11.25531195    100.85106200
 H   -129.62846089      9.79788228    101.62441521
 H   -130.40189902     10.04421023     98.87254791
 H   -129.40402822     11.51443930     98.97717592
 H   -130.47391313     12.74172864    100.45528953
 H   -131.75079969     11.52180558    100.67803403
 H   -132.61852990     11.50508660     98.57485419
 H   -131.46965845     12.74472035     98.01658077
 H   -131.95757275     14.49653237     99.22510770
 H   -133.26874523     13.65481807    100.08569497
 H   -133.79088628     13.88385567     97.28219163
 H   -132.20443345     14.69088538     97.29390177
 H   -133.04358477     16.48071777     98.70546481
 H   -134.65449562     15.72405165     98.73171919
 H   -134.79957868     16.07486553     96.27315612
 H   -133.18494119     16.82367081     96.29558612
 H   -133.91437734     18.64081715     97.69390277
 H   -135.56565429     17.97756998     97.73457589
 H   -136.17911672     18.07634894     95.61441246
 H   -134.62868231     18.78897587     95.10787256
 H   -135.03841261     20.77358356     96.46561202
 H   -136.59766101     20.09993357     96.99778378
 H   -137.20906740     20.26611047     94.49446287
 H   -135.58113229     20.92214798     94.19830626
 H   -135.45386028     22.75846464     95.26043049
 H   -137.11926289     22.64090402     95.87758552
 H   -137.99065229     22.74218009     93.58226767
 H   -136.32941594     22.86050965     92.95412871
 H   -135.66449431     24.80168533     93.85177038
 H   -137.23227897     25.05897663     94.65434069
 H   -138.36865863     25.17525582     92.49534385
 H   -136.81952815     24.92085316     91.65645130
 H   -135.99172769     27.05641415     92.59682946
 H   -137.54930926     27.28840947     93.42651884
 H   -138.30772948     27.34896757     90.85818694
 H   -136.93015568     26.85931362     90.39979535
 H   -135.78202838     26.45451056     90.08583838
 H   -135.22724423     28.00710786     90.75660125
 H   -136.80650011     28.78108672     88.70534146
 H   -137.07797774     27.04485800     88.42236374
 H   -135.06314944     26.30881690     87.91325388
 H   -134.33470390     27.92472658     88.07594881
 H   -135.83676384     28.60362345     86.14284744
 H   -136.47591033     26.94286015     86.10255247
 H   -134.00816174     26.36605630     85.49650755
 H   -133.64539777     28.10475513     85.61310662
 H   -134.97276397     28.86073106     83.91640573
 H   -135.53518436     27.21578994     83.53415098
 H   -133.49624951     26.32460331     82.92090077
 H   -132.81235844     26.88766168     83.44578777
 H   -131.98477705     27.22559661     84.30702301
 H   -132.11343099     28.82462507     83.53577545
 H   -131.28992439     27.98812040     81.42586894
 H   -131.12613813     26.35489454     82.11435570
 H   -129.41492439     27.35895945     83.68752660
 H   -129.67638709     28.93993545     82.91265964
 H   -128.72977198     27.67870496     80.82931128
 H   -128.58658841     26.23423511     81.85949182
 H   -126.90072484     27.68553601     83.17490184
 H   -127.21313451     28.99847226     82.01435660
 H   -126.13214462     27.10789484     80.43623613
 H   -126.02071155     26.11003216     81.90597060
 H   -124.72507490     27.07480730     83.25089486
 H   -124.40160572     28.42926026     82.14225085
 H   -123.40034122     26.39706196     80.73793184
 H   -123.90048078     25.35096707     82.08841788
 H   -122.24477162     26.66936838     83.49301068
 H   -121.84888915     27.63834389     82.05334746
 H   -121.01055758     25.39476026     81.10064562
 H   -121.49044299     24.62654384     82.63290545
 H   -119.80959118     26.03761487     83.80416594
 H   -119.36370921     26.77887517     82.24853453
 H   -118.57539775     24.80821508     81.25536681
 H   -118.93965399     23.86794986     82.72216106
 H   -117.24005194     25.30326194     83.90766011
 H   -116.50731927     24.87113704     82.07569399
 H   -116.12893981     24.27185122     81.23246584
 H   -116.35107774     23.25909995     82.67927484
 H   -114.97765276     24.17682531     84.13851898
 H   -114.43094487     25.41317013     82.98057743
 H   -113.52451746     24.75640405     81.38959323
 H   -113.63732862     23.04606000     81.86945103
 H   -112.31878145     23.28425172     83.81289889
 H   -112.08942680     25.02026013     83.49362173
 H   -110.88369611     24.13723908     81.36409872
 H   -111.25451854     22.48722660     81.91927094
 H   -110.14849880     22.33485434     83.81326305
 H   -109.50232779     23.98749759     83.67362080
 H   -108.48211797     22.56693830     81.52887579
 H   -109.41766368     21.20871224     82.19838520
 H   -107.93139594     21.36709517     84.23241264
 H   -107.06955759     22.72124932     83.46314815
 H   -106.19961455     21.70251085     81.66225246
 H   -106.90442572     20.13154496     82.11344430
 H   -105.94629814     19.65767095     84.02013645
 H   -104.97832122     21.15139847     84.01204786
 H   -103.90346725     20.18962034     81.90136843
 H   -104.95828879     18.76529112     82.06539422
 H   -103.47853148     18.60794022     84.30116659
 H   -102.67624832     20.09365932     83.73791962
 H   -101.87886158     18.70504078     81.76541975
 H   -102.73570433     17.30364709     82.45111858
 H   -101.26907960     17.36452768     84.42531131
 H   -100.40852812     18.76598624     83.74440624
 H    -99.54286051     17.83652340     81.87737906
 H   -100.25671171     16.24855040     82.24754778
 H    -98.70068586     16.38411800     84.32288915
 H    -98.15458403     17.97096485     83.72962988
 H    -97.19604569     17.33876536     81.77314050
 H    -97.58259527     15.62439937     82.05562119
 H    -96.46341184     15.12039658     83.85945303
 H    -95.77802578     16.75660154     84.00555550
 H    -94.74622121     15.93005433     81.66369451
 H    -95.64188605     14.41626035     81.93660280
 H    -94.10305326     14.18557127     83.99095986
 H    -93.34770328     15.73044510     83.53152768
 H    -92.45699308     15.21203353     81.54783812
 H    -93.04252871     13.53329715     81.63303702
 H    -92.10738165     12.62251089     83.29764097
 H    -91.18738421     14.08644903     83.72043703
 H    -89.89527485     14.47043541     82.05283890
 H    -90.47113282     13.05045279     81.14713275
 H    -89.17511127     12.34116200     83.60567915
 H    -89.01666008     14.10825107     83.74905320
 H    -87.65408014     14.38834126     81.86507844
 H    -87.67107578     12.63946398     81.53431252
 H    -86.55541273     12.13528183     83.61860244
 H    -86.49456160     13.86672880     84.02683668
 H    -85.06888307     14.32109861     82.09880326
 H    -85.10262989     12.59751947     81.65562973
 H    -83.94425555     12.11733981     83.82644286
 H    -83.95333163     13.85890443     84.19405267
 H    -82.41435493     13.80565158     82.00870817
 H    -82.67385146     12.04473210     81.99918080
 H    -81.34113006     12.45886972     84.32377726
 H    -81.35315497     14.18067932     83.87267440
 H    -79.96448850     13.60769382     81.88631187
 H    -79.98422870     11.89788859     82.38072371
 H    -78.75253143     12.58940087     84.45423404
 H    -78.78021605     14.27526027     83.88381462
 H    -77.66033227     14.32362751     82.07236121
 H    -77.28240902     12.58537072     82.13484353
 H    -76.04648888     12.70716459     84.14087245
 H    -76.31536126     14.46344110     84.24795702
 H    -74.98917364     14.59113683     82.06990481
 H    -74.81926915     12.81995886     82.11815126
 H    -73.56653150     12.80710395     84.13353117
 H    -73.63999637     14.58277857     84.23277438
 H    -72.27571873     14.37909292     81.99910969
 H    -72.38583029     12.61238182     82.18585553
 H    -70.93822849     13.41362383     84.35201599
 H    -71.14373843     15.05939421     83.70589511
 H    -69.70899198     13.88030326     81.76289650
 H    -69.76840529     12.41296511     82.76870735
 H    -68.35876714     14.54376217     84.05465289
 H    -68.78166104     15.40995960     82.55828080
 H    -67.61924617     14.12957773     81.06628246
 H    -67.00820960     13.06467300     82.35503336
 H    -65.79526170     14.80552569     83.44404475
 H    -66.32642817     15.98412285     82.22050988
 H    -65.19818873     14.83200701     80.43815911
 H    -64.60882208     13.59716761     81.57661652
 H    -63.39271605     15.08230782     82.95034733
 H    -63.72102096     16.39372525     81.92757599
 H    -62.61599366     13.56924093     82.71576145
 H    -63.50634793     14.54887056     83.90566132
 H    -61.07780133     15.81317754     83.09424949
 H    -60.96443521     14.62395186     81.99608834
 H    -60.95261798     13.84985362     81.10483016
 H    -60.81179410     12.73118267     82.48215024
 H    -59.20453769     12.98720697     83.59376126
 H    -58.57013241     14.32096720     82.60034279
 H    -58.37677404     12.77011076     80.68291670
 H    -59.01332635     11.44966068     81.69260943
 H    -57.21375282     11.47491567     83.22407986
 H    -56.42362352     12.79893094     82.33472844
 H    -56.22544736     11.23851405     80.38268076
 H    -57.02499628      9.96939402     81.34097223
 H    -55.99413779      9.42983048     82.96297919
 H    -54.64832022     10.54817129     82.63685718
 H    -54.04863895      9.48871051     80.58615465
 H    -55.35637074      8.29728498     80.78264750
 H    -53.82469919      7.73635488     82.90284826
 H    -52.76108950      9.05072166     82.34657402
 H    -52.24819398      7.87449132     80.28874174
 H    -53.29499821      6.52210589     80.78222046
 H    -52.02367974      5.93920124     82.67794018
 H    -50.85654418      7.24201409     82.34818276
 H    -49.86797091      7.13478344     80.69498575
 H    -50.61941496      5.60251287     80.18927300
 H    -49.57936041      4.55048211     82.22026677
 H    -48.87073809      6.12668742     82.64652712
 H    -47.73144873      5.41961015     80.23736809
 H    -48.74814210      3.96428290     80.36630169
 H    -47.90880744      3.01554892     82.21518210
 H    -46.70674395      4.31067513     82.42956063
 H    -45.69361761      3.63206865     80.25214129
 H    -46.92367733      2.35525781     80.09411020
 H    -46.37276187      1.09470827     81.91241739
 H    -45.03664927      2.18670041     82.34902130
 H    -44.09691609      1.40488045     80.04558816
 H    -45.55583193      0.40038668     79.87002189
 H    -44.91476245     -0.92558169     81.82707478
 H    -43.44820787      0.06366344     82.02425083
 H    -42.75451194     -0.84694172     79.75096663
 H    -44.27231850     -1.77544172     79.70179691
 H    -43.42706232     -3.02273998     81.72095312
 H    -41.94700549     -2.03479348     81.68020802
 H    -41.27356454     -2.86668961     79.54000044
 H    -42.71563683     -3.90692945     79.45878922
 H    -41.53064809     -4.97643975     81.56576097
 H    -40.24676341     -3.76301565     81.34779598
 H    -39.89185539     -5.00136744     79.09292265
 H    -41.22658072     -6.08586605     79.55187552
 H    -39.70454234     -6.78837950     81.48321930
 H    -38.48261010     -5.64384737     80.87890608
 H    -38.50098453     -7.20703480     78.80454794
 H    -39.73374157     -8.18699403     79.63416029
 H    -38.09532899     -8.71683617     81.40629748
 H    -36.87303496     -7.73319685     80.56563248
 H    -37.21529546     -9.55459109     78.71525830
 H    -38.41123921    -10.31517605     79.79205714
 H    -36.60136975    -10.73130157     81.43904272
 H    -35.43338244     -9.96338110     80.33705792
 H    -36.06705493    -11.95070475     78.78853486
 H    -37.17904217    -12.50519395     80.06301231
 H    -35.17824690    -12.82809083     81.53633690
 H    -34.13436571    -12.26025307     80.21114295
 H    -34.51284513    -13.85272964     78.66960478
 H    -35.63547051    -14.72835406     79.73790285
 H    -33.29230971    -14.87292483     81.08250695
 H    -32.60513828    -13.93903992     79.73198073
 H    -32.99879620    -15.58463744     78.09640485
 H    -33.71996180    -16.67463005     79.30475204
 H    -31.27520293    -16.53999225     80.28014069
 H    -30.88698814    -15.44996883     78.92758574
 H    -31.34615397    -17.29033065     77.34085721
 H    -31.73118133    -18.36562356     78.70605527
 H    -29.44774871    -18.18732157     79.55140857
 H    -29.02195181    -17.10951904     78.20036994
 H    -29.55413834    -19.16507363     76.73973958
 H    -29.93835929    -20.05800693     78.23081672
 H    -27.57532280    -19.78325570     78.94779552
 H    -27.23243574    -18.89407320     77.44444938
 H    -27.63368125    -20.48474450     75.91129135
 H    -28.04674737    -21.68902274     77.15521938
 H    -25.52554599    -21.26911652     77.80500174
 H    -25.46288974    -20.10374799     76.46103112
 H    -25.94453992    -22.37249542     75.13756424
 H    -25.93756808    -23.17694861     76.72535299
 H    -23.52767918    -22.49699434     76.93516317
 H    -23.63181852    -21.71702258     75.33858378
 H    -24.07391181    -23.72246836     74.16366180
 H    -24.00029003    -24.66694474     75.67058278
 H    -21.65233815    -24.06836364     75.98220794
 H    -21.68720349    -23.11471846     74.47967277
 H    -22.13133486    -24.92225369     73.05463125
 H    -22.13447577    -26.06038916     74.42317225
 H    -19.94537859    -25.78707648     75.07715741
 H    -19.64135713    -24.60683496     73.77990355
 H    -20.08776683    -26.33995460     72.09113931
 H    -20.39256891    -27.52370191     73.38501127
 H    -18.03980254    -27.26637657     74.12472534
 H    -17.76674821    -26.08537619     72.82128908
 H    -18.11778058    -27.39920391     71.01558734
 H    -18.44558821    -28.82704151     72.02657132
 H    -16.07000165    -28.62699256     72.84837374
 H    -15.85476416    -27.20515447     71.79941429
 H    -16.23635223    -28.68518017     69.82915136
 H    -16.44369216    -30.07076906     70.92706767
 H    -14.19640519    -29.92939669     71.75181885
 H    -13.86760366    -28.53609782     70.69405023
 H    -14.23898283    -29.96610661     68.71604532
 H    -13.58130179    -31.32121234     70.13503411
 H    -12.40857221    -31.40175982     70.73690594
 H    -11.89357015    -30.01721137     69.74389782
 H    -11.90940968    -30.30736970     67.81209266
 H    -12.45909582    -31.99572170     67.93690983
 H     -9.88698720    -31.54964845     69.14504488
 H    -10.20210422    -29.88254123     68.60678710
 H    -10.17466255    -30.72190001     66.25320385
 H     -9.86187664    -32.36579305     66.85987289
 H     -7.68248393    -31.46061562     67.76476954
 H     -8.11008313    -29.86045118     67.11292651
 H     -8.10024273    -30.62806526     64.84225447
 H     -7.66831445    -32.27175452     65.37139551
 H     -5.70906285    -32.02521587     66.30440784
 H     -5.66785390    -30.27639359     65.97548668
 H     -5.69121200    -30.14089689     63.80153791
 H     -5.72471032    -31.90866638     63.59626848
 H     -3.35372229    -31.52608656     64.81460147
 H     -3.76413165    -29.79409757     64.80789561
 H     -3.78784958    -29.64642076     62.42508194
 H     -3.37449232    -31.37192130     62.28348276
 H     -1.21407606    -30.90517177     63.41178344
 H     -1.66015400    -29.18659041     63.53731921
 H     -1.72528614    -28.87700169     61.16577837
 H     -1.27886854    -30.57982607     60.90240198
 H      0.84578573    -29.35284742     62.22178414
 H     -0.18794437    -27.90508308     62.16139244
 H      0.05830097    -28.12166782     59.61776474
 H      1.07191780    -29.56004462     59.88594334
 H      2.70682954    -28.03829990     61.04919907
 H      1.61812562    -26.66647553     60.73125517
 H      2.03458980    -27.10934251     58.27259109
 H      3.09928308    -28.46083401     58.72884280
 H      4.53254107    -26.61794763     59.81950204
 H      3.32906801    -25.42900105     59.26603541
 H      3.47071323    -25.62450454     57.05602898
 H      4.73751060    -26.87030326     57.16315812
 H      6.13471219    -25.01854398     58.25966955
 H      4.74593883    -23.92216229     58.06596251
 H      5.57814077    -24.65659682     55.51515857
 H      6.79820418    -25.61923527     56.38293686
 H      7.18260527    -22.86203340     56.89476483
 H      5.76357476    -22.68549263     55.83483444
 H      6.12460844    -23.34765991     53.95992485
 H      7.81242853    -23.79317022     54.30784808
 H      8.10122341    -21.26544714     54.74437421
 H      6.37593242    -21.05854667     54.35858949
 H      6.90929094    -21.86508093     52.04047075
 H      8.61474141    -22.04272557     52.51811889
 H      8.62230666    -19.53978257     52.87543674
 H      6.91294741    -19.49379729     52.38122730
 H      7.34073783    -20.26049216     50.17398641
 H      9.08625814    -20.35804357     50.50851479
 H      9.05331509    -17.87311186     50.85661175
 H      7.30724103    -17.86862459     50.51096467
 H      7.72513156    -18.65621775     48.23025246
 H      9.47625868    -18.66924699     48.54907955
 H      9.17509600    -16.12926051     48.85429854
 H      7.44209660    -16.34717797     48.51152784
 H      8.36507316    -17.12491060     46.19216469
 H     10.00099048    -16.81724570     46.82254828
 H      9.27096800    -14.38255059     46.98916279
 H      7.67892015    -14.85647298     46.34959427
 H      8.76943348    -15.54828377     44.23529768
 H     10.34898574    -15.06690297     44.89979285
 H      8.79081397    -12.76897510     44.73692152
 H      7.54602746    -13.87122274     44.10145054
 H      9.35760581    -14.12889091     42.19594903
 H     10.36075175    -12.98277877     43.11703094
 H      8.70594549    -11.21610049     42.82387325
 H      7.66966014    -12.32640657     41.89564927
 H      9.49933279    -12.45218046     40.18744100
 H     10.47337469    -11.33834485     41.17682429
 H      9.10097665     -9.50572445     41.07870996
 H      7.92211140    -10.36355704     40.05759947
 H      9.24140909    -10.73699650     38.23048839
 H     10.63065643     -9.91791382     38.98372279
 H      9.02989041     -7.85874614     38.88015035
 H      7.81611548     -8.92940509     38.13940309
 H      9.21399591     -9.32166431     36.20172814
 H     10.47555351     -8.26216815     36.87567693
 H      9.12907698     -6.31202334     36.83953564
 H      7.76155721     -7.22396463     36.15651336
 H      9.91872403     -7.24314803     34.33763856
 H     10.78514675     -6.49941266     35.53158570
 H     11.50578565     -6.27259287     36.37781175
 H     10.44506510     -4.84509345     36.30443592
 H     10.82042682     -4.06562477     34.27240997
 H     11.99899343     -5.34738464     33.90316880
 H     13.39262531     -4.37084742     35.78730303
 H     12.12496454     -3.14814046     36.04477246
 H     12.00168257     -1.98586087     34.28168809
 H     13.30124129     -2.88761159     33.46544092
 H     15.06000400     -2.52660194     34.69606750
 H     14.16699302     -1.49456686     35.83874053
 H     13.36111870     -0.17268063     35.86665211
 H     13.67390566      0.14711467     34.14381667
 H     15.95323044      0.32348311     34.23062083
 H     15.97382822      0.03486353     35.98690701
 H     14.71714422      2.02930535     36.45650243
 H     14.63765984      2.41710369     34.72111736
 H     16.80440274      2.70386309     34.23929568
 H     17.30302190      2.37541605     35.91612845
 H     15.99198229      4.43497011     36.56131557
 H     15.55588670      4.65909666     34.85021809
 H     18.17607135      4.95814093     34.67002508
 H     18.23878095      4.67951531     36.42692631
 H     16.91265030      6.73423286     36.78230734
 H     16.85827226      6.99924279     35.02302356
 H     19.59712858      6.67420424     35.91541308
 H     19.31723951      6.96771581     36.84297345
 H     19.61123503      7.29475985     34.02025099
 H     20.08093638      5.88216739     35.18591027
 H     20.26943503      8.86450219     34.14980242
 H     19.08498054      7.88231676     33.25501418
 H     20.99328042      6.44777331     32.49313849
 H     22.11223626      7.47906030     33.41652987
 H     21.73372828      9.43798052     32.21860078
 H     20.56932177      8.62067364     31.14881874
 H     21.87265338      7.10037521     30.15714147
 H     23.31770005      7.64217316     31.04402465
 H     22.89388312      9.85445677     29.74834378
 H     21.48136651      9.07033647     29.00120333
 H     22.04474155      7.46599886     27.86998010
 H     23.77940030      7.68492834     28.20359003
 H     23.69968228      9.88209138     27.07373307
 H     21.96544968      9.64767215     26.74853836
 H     22.44948736      7.70566927     25.34531476
 H     24.19142166      7.91089727     25.64832145
 H     24.12590376     10.10315674     24.52459567
 H     22.38402133      9.89578940     24.22274961
 H     22.51405960      8.04276178     22.86060783
 H     24.28993565      8.00804594     22.97604497
 H     24.28444743     10.25622894     21.84192491
 H     22.50673916     10.19256936     21.77893760
 H     23.12677214      8.10831919     20.23727820
 H     24.83122556      8.50685282     20.56019642
 H     23.56741114     10.86183558     19.56227948
 H     22.81236518     10.25724058     19.10102498
 H     25.74947977     10.74927391     19.53398463
 H     24.39338094     11.65698954     20.24483973
 H     23.90206908     12.25572687     17.76703635
 H     25.31583849     11.27302521     17.31557189
 H     26.95750736     12.43954020     18.33710095
 H     25.81033032     13.64678523     18.96544079
 H     25.09475327     14.45527268     16.90863514
 H     26.17122481     13.33899368     16.03490927
 H     27.87009208     14.94792333     17.44355533
 H     26.39334716     15.73821921     18.04598670
 H     26.03817690     16.37270205     15.57492207
 H     27.55126802     15.51669811     15.19271899
 H     28.81715642     17.10882325     16.56977070
 H     27.31107919     17.97383290     16.95932987
 H     27.54812938     18.28197902     14.26765487
 H     29.03762236     17.32025643     14.42503015
 H     29.77200176     19.38263938     15.86569036
 H     28.17288403     20.08888051     15.53055960
 H     28.48104219     20.18710429     13.17744848
 H     30.09835538     19.57462952     13.31662511
 H     27.40870810     20.96252205     13.36052612
 H     27.77585820     19.39650309     12.59825839
 H     29.27703529     21.35055563     11.28980589
 H     28.50297776     22.45968082     12.44693290
 H     26.30078469     21.93326412     11.47376660
 H     27.07728893     20.82467502     10.31776571
 H     28.14809818     23.18040063      9.60734423
 H     27.17479274     23.88989188     10.91790340
 H     25.26983618     22.96155036      9.26974609
 H     26.60178575     22.39512290      8.23372634
 H     27.06001650     24.98285223      8.09598652
 H     25.65657483     25.20450003      9.16812942
 H     24.36354302     24.10691183      7.18985408
 H     25.85982710     24.04642259      6.31374994
 H     23.35340311     24.95629196      7.87739563
 H     23.75456382     23.24699637      7.58474335
 H     23.50194983     23.64405514      5.14941706
 H     23.10507440     25.34818574      5.47605973
 H     21.08948274     24.66263381      6.69870571
 H     21.47296818     22.95399088      6.37973092
 H     21.31517707     23.00967881      4.08463679
 H     20.89874167     24.74021404      4.09443671
 H     19.03740003     24.89110655      5.14767983
 H     18.93187254     23.13567683      5.42262914
 H     18.81031023     22.78316701      2.97729453
 H     18.91737299     24.54162265      2.72305448
 H     16.97273770     25.15663251      3.76773772
 H     16.57880280     23.46770833      4.16850834
 H     16.43248078     22.94080112      1.76241138
 H     16.82713252     24.63153490      1.37006466
 H     14.69248054     25.28869623      2.51171945
 H     14.37657648     23.57288751      2.86452494
 H     14.19135956     22.77132013      0.75312720
 H     14.47091761     24.37873598      0.04155975
 H     12.33356104     25.09565670      1.18494691
 H     12.16652653     23.44927353      1.84052955
 H     11.94603203     22.38844194     -0.24340119
 H     12.08733801     23.94246908     -1.09972993
 H      9.73709155     23.18941641     -0.91253662
 H     10.02930789     22.77696658      0.91815125
 H      9.84480143     21.36275553     -0.53636671
 H      9.67526452     22.59647583     -1.87525263
 H      8.15133445     21.61370723      0.67556009
 H      9.66589783     20.69124190      0.52251718
 H      8.29757806     19.97287300     -1.69861871
 H      7.02132078     21.06629235     -1.11221602
 H      6.89818647     19.41667159      0.86885389
 H      8.19647639     18.47678169      0.09469829
 H      6.34419619     18.19809862     -1.75352395
 H      5.28523704     19.19232995     -0.72474981
 H      5.27896162     17.59514250      1.05987372
 H      6.33667367     16.50832878      0.12802190
 H      4.69714681     16.20066796     -1.60546384
 H      3.56000575     17.27210301     -0.75270138
 H      3.45724922     15.73821296      1.14190254
 H      4.59179957     14.63693146      0.32444231
 H      2.87618804     14.32838320     -1.46661109
 H      1.79188164     15.44053253     -0.59731818
 H      1.53789180     14.15954651      1.31933194
 H      2.59404738     12.88163935      0.67144667
 H      1.06008941     12.43222993     -1.15479801
 H     -0.15637429     12.95162553      0.42174061
 H     -0.61221542     12.86601844      1.44134446
 H      0.39277557     11.41465396      1.21374628
 H     -1.48949656     11.24835051     -0.75906174
 H     -2.10553165     12.78410016     -0.10313458
 H     -2.71986400     12.11652475      1.96586791
 H     -2.21072857     10.43927378      1.65622785
 H     -4.04795544     10.48679334     -0.14662474
 H     -4.39146265     12.16918469      0.32223430
 H     -5.07031626     11.60338027      2.52963883
 H     -4.77765935      9.87629546      2.21373274
 H     -6.44639278      9.74312385      0.51071972
 H     -6.84529659     11.46458747      0.72450800
 H     -7.58331085     11.13689290      2.99092145
 H     -7.22110986      9.39756523      2.88221837
 H     -8.90040858      9.11997947      1.12548809
 H     -9.28657208     10.85547478      1.21034359
 H     -9.90651697      9.59396661      3.66728564
 H     -9.13930859      8.54185690      3.35945322
 H     -8.23308252      7.80934538      3.39133743
 H     -9.01489955      7.23960816      1.96992129
 H     -9.06271341      7.10019572      0.88076104
 H     -9.44537553      5.68797177      2.20564837
 H     -8.78587504      4.92820913      2.79011207
 H     -7.80848002      5.60395623      2.56091454
 H     -6.91599177      6.30995584      2.83248557
 H     -6.81605356      6.31787524      1.05534846
 H     -6.40113401      3.84198931      1.18029310
 H     -6.52040143      3.93432796      2.95385323
 H     -4.56515629      5.38038461      3.07117736
 H     -4.39971295      5.32044452      1.29993419
 H     -3.99982037      2.79940220      1.70542154
 H     -4.21085275      3.10469264      3.44626321
 H     -2.13471274      4.56312779      3.25336259
 H     -2.06142182      4.16460929      1.52013493
 H     -1.69758662      1.77858948      2.16255811
 H     -1.78268422      2.24356138      3.87860770
 H      0.21005480      3.63568373      3.64788841
 H      0.33044836      3.19406475      1.92778820
 H      0.63563370      0.97895794      3.77352207
 H      0.36922341      2.28097636      4.95759987
 H      2.42909854      3.00092337      4.97210240
 H      2.40719615      3.12135519      4.87985109
 H      2.11559449      3.89263877      5.60807718
 H      2.08877898      4.52463046      3.93968487
 H      2.54901586      4.82768641      2.72391802
 H      4.15965043      4.30753280      3.27488368
 H      3.96120754      6.20793168      4.97124160
 H      2.35839727      6.58635687      4.29591926
 H      2.38081781      6.79939477      2.24605051
 H      3.72634160      7.10057482      2.15090313
 H      0.90514405      7.02442466      2.97360624
 H      1.75935875      6.03404645      1.76623931
 H      2.23552182      7.99291338      0.40299707
 H      1.39129713      9.03064206      1.57716509
 H     -0.71028958      8.11455913      1.36283987
 H      0.02798084      7.31946569     -0.33746205
 H      0.45988165      6.72890664     -1.15524403
 H      0.48004757      8.48008676     -1.47340780
 H     -2.17705030      7.80849208     -1.21039967
 H     -1.56978313      6.15901494     -0.92983167
 H     -0.66289054      6.19878933     -3.26581103
 H     -1.30030442      7.84876276     -3.46470279
 H     -3.59512564      6.97796293     -3.17859744
 H     -3.33006682      5.90001701     -2.60590064
 H     -3.38987126      5.37229037     -1.62270269
 H     -2.50854350      4.29825167     -2.73534320
 H     -4.78475288      4.40660539     -4.03546635
 H     -5.37864648      5.48311808     -2.74834651
 H     -5.10672436      3.60623965     -1.13488083
 H     -4.32544342      2.99062452     -1.66240071
 H     -3.23773998      2.56809827     -1.81169824
 H     -4.02145620      1.94810866     -3.28467769
 H     -4.76742649      0.77569611     -0.77322458
 H     -4.54724574      0.66518111     -0.81554700
 H     -6.09637349      1.56925445     -0.30630850
 H     -4.50349387      1.01713848      0.26480371
 H     -4.81736431     -1.24168000     -0.01139212
 H     -6.47288127     -1.00032840     -0.61907599
 H     -7.24403587     -0.05092728      1.44007386
 H     -5.90738566      0.13963406      2.05244920
 H     -4.87840811      0.54215032      2.46774031
 H     -4.57447482     -1.20996395      2.54511484
 H     -6.43672958     -1.46368364      4.13651558
 H     -6.87804300      0.12575396      3.99207597
 H     -7.72262109      0.68514473      3.56397210
 H     -6.35473265      1.61865878      4.21642856
 H     -6.27878987      1.06607330      6.31890369
 H     -7.67869219     -0.02471783      6.18210139
 H     -8.88981294      2.22444564      5.58389162
 H     -7.98734598      2.80944120      5.21917138
 H     -7.99802814      4.21703817      5.36766547
 H     -6.23789109      3.50630526      6.00205772
 H     -7.83145030      4.82462235      7.12836511
 H     -8.03752715      5.41323104      5.16216314
 H     -6.80335228      6.63630650      6.29364110
 H     -6.11763761      5.97770393      5.67676236
 H     -5.14614665      6.65372201      5.17108485
 H     -5.60462328      7.34531650      6.11128316
 H     -5.67378898      8.33410928      5.39085012
 H     -4.76979308      8.17780710      6.10509111
 H     -4.96357356      8.74569086      7.04697833
 H     -5.62055169      9.52146078      5.24882428
 H     -5.58338907     10.77402027      5.18069633
 H     -4.21974402     10.67048393      5.87490321
 H     -4.04939171     11.94625885      5.82397955
 H     -4.83138080     12.17489443      5.19827272
 H     -3.17727723     12.36751156      5.28646933
 H     -3.74847237     12.17707111      4.35264481
 H     -2.53779830     12.81896220      3.97495103
 H     -2.21089842     13.18059452      4.99728299
 H     -2.38960270     14.36663328      4.71886473
 H     -1.30356966     13.81686312      4.93989107
 H     -0.86891334     15.03971814      5.07019282
 H     -1.96258565     15.57250646      4.56446443
 H     -1.64176696     16.77966535      4.86643955
 H     -0.40903972     16.22368846      5.21254708
 H     -0.16352033     17.61988344      5.23873167
 H     -1.33092823     17.98856823      4.77972275
 H     -0.78255277     18.89477660      4.21289753
 H      0.61126781     17.79050849      4.29114598
 H      0.20291558     18.80894899      5.69267874
1502
Final Conformation Chain 3 (Simulation Frame 4)
 C      0.00000000      0.00000000      0.00000000
 C      1.54000000      0.00000000      0.00000000
 C      2.16637443      0.58324498      1.28026574
 C      3.70637184      0.58581803      1.27909482
 C      4.33264110      1.22073581      2.53458923
 C      5.86912414      1.12868237      2.58302504
 C      6.50133833      1.83945662      3.79410109
 C      8.04096430      1.80752799      3.80560927
 C      8.67250655      2.49154430      5.03234317
 C      8.27461264      3.96986571      5.19921513
 C      8.77408207      4.60904380      6.50825357
 C      8.04451310      5.91108452      6.88775206
 C      6.59512254      5.70101469      7.36392187
 C      5.99471666      6.91463673      8.09756641
 C      4.49417903      6.77538182      8.41473339
 C      3.97123480      7.80465390      9.43391361
 C      2.86407037      7.26433955     10.35795220
 C      1.90821677      8.34810840     10.89029510
 C      0.45166683      8.18587221     10.41728168
 C     -0.48500212      9.32003769     10.87326407
 C     -1.97212093      9.06697726     10.56336395
 C     -2.90208420     10.22637220     10.96656572
 C     -4.23899667     10.25169935     10.20261311
 C     -5.22692264     11.32125157     10.70427070
 C     -6.51895287     11.42003021      9.87210446
 C     -6.29511030     11.88227395      8.42026933
 C     -7.57133664     11.88006545      7.55838684
 C     -7.30394634     11.94317201      6.04309149
 C     -6.28815259     10.89963751      5.54229334
 C     -6.27147644     10.72578241      4.01222918
 C     -5.28649373      9.65165693      3.51457115
 C     -4.99423881      9.72140158      2.00416633
 C     -3.87053120      8.77652169      1.53931885
 C     -3.85566891      8.52034224      0.02084883
 C     -2.83513583      7.45668938     -0.42497042
 C     -3.11444527      6.86637602     -1.81964471
 C     -2.04319758      5.87217082     -2.30501510
 C     -2.33821940      5.25836559     -3.68624834
 C     -1.07825554      4.85441605     -4.47423048
 C     -1.31080364      4.69424945     -5.98812216
 C     -1.98367749      5.91076328     -6.65064378
 C     -2.14131635      5.78503177     -8.17738593
 C     -3.11108306      6.81047521     -8.79351764
 C     -2.81053150      7.15128876    -10.26495057
 C     -3.70821151      8.25880051    -10.84734935
 C     -5.21132808      7.92473146    -10.82208197
 C     -6.09450051      8.95605969    -11.54869641
 C     -7.41818445      8.37999993    -12.08499481
 C     -8.10347666      9.26493041    -13.14276258
 C     -9.57924332      8.90662414    -13.39835872
 C    -10.32087337      9.91164963    -14.29919645
 C    -11.42399362      9.27891782    -15.16774477
 C    -11.89322746     10.17085531    -16.33216184
 C    -12.97468623      9.52591959    -17.21878738
 C    -13.44041415     10.41593264    -18.38608094
 C    -14.41532229      9.72008066    -19.35403970
 C    -15.04853672     10.66504885    -20.39215078
 C    -15.97030601      9.95775918    -21.40293398
 C    -16.60454289     10.90291862    -22.44024649
 C    -17.53324246     10.19694614    -23.44559218
 C    -18.10860178     11.12901023    -24.52809770
 C    -18.91379241     10.39942855    -25.61941737
 C    -19.57764584     11.33996859    -26.64229715
 C    -20.48112872     10.62023001    -27.66077399
 C    -21.03685519     11.53932600    -28.76441825
 C    -21.58965099     10.78523570    -29.98808677
 C    -22.25492109     11.69570279    -31.03692678
 C    -23.18263604     10.95086104    -32.01475894
 C    -23.81454058     11.85434774    -33.08993727
 C    -24.87224394     11.14847969    -33.95862243
 C    -25.27101075     11.93397160    -35.22178809
 C    -25.88825336     11.06331160    -36.33199650
 C    -26.38470862     11.86222030    -37.55137218
 C    -27.07306146     11.00090732    -38.62650489
 C    -27.30935639     11.73424254    -39.95991561
 C    -27.18099762     10.83275963    -41.20187076
 C    -27.38588050     11.57269904    -42.53682869
 C    -27.11537088     10.70648276    -43.78105291
 C    -27.33456701     11.44210995    -45.11612058
 C    -27.11002770     10.56256658    -46.36014050
 C    -27.60939608     11.19472337    -47.67262251
 C    -27.39637508     10.30979986    -48.91485133
 C    -28.02876781     10.87308427    -50.20108230
 C    -28.01038494      9.89337922    -51.38912273
 C    -28.14803943     10.57340958    -52.76397180
 C    -27.65125005      9.71323498    -53.94078953
 C    -27.82021531     10.37957265    -55.31884789
 C    -27.06470068      9.66704645    -56.45599522
 C    -27.56656337     10.03093640    -57.86571787
 C    -26.78481290      9.34949253    -59.00418195
 C    -27.02031655      9.97878992    -60.38986692
 C    -26.18492804      9.34312478    -61.51665699
 C    -26.70756815      9.64878317    -62.93264438
 C    -25.72192797      9.28057134    -64.05715916
 C    -26.29154331      9.46801064    -65.47561073
 C    -25.27613087      9.19160578    -66.59994962
 C    -25.90064380      9.12767713    -68.00618456
 C    -24.90569208      8.74171326    -69.11645614
 C    -25.53309923      8.66473291    -70.52074753
 C    -24.50514511      8.67361551    -71.66740852
 C    -25.13220918      8.77941687    -73.06997643
 C    -24.10282133      8.90512573    -74.20846575
 C    -24.72730908      8.94978138    -75.61545577
 C    -23.70476469      9.15606492    -76.74835033
 C    -24.30498118      9.04337571    -78.16208344
 C    -23.40452034      9.61614072    -79.27235842
 C    -24.13907909      9.88278665    -80.59935631
 C    -23.20175148     10.15868951    -81.78969011
 C    -23.93548753     10.39865117    -83.12222522
 C    -23.17988921      9.87293467    -84.35684797
 C    -23.88321198     10.16873583    -85.69454702
 C    -23.17330272      9.56756952    -86.92183179
 C    -23.88367657      9.85232833    -88.25820053
 C    -25.32508042      9.31471209    -88.32836977
 C    -26.14442464      9.87112715    -89.50763960
 C    -27.50132784      9.17226703    -89.71259873
 C    -28.29984890      9.69664482    -90.92048616
 C    -29.75838642      9.20473883    -90.96841137
 C    -30.46180632      9.46057727    -92.31427435
 C    -31.81322790      8.73712850    -92.46219861
 C    -32.76895770      9.39601384    -93.47415249
 C    -33.93381113      8.49100078    -93.91649609
 C    -34.65539697      8.97530748    -95.18785792
 C    -35.74519843      8.01253054    -95.69480301
 C    -36.23144738      8.31387996    -97.12461086
 C    -37.43288720      7.45995220    -97.57064870
 C    -37.78268996      7.60232127    -99.06362193
 C    -38.32392660      8.99120946    -99.45047136
 C    -37.90647380      9.45638920   -100.85793040
 C    -38.40658782     10.86569097   -101.22583595
 C    -37.88500893     11.38178865   -102.57979262
 C    -38.49524883     12.72725371   -103.01445459
 C    -37.60681382     13.53586273   -103.97800775
 C    -37.86746102     15.05330761   -103.94600650
 C    -36.81563289     15.88561880   -104.70265416
 C    -37.12578200     17.39331502   -104.75018982
 C    -35.97211870     18.25312186   -105.29918268
 C    -36.28581897     19.75976841   -105.35582477
 C    -35.05116074     20.64800462   -105.59718654
 C    -35.38657077     22.06094706   -106.10972314
 C    -34.15374688     22.95873342   -106.32355698
 C    -34.49025961     24.37675582   -106.82112270
 C    -33.39237109     25.01080795   -107.69531872
 C    -33.77514109     26.38054704   -108.28599795
 C    -32.58492596     27.16757279   -108.86528924
 C    -32.94125776     28.59333707   -109.32553253
 C    -31.75063251     29.38103169   -109.90306926
 C    -32.11920885     30.78441445   -110.41908122
 C    -30.94341249     31.54492302   -111.05996313
 C    -31.26908158     33.00343173   -111.43183941
 C    -30.15910040     33.70822771   -112.23359024
 C    -30.67719228     34.77400360   -113.21710565
 C    -29.58037566     35.70451146   -113.76733146
 C    -30.09967708     36.77535961   -114.74468006
 C    -28.99199193     37.64662550   -115.36559016
 C    -29.42529590     38.39764168   -116.63831258
 C    -28.31545749     39.26322875   -117.26330677
 C    -28.76125842     40.04848766   -118.51079624
 C    -27.63317192     40.85680624   -119.17836041
 C    -28.12998417     42.03722593   -120.03357204
 C    -27.01093248     42.98551236   -120.50269479
 C    -27.49260459     44.10597279   -121.44299283
 C    -26.38482265     45.08903403   -121.86490488
 C    -26.81025745     46.07651014   -122.96740031
 C    -25.79457500     47.20550276   -123.22306579
 C    -26.27851336     48.26781666   -124.22750238
 C    -25.37549353     49.51278983   -124.30622337
 C    -25.78085062     50.51210209   -125.40561441
 C    -25.01046389     51.84462888   -125.35584866
 C    -25.67045405     52.98012824   -126.15999678
 C    -24.73044003     54.16189181   -126.46233518
 C    -25.40249642     55.31688754   -127.22779261
 C    -24.50276721     56.55294894   -127.41283195
 C    -25.25436345     57.80865024   -127.89232892
 C    -24.34082906     58.89667618   -128.48668106
 C    -25.09928746     60.11535991   -129.04449000
 C    -24.19697344     61.32108946   -129.36643049
 C    -24.96152245     62.55765540   -129.87433745
 C    -24.08886671     63.81842436   -130.01763289
 C    -24.89254445     65.11798347   -130.20959177
 C    -24.02196347     66.35770892   -130.48666502
 C    -24.82802280     67.63058064   -130.80551599
 C    -23.96094623     68.83304503   -131.22247836
 C    -24.75507260     70.13621708   -131.42913248
 C    -23.93011698     71.41584682   -131.19762445
 C    -24.65108226     72.71036944   -131.61717214
 C    -23.88590821     73.99785147   -131.25870500
 C    -24.12761832     75.16292937   -132.23633976
 C    -23.05567325     76.26677128   -132.17256826
 C    -23.40399115     77.52599499   -132.98781686
 C    -22.35891315     78.65182162   -132.87860896
 C    -22.65962795     79.87387105   -133.76617067
 C    -21.61954694     81.00360945   -133.64988378
 C    -22.06036839     82.32986259   -134.29666741
 C    -21.47211775     83.58233960   -133.62075135
 C    -22.19456659     84.89121400   -133.99023137
 C    -21.44753150     86.16439771   -133.55143549
 C    -22.32352502     87.43089437   -133.53655021
 C    -21.89758830     88.47481318   -132.48754524
 C    -22.80776166     89.71588591   -132.43348095
 C    -22.40287051     90.74331023   -131.36013924
 C    -23.36654970     91.93872182   -131.24218347
 C    -22.78850639     93.13477042   -130.46312399
 C    -23.76427594     94.31707826   -130.31607997
 C    -23.26235890     95.43052726   -129.37804446
 C    -24.37863516     96.34034849   -128.83237731
 C    -23.87563216     97.45973789   -127.90202502
 C    -24.99114764     98.15805116   -127.10228520
 C    -24.49164996     99.29661779   -126.19356737
 C    -25.60948165    100.00739414   -125.40816984
 C    -25.10037663    100.88510951   -124.24971060
 C    -24.85826299    100.11373358   -122.93900081
 C    -23.99293132    100.87296075   -121.91607598
 C    -23.43302888     99.98606559   -120.78845626
 C    -22.47872087    100.72095370   -119.82885443
 C    -22.10126694     99.90810149   -118.57649673
 C    -21.34328258    100.71855080   -117.50868043
 C    -20.76033239     99.86220917   -116.36918577
 C    -21.76057751     98.85947583   -115.76450772
 C    -21.19891950     98.05164120   -114.57979530
 C    -22.23284858     97.13407448   -113.90107447
 C    -21.62632877     96.15694888   -112.87688734
 C    -22.67186098     95.41586401   -112.02292268
 C    -22.11503282     94.18994792   -111.27547895
 C    -23.18847908     93.16309177   -110.86942529
 C    -22.61845707     91.80183850   -110.42935209
 C    -23.68099488     90.81726337   -109.90664257
 C    -23.14218288     89.40047797   -109.63461179
 C    -24.19402460     88.42820903   -109.06899521
 C    -23.61596366     87.07510632   -108.61450802
 C    -24.65543970     86.13000464   -107.98373674
 C    -24.05485946     84.83613428   -107.40338956
 C    -25.09471433     83.73765305   -107.11418233
 C    -24.72153808     82.81582858   -105.93835108
 C    -25.68643783     81.63213965   -105.73973339
 C    -25.19875589     80.59172029   -104.71440716
 C    -25.92666880     79.23741813   -104.80163364
 C    -25.13346639     78.06034606   -104.20419636
 C    -25.89731648     76.72314779   -104.21001183
 C    -25.25267163     75.62974216   -103.33794695
 C    -25.75806154     74.20714108   -103.64189958
 C    -25.01739049     73.10063320   -102.86817695
 C    -25.74718076     71.74454679   -102.86219180
 C    -24.95169349     70.60807578   -102.19343650
 C    -25.68533426     69.25412988   -102.17923362
 C    -25.04117544     68.20231478   -101.25709241
 C    -25.89409735     66.93524535   -101.06047281
 C    -25.39638639     66.01416989    -99.93109076
 C    -25.95405877     64.58037239   -100.00056187
 C    -25.19702750     63.57040611    -99.11825139
 C    -25.87571717     62.19144038    -99.02112341
 C    -25.32698118     61.30148645    -97.89042857
 C    -25.58435435     59.79718377    -98.09642008
 C    -25.48308256     58.96198893    -96.80653884
 C    -26.37315539     57.70526524    -96.80254875
 C    -26.40875969     56.96720722    -95.45140009
 C    -27.22467648     55.66128164    -95.47233218
 C    -27.28766110     54.94019979    -94.11304048
 C    -28.19684380     53.69725156    -94.10488573
 C    -28.00198636     52.78669463    -92.87829833
 C    -29.16448473     51.80640796    -92.63491472
 C    -28.95162319     50.86860323    -91.43207963
 C    -30.13856484     49.92773060    -91.15364075
 C    -30.16698430     49.36215878    -89.72153711
 C    -31.24723430     48.28856101    -89.49339730
 C    -31.18378419     47.62080551    -88.10715177
 C    -32.22811507     46.50822946    -87.89943189
 C    -31.99510575     45.65828559    -86.63653756
 C    -33.22974880     44.85640643    -86.18460134
 C    -32.91492008     43.73902974    -85.17269610
 C    -34.06415664     43.43987845    -84.19220448
 C    -33.66364109     42.52894731    -83.01687825
 C    -34.84197602     42.11356951    -82.11655160
 C    -34.43116357     41.26451866    -80.89919964
 C    -35.61994628     40.70172052    -80.09816661
 C    -36.27373293     39.46158205    -80.73552019
 C    -36.89590770     38.48832752    -79.71705360
 C    -35.89443322     37.48288961    -79.11893699
 C    -36.52498197     36.13875500    -78.70990102
 C    -35.51880638     35.12351163    -78.13675916
 C    -36.11649571     33.72846251    -77.87559751
 C    -35.09102177     32.68945729    -77.38521872
 C    -35.44344623     31.23736548    -77.75781284
 C    -34.47738074     30.18910552    -77.17517357
 C    -35.00504532     28.74399516    -77.24464391
 C    -34.06416398     27.70247609    -76.61094025
 C    -34.50847482     26.24379967    -76.82646514
 C    -34.11792845     25.29398558    -75.67889087
 C    -34.65734417     23.86068956    -75.84104271
 C    -33.90243009     22.80918878    -75.00674609
 C    -34.16346424     21.35627927    -75.44551152
 C    -33.35050278     20.30948762    -74.66134259
 C    -33.39743763     18.89562651    -75.26994251
 C    -32.40489017     17.90586623    -74.63211483
 C    -32.44127455     16.49608086    -75.25080812
 C    -31.35451816     15.54731107    -74.71192369
 C    -31.43614618     14.11668758    -75.27606311
 C    -30.40053927     13.14707517    -74.67692198
 C    -30.65852373     11.66717981    -75.01597029
 C    -29.52026331     10.72003827    -74.59302101
 C    -29.83707491      9.22753538    -74.80198401
 C    -28.62832074      8.29581416    -74.59604977
 C    -28.94583862      6.80304964    -74.80205093
 C    -27.70005288      5.89934287    -74.85619850
 C    -28.01859081      4.40378702    -75.03908174
 C    -26.78272039      3.53050137    -75.32473271
 C    -27.09236461      2.02665872    -75.44380305
 C    -25.84471163      1.12492880    -75.40084729
 C    -26.15048892     -0.35338931    -75.09642027
 C    -24.89640840     -1.22138631    -74.88319914
 C    -25.19064427     -2.61254715    -74.29184750
 C    -23.93831237     -3.48666244    -74.09388974
 C    -24.23320550     -4.88001169    -73.50804344
 C    -23.01272952     -5.81875691    -73.47983355
 C    -23.29925791     -7.20029053    -72.86268986
 C    -22.03365661     -8.00968208    -72.52395890
 C    -22.29819424     -9.24874562    -71.64854963
 C    -21.11994191    -10.23874923    -71.59185462
 C    -21.35147437    -11.43470879    -70.64969038
 C    -20.11967981    -12.34238914    -70.47533857
 C    -20.36415572    -13.56265413    -69.56826367
 C    -19.08962052    -14.35948411    -69.23326814
 C    -19.35778039    -15.70450678    -68.53283663
 C    -18.08343078    -16.50298897    -68.20108483
 C    -18.35016181    -17.83652467    -67.47849429
 C    -17.08897001    -18.48940413    -66.88289067
 C    -17.36806467    -19.77356388    -66.07999597
 C    -16.10561407    -20.43284042    -65.49418634
 C    -16.37247789    -21.76854045    -64.77565373
 C    -15.10771809    -22.43610283    -64.20438923
 C    -15.34578146    -23.84894712    -63.63976826
 C    -14.41004913    -24.22413187    -62.47561990
 C    -15.03994858    -25.18535138    -61.45049369
 C    -14.08167846    -25.61599595    -60.32449918
 C    -14.73933567    -26.49459370    -59.24415063
 C    -13.80733795    -26.84585136    -58.06958761
 C    -14.30418078    -28.01945673    -57.20506599
 C    -13.64345099    -28.09803327    -55.81623127
 C    -14.38457670    -29.00973605    -54.82067579
 C    -13.78747983    -29.00308000    -53.40115791
 C    -14.55031087    -29.88657402    -52.39660471
 C    -14.01069961    -29.80681397    -50.95644568
 C    -15.04270469    -30.18806985    -49.87885138
 C    -14.46017360    -30.27284594    -48.45580164
 C    -15.50758706    -30.57106328    -47.36695296
 C    -14.91116913    -30.76499629    -45.96044109
 C    -15.96504502    -30.87558897    -44.84298197
 C    -15.38996756    -30.72424734    -43.42242516
 C    -16.46069706    -30.64389582    -42.31848586
 C    -15.95019123    -31.04031388    -40.92068884
 C    -16.69162834    -30.34633803    -39.76298917
 C    -15.83919743    -30.16330931    -38.49355543
 C    -16.48689972    -29.25813816    -37.42924958
 C    -15.66548237    -29.12877534    -36.13304790
 C    -16.24742596    -28.12520657    -35.12023430
 C    -15.34650946    -27.87693245    -33.89617979
 C    -15.90857979    -26.84147574    -32.90446092
 C    -15.00960776    -26.59620454    -31.67837310
 C    -15.44976371    -25.40502478    -30.80719372
 C    -14.60627398    -25.21563476    -29.53273050
 C    -14.99385783    -23.97728278    -28.70335535
 C    -14.14160815    -23.78048331    -27.43586159
 C    -14.12537351    -22.33296205    -26.91048683
 C    -13.51920729    -22.18434916    -25.50262436
 C    -13.57324437    -20.74961845    -24.94564340
 C    -13.02655464    -20.61308565    -23.51243402
 C    -13.33141346    -19.25549375    -22.85242997
 C    -12.65611801    -19.05939067    -21.48234982
 C    -12.77267463    -17.62825925    -20.92568348
 C    -12.04478221    -17.41635649    -19.58520975
 C    -12.32953297    -16.05384399    -18.92636477
 C    -12.13857498    -16.04487630    -17.39827622
 C    -13.36602077    -16.53959276    -16.61072784
 C    -13.34372568    -16.16649290    -15.11677355
 C    -14.63798820    -16.52375864    -14.36255494
 C    -14.86254516    -15.70195730    -13.07966105
 C    -15.83800397    -16.35292213    -12.08150029
 C    -16.99121612    -15.43199932    -11.64149700
 C    -17.73942225    -15.92070921    -10.38732387
 C    -18.90688406    -15.01164154     -9.96044109
 C    -19.48754020    -15.34722096     -8.57414210
 C    -20.60145428    -14.38904981     -8.11294426
 C    -21.36990962    -14.87412128     -6.86964942
 C    -22.47374945    -13.90871682     -6.39940282
 C    -23.29347937    -14.42906541     -5.20404504
 C    -22.45030685    -15.13601175     -4.12660040
 C    -22.07051823    -14.23463981     -2.93710923
 C    -21.34622718    -14.97425883     -1.79694864
 C    -21.20114008    -14.14676612     -0.50628775
 C    -20.21834013    -14.74758926      0.51582566
 C    -19.84788180    -13.79187138      1.66515762
 C    -18.57811322    -14.20036687      2.43484535
 C    -18.30358986    -13.34788987      3.68765017
 C    -17.11311340    -13.83996579      4.53158564
 C    -16.70782486    -12.87796236      5.66379172
 C    -15.43672629    -13.30323978      6.42211062
 C    -15.08925806    -12.39866569      7.61902814
 C    -13.98296804    -12.96254571      8.52994072
 C    -13.59497230    -12.03176602      9.69386017
 C    -14.75113144    -11.72724478     10.66451091
 C    -14.32555258    -10.94136910     11.91865685
 C    -15.40565397    -10.87788197     13.01453566
 C    -15.07126698     -9.91449863     14.16851914
 C    -16.29457889     -9.48256044     14.99830065
 C    -15.94864028     -8.59715855     16.20990701
 C    -17.17249985     -8.16054176     17.03642592
 C    -16.84012711     -7.76678531     18.48766134
 C    -18.03076019     -7.17453803     19.26434403
 C    -17.65436809     -6.59264768     20.63960132
 C    -16.59554038     -5.47605290     20.57877379
 C    -16.54248276     -4.59377468     21.83987254
 C    -15.45207356     -3.50707915     21.79863414
 C    -15.64587758     -2.38558308     22.83607646
 C    -14.41904748     -1.47030086     23.00562402
 C    -14.62959154     -0.31975650     24.00738190
 C    -13.34341628      0.45390494     24.35205738
 C    -12.78149858      1.28658982     23.18480231
 C    -11.64924872      2.24866870     23.58978932
 C    -11.07995645      3.07351303     22.42054250
 C     -9.94002358      4.02735354     22.82345853
 C     -9.68274485      5.15886063     21.81098662
 C     -8.58894521      6.15184919     22.24593039
 C     -8.49942500      7.41102922     21.36385795
 C     -7.24664649      8.26871218     21.62178420
 C     -7.15501322      9.52568552     20.73678625
 C     -5.75316527     10.16186240     20.69553947
 C     -5.70324074     11.52132531     19.97375824
 C     -4.27694663     12.02493131     19.68450732
 C     -4.22712874     13.38040485     18.95525450
 C     -2.96464024     13.58400806     18.09719358
 C     -3.24220533     13.66905793     16.58480338
 C     -1.97590383     13.83255717     15.72378740
 C     -2.25284133     13.90998485     14.21087281
 C     -0.98400155     14.03786091     13.34756909
 C     -1.26512867     14.27698250     11.85244756
 C     -0.05919547     13.99866197     10.93600727
 C     -0.41626678     13.90958011      9.44062621
 C      0.80421991     13.94377473      8.50209385
 C      0.44287834     14.02882339      7.00750394
 C      1.64902370     13.87819869      6.06192181
 C      1.28241904     13.92386683      4.56689157
 C      2.49123788     13.79613915      3.62135328
 C      2.11163902     13.63692445      2.13738718
 C      3.31817110     13.62028191      1.18051553
 C      2.93931522     13.44907764     -0.30230520
 C      4.14871448     13.32049368     -1.24698482
 C      3.83431804     12.60315030     -2.57294611
 C      5.00771016     12.58751946     -3.57019563
 C      4.75904799     11.71764088     -4.81642128
 C      4.76063000     10.20374954     -4.53405536
 C      6.16491445      9.57197402     -4.51296381
 C      6.29385252      8.36330508     -3.56739817
 C      5.64408366      8.57550120     -2.18740786
 C      5.89552547      7.42650201     -1.19333650
 C      4.96988677      7.44904883      0.03722623
 C      4.91927942      6.11646394      0.80745764
 C      4.00444696      6.14320772      2.04599158
 C      4.03167976      4.84438816      2.87298984
 C      3.09675713      4.86121213      4.09660605
 C      2.76277716      3.46302049      4.64898049
 C      1.80831023      3.47852149      5.85743098
 C      0.46679674      4.18479828      5.58703377
 C      0.15782162      5.33670817      6.56132221
 C     -1.15964165      6.07520212      6.26046139
 C     -1.08170223      7.60059284      6.45720641
 C      0.11612812      8.26280853      5.75132199
 C      0.44814279      9.67366247      6.27176165
 C      1.70810739     10.29396821      5.63985186
 C      3.01303975      9.95795534      6.38540327
 C      4.28897194     10.40137293      5.64582375
 C      5.59263992     10.09109706      6.40462457
 C      6.86831884     10.28811933      5.56472842
 C      7.23950121      9.07271228      4.69489547
 C      8.21103767      9.39849694      3.54529499
 C      8.52260531      8.19995411      2.62986030
 C      9.11323324      6.98453684      3.36845323
 C      9.78693193      5.95526796      2.44198917
 C      8.80696454      5.20768129      1.51874593
 C      9.49360156      4.33140360      0.45466557
 C      8.54861735      3.84163273     -0.65831661
 C      7.43329575      2.90159118     -0.16437370
 C      6.66036366      2.19817023     -1.29546828
 C      6.00109401      3.16344263     -2.29807125
 C      5.04540083      2.47764721     -3.29202054
 C      4.03150810      3.43377414     -3.94733941
 C      3.44686427      4.48315323     -2.98370300
 C      2.56099496      5.53930473     -3.67027389
 C      2.26602408      6.77295003     -2.79694037
 C      1.41119850      6.46946559     -1.55244432
 C      1.23469571      7.67106494     -0.60555162
 C      0.61020015      8.90949605     -1.27480021
 C      0.26140660     10.04324894     -0.29268645
 C     -0.19478466     11.34572428     -0.97609519
 C     -0.65987249     12.43807887      0.00474871
 C     -1.68808246     11.95132202      1.04275258
 C     -2.09864599     13.02415751      2.06845312
 C     -2.96893722     12.48869412      3.22061289
 C     -3.04943687     13.43183798      4.43535544
 C     -3.46737998     12.73442559      5.74323139
 C     -3.65189458     13.69401264      6.93350324
 H     -0.36333333      0.00000000      1.02766186
 H     -0.36333333     -0.88998127     -0.51383093
 H     -0.36333333      0.88998127     -0.51383093
 H      1.88274777      0.75849553      0.70378158
 H      1.88274777      0.94856548      0.41333702
 H      3.23320997      0.35986317      1.27236064
 H      3.10052850      1.07612983      1.01096909
 H      4.04852828      1.28662041      2.04060975
 H      4.05012914      0.44849491      2.30431347
 H      5.27361347      0.71162165      2.74309284
 H      5.39273551      0.96791062      2.55406381
 H      6.26944481      2.13615877      2.69631526
 H      6.17371147      1.02670195      3.62462312
 H      7.36340694      1.25808237      4.12112052
 H      7.43552737      1.33402305      4.03890253
 H      8.40014169      2.74710078      4.22548373
 H      8.36815967      1.39802842      4.76130446
 H      9.19394484      3.38721944      4.69475149
 H      7.87518754      2.94939532      5.61779585
 H      7.82148873      4.09393078      6.18277325
 H      8.87613508      4.39832137      6.00089866
 H      8.87824286      5.68212119      6.34776850
 H      7.95124896      5.16983072      6.95160864
 H      7.09162016      5.93661552      6.35912818
 H      7.28154114      5.67294722      7.62887581
 H      5.99862778      6.55063498      7.03159772
 H      6.06168425      6.64648783      7.26581929
 H      4.97945354      7.06833822      7.73189354
 H      6.61390803      7.12937877      8.96853593
 H      4.35657803      5.89386098      9.04090189
 H      4.10213278      7.76297484      8.65775553
 H      4.14558029      8.80310934      9.03292684
 H      4.53038006      7.68294717     10.36162264
 H      2.54248139      8.07165757     11.01591736
 H      1.92476227      7.74521538     10.08489777
 H      1.23120697      8.63353210     10.08512987
 H      2.49450814      9.07809478     11.44840112
 H      0.08872601      7.21419303     10.75226458
 H      0.43893395      8.22267069      9.32797743
 H     -0.09998294     10.26120741     10.48075957
 H     -0.47995331      9.35156136     11.96279643
 H     -2.27560265      8.14876917     11.06624839
 H     -2.08164310      8.94434630      9.48583598
 H     -2.58738845     11.12094897     10.42916549
 H     -2.79874478     10.39156422     12.03900805
 H     -4.75969622      9.31298556     10.39179135
 H     -4.02363211     10.33951925      9.13771604
 H     -4.75513767     12.29852005     10.60197087
 H     -5.43686217     11.12746775     11.75616101
 H     -7.01900613     10.45188360      9.89928671
 H     -6.29015009     11.12619265      8.84769791
 H     -5.62732669     11.17156342      7.93338577
 H     -5.82553077     12.86569324      8.44221379
 H     -8.29906114     12.54619773      8.02183569
 H     -7.96911759     10.86545348      7.53758091
 H     -6.27191024     11.64144942      5.86430403
 H     -6.74857384     12.85673389      5.83080377
 H     -6.66992142      9.90720284      5.78193054
 H     -5.34485479     11.06175663      6.06383590
 H     -6.02617974     11.68705953      3.56070309
 H     -7.26641356     10.41702790      3.69149444
 H     -5.56280052      8.69824740      3.96486530
 H     -4.28366412      9.92959136      3.83889388
 H     -4.57342398     10.70190748      1.78140399
 H     -5.93480903      9.59914429      1.46706223
 H     -4.15817355      7.75449240      1.78593194
 H     -2.95904782      9.03727565      2.07719005
 H     -3.73119556      9.47679170     -0.48690192
 H     -4.81211166      8.08062645     -0.26193604
 H     -3.07440311      6.51992177      0.07833626
 H     -1.84131124      7.78760767     -0.12346456
 H     -3.10081776      7.67976863     -2.54511473
 H     -4.10334785      6.40813121     -1.80610299
 H     -1.98842186      5.05123908     -1.59005307
 H     -1.08464692      6.39006151     -2.33772415
 H     -1.61336327      5.65266107     -4.39843839
 H     -3.29249143      4.73444385     -3.63174240
 H     -0.52541386      4.12276685     -3.88503142
 H     -0.46438759      5.74352051     -4.61831175
 H     -2.30171854      5.08132868     -6.22551916
 H     -2.07008415      3.92689029     -6.13896321
 H     -1.34875558      6.78238290     -6.49173061
 H     -2.94897691      6.07207040     -6.17077187
 H     -2.74518606      4.90239201     -8.38807154
 H     -1.15086454      5.66058152     -8.61512712
 H     -2.74081979      7.81063652     -8.56838997
 H     -4.09068787      6.67404332     -8.33541204
 H     -2.86752605      6.23221993    -10.84818645
 H     -1.80041399      7.55667810    -10.32344933
 H     -3.56984598      9.16092095    -10.25141841
 H     -4.71078164      8.13864143    -10.43684364
 H     -5.50688505      7.75284019     -9.78709430
 H     -5.37003166      7.01500108    -11.40113621
 H     -5.77291971      9.01047522    -12.58875638
 H     -5.95093567      9.92610514    -11.07277524
 H     -7.98258671      7.97751428    -11.24383170
 H     -7.18429907      7.57645837    -12.78336334
 H     -7.41872883      9.38883936    -13.98173039
 H     -8.30923758     10.23720606    -12.69505452
 H    -10.12439057      9.00950600    -12.46009981
 H     -9.62719100      7.87093865    -13.73474628
 H     -9.80734985      9.95487009    -15.25967841
 H    -10.28357238     10.89134039    -13.82284086
 H    -12.15232231      8.80811603    -14.50745469
 H    -10.96689191      8.52090624    -15.80380802
 H    -11.03454894     10.38260759    -16.96928990
 H    -12.27629944     11.10306619    -15.91702484
 H    -13.83769910      9.29574348    -16.59402523
 H    -12.57102724      8.60297591    -17.63512184
 H    -12.57602486     10.64283205    -19.01013849
 H    -13.84281906     11.34070911    -17.97260932
 H    -15.29388875      9.40742884    -18.78970840
 H    -13.91879502      8.84285401    -19.76880959
 H    -14.24787766     11.11664688    -20.97790183
 H    -15.59282213     11.44456227    -19.85903520
 H    -16.77253074      9.46807086    -20.85090062
 H    -15.38458472      9.20775432    -21.93446317
 H    -15.80285434     11.39340559    -22.99234974
 H    -17.19049514     11.65226832    -21.90804823
 H    -18.33485852      9.71132300    -22.88910151
 H    -16.95256251      9.44372090    -23.97809807
 H    -17.27719985     11.56816488    -25.07947237
 H    -18.67489163     11.91887848    -24.03461623
 H    -19.74227528      9.87617635    -25.14200427
 H    -18.25775255      9.67594381    -26.10344374
 H    -18.79643163     11.92579336    -27.12666653
 H    -20.25281440     12.00724029    -26.10657717
 H    -21.26693833     10.09926224    -27.11378603
 H    -19.87511366      9.89548660    -28.20445841
 H    -20.19557480     11.97703760    -29.30177833
 H    -21.61721309     12.33123604    -28.29095950
 H    -22.39241355     10.12880985    -29.65226333
 H    -20.78468953     10.18626572    -30.41396470
 H    -21.51456780     12.41639934    -31.38416371
 H    -23.07966414     12.22392778    -30.55851559
 H    -23.96771285     10.46234725    -31.43760325
 H    -22.59447225     10.19739248    -32.53863726
 H    -23.01169185     12.31680356    -33.66410494
 H    -24.39544203     12.62863685    -32.58880866
 H    -25.66613661     10.78638750    -33.30538152
 H    -24.39782919     10.30306902    -34.45693100
 H    -24.37725312     12.08692802    -35.82668612
 H    -25.67036666     12.89998626    -34.91286977
 H    -26.78021031     10.58042278    -35.93283339
 H    -25.16021934     10.30358551    -36.61639541
 H    -25.53894234     12.40579639    -37.97244752
 H    -27.13984787     12.57132577    -37.21220532
 H    -27.92931195     10.50360968    -38.17084039
 H    -26.36079218     10.25253651    -38.97394353
 H    -26.34411973     12.05979750    -40.34777148
 H    -27.93541287     12.60515609    -39.76584639
 H    -27.91210001     10.02859789    -41.11872517
 H    -26.17629465     10.41031326    -41.21639701
 H    -26.63905163     12.36339444    -42.60857427
 H    -28.38274141     12.01356690    -42.53486333
 H    -27.79022207      9.85087489    -43.75633375
 H    -26.08383151     10.35698803    -43.73769433
 H    -26.66725040     12.30342782    -45.14645308
 H    -28.36931108     11.78265921    -45.15394815
 H    -27.80183723      9.72147843    -46.31464002
 H    -26.08528236     10.19178826    -46.33732763
 H    -27.08372899     12.13808445    -47.82041957
 H    -28.67821293     11.38559466    -47.57619272
 H    -27.92879883      9.37099782    -48.76228766
 H    -26.32944380     10.11033279    -49.01470386
 H    -27.59093517     11.85163170    -50.39818005
 H    -29.10091648     10.98113085    -50.03699947
 H    -28.55877647      8.99618973    -51.10203781
 H    -26.97371486      9.63285988    -51.60253506
 H    -27.32140775     11.27362189    -52.88431628
 H    -29.09174632     11.11850088    -52.78379030
 H    -28.22776588      8.78831418    -53.95663321
 H    -26.59870941      9.48253616    -53.77636244
 H    -27.26093100     11.31514758    -55.31806589
 H    -28.87901697     10.58934367    -55.47062124
 H    -27.43248475      8.64315655    -56.52296054
 H    -26.00327705      9.65637136    -56.20827376
 H    -27.45567690     11.10669185    -58.00193243
 H    -28.62086317      9.76281866    -57.93401724
 H    -26.86805445      8.26993340    -58.87879085
 H    -25.73847320      9.64473510    -58.92604707
 H    -26.71975880     11.02563282    -60.34645049
 H    -28.08412259      9.91539944    -60.61877379
 H    -26.43628786      8.28405378    -61.57398813
 H    -25.13007518      9.45309126    -61.26507638
 H    -26.70581586     10.72974398    -63.07271811
 H    -27.72825268      9.27409974    -63.00955610
 H    -25.51146078      8.21303918    -63.99251677
 H    -24.80072871      9.84249701    -63.90310893
 H    -26.57386932     10.51388966    -65.59614745
 H    -27.17612938      8.83903805    -65.57561552
 H    -24.92912891      8.16286196    -66.50312086
 H    -24.43388254      9.87232616    -66.47610489
 H    -26.38572352     10.08237903    -68.20951176
 H    -26.64600416      8.33239666    -68.01436469
 H    -24.49194475      7.76133815    -68.88028290
 H    -24.10435106      9.48046453    -69.13056732
 H    -25.95419306      9.64073730    -70.76198481
 H    -26.32926529      7.92055964    -70.50011404
 H    -23.84275062      7.81732217    -71.54054149
 H    -23.92551795      9.59433203    -71.60097483
 H    -25.70837386      9.70339163    -73.11901620
 H    -25.79780875      7.92816049    -73.21294425
 H    -23.45845455      8.02625734    -74.18651541
 H    -23.50434812      9.79893076    -74.03227727
 H    -25.39953363      9.80637591    -75.66505369
 H    -25.29599150      8.03237242    -75.76731460
 H    -22.98843564      8.33508856    -76.71719758
 H    -23.18532145     10.09831109    -76.57384857
 H    -25.08599987      9.79686120    -78.26391380
 H    -24.74152400      8.05056418    -78.27096695
 H    -22.45752054      9.07661620    -79.25805214
 H    -23.22555822     10.66996325    -79.05897931
 H    -24.94306377     10.59380726    -80.40920290
 H    -24.56185366      8.94208413    -80.95211746
 H    -22.55452604      9.29204735    -81.92434002
 H    -22.59455643     11.03227717    -81.55250080
 H    -24.59607958     11.25701244    -83.00002023
 H    -24.52869871      9.51332311    -83.35112419
 H    -23.03062814      8.79997077    -84.23614335
 H    -22.21169899     10.37140835    -84.40408871
 H    -23.99162883     11.24882645    -85.79328931
 H    -24.86942727      9.70503195    -85.67314313
 H    -23.12259422      8.48639997    -86.79298673
 H    -22.16365970      9.97574215    -86.96783274
 H    -23.94292573     10.93252215    -88.39150790
 H    -24.95955158      9.84117780    -88.08364789
 H    -25.90266148      9.77698489    -87.52786744
 H    -25.29599298      8.23540926    -88.17883947
 H    -25.63458774      9.60692576    -90.43411893
 H    -26.18752866     10.95618295    -89.41332119
 H    -28.08838219      9.28967747    -88.80172993
 H    -27.31760531      8.11302049    -89.89243981
 H    -27.69946456      9.54951126    -91.81825582
 H    -28.48127775     10.76157683    -90.77521609
 H    -30.26038761      9.53144971    -90.05772218
 H    -29.75159720      8.11550771    -91.00877803
 H    -29.90153441      8.94858489    -93.09661647
 H    -30.45551160     10.53360414    -92.50577815
 H    -32.47183361      9.07414309    -91.66172395
 H    -31.64081946      7.66535229    -92.36385688
 H    -32.27974601      9.41089951    -94.44808798
 H    -32.96128086     10.41829689    -93.14850058
 H    -34.50819270      8.21485900    -93.03222717
 H    -33.51633554      7.59374572    -94.37338500
 H    -33.92846015      9.01928423    -95.99886280
 H    -35.04974901      9.97374080    -94.99886748
 H    -36.48699865      7.88853899    -94.90584260
 H    -35.27967131      7.05077164    -95.91021965
 H    -35.37679606      8.24929631    -97.79803500
 H    -36.63325175      9.32694075    -97.14361295
 H    -38.25794909      7.64310572    -96.88229729
 H    -37.14443480      6.40999135    -97.52087502
 H    -36.91341211      7.30335208    -99.64934665
 H    -37.46077920      8.58836877    -99.39856040
 H    -37.56658490      9.73518701    -99.20342692
 H    -39.22490161      9.18249832    -98.86758835
 H    -38.27589258      8.73060220   -101.58240469
 H    -36.81774794      9.48911546   -100.89922206
 H    -38.00631968     11.57211235   -100.49861228
 H    -39.49530862     10.86764670   -101.17308005
 H    -38.20754568     10.68972417   -103.35768516
 H    -36.79589346     11.40367987   -102.54173669
 H    -38.26368306     13.47092223   -102.25193612
 H    -39.57602104     12.60586160   -103.08722397
 H    -37.43275287     12.93429203   -104.87014870
 H    -36.65641527     13.73462902   -103.48269517
 H    -37.68729375     15.41071570   -102.93215285
 H    -38.90978753     15.22774083   -104.21289320
 H    -36.80584297     15.56140358   -105.74327352
 H    -35.84066932     15.69577651   -104.25376004
 H    -37.18436608     17.76362450   -103.72669639
 H    -38.08909283     17.52974861   -105.24163476
 H    -35.74618698     17.91759476   -106.31134691
 H    -35.09974831     18.10253596   -104.66326303
 H    -36.51653593     20.10001812   -104.34632003
 H    -37.15606854     19.90484414   -105.99591750
 H    -34.59900400     20.35617756   -106.54507433
 H    -34.34158025     20.47583685   -104.78789439
 H    -36.02250446     22.55099067   -105.37246769
 H    -35.92866320     21.96459184   -107.05044173
 H    -33.50051322     22.47645155   -107.05073645
 H    -33.63033074     23.05449240   -105.37226010
 H    -35.13793959     24.85345876   -106.08534763
 H    -35.02005681     24.29038728   -107.76978249
 H    -33.23387473     24.37146058   -108.56377358
 H    -32.47463261     25.06194046   -107.10945051
 H    -33.99258153     27.06038527   -107.46220208
 H    -34.66864243     26.25269656   -108.89707047
 H    -32.12980018     26.56908988   -109.65445255
 H    -31.85983709     27.32884444   -108.06758154
 H    -33.33096418     29.14277434   -108.46859169
 H    -33.71192935     28.52314690   -110.09315134
 H    -31.35961818     28.83202464   -110.75968998
 H    -30.98096112     29.45129351   -109.13445413
 H    -32.53817157     31.35520557   -109.59036671
 H    -32.87011896     30.67557565   -111.20163353
 H    -30.57229273     30.95748555   -111.89977701
 H    -30.15578557     31.65001038   -110.31383950
 H    -31.56456386     33.53063734   -110.52473165
 H    -32.10015257     32.99993738   -112.13711156
 H    -29.99320016     33.14865456   -113.15416344
 H    -29.24782866     33.70228831   -111.63555300
 H    -31.22170340     35.52849745   -112.64934985
 H    -31.35422842     34.29035386   -113.92123987
 H    -28.83949623     35.09354230   -114.28300030
 H    -29.10958524     36.21398869   -112.92656435
 H    -30.83750666     37.38572655   -114.22395010
 H    -30.57442487     36.27029032   -115.58588132
 H    -28.30496200     36.99459213   -115.90498089
 H    -28.45828980     38.14891181   -114.55876273
 H    -30.26735317     39.04215489   -116.38603838
 H    -29.73944659     37.66290481   -117.37964320
 H    -27.47682131     38.61473244   -117.51676662
 H    -27.99627011     39.99768788   -116.52385481
 H    -29.58681957     40.70153489   -118.22781547
 H    -29.10289734     39.33517001   -119.26083676
 H    -26.84384360     40.16512786   -119.47271026
 H    -27.24160859     41.56578633   -118.44889117
 H    -28.69983531     42.70935806   -119.39200515
 H    -28.77929860     41.64428219   -120.81593129
 H    -26.29907670     42.40956133   -121.09399993
 H    -26.51040152     43.38729322   -119.62170620
 H    -28.24347936     44.69562529   -120.91706791
 H    -27.94275688     43.64550287   -122.32244173
 H    -25.60301446     44.52612151   -122.37481219
 H    -25.97405952     45.54885558   -120.96605129
 H    -27.65951490     46.65359544   -122.60156654
 H    -27.11137632     45.50273735   -123.84387746
 H    -24.84634344     46.75392737   -123.51467612
 H    -25.66153271     47.76325833   -122.29607687
 H    -27.19535646     48.71269940   -123.84074913
 H    -26.48683947     47.77290470   -125.17606043
 H    -24.37584754     49.19307738   -124.60048829
 H    -25.33450135     49.96955198   -123.31739175
 H    -26.80161470     50.84086094   -125.21052900
 H    -25.74176499     49.99902324   -126.36651108
 H    -23.94717390     51.63000868   -125.46286533
 H    -25.19159037     52.30926078   -124.38661680
 H    -26.67044531     53.14720139   -125.75974181
 H    -25.74367813     52.66522491   -127.20094545
 H    -23.88084978     53.78676779   -127.03292995
 H    -24.37954316     54.57172797   -125.51523133
 H    -26.23540978     55.68588421   -126.62929718
 H    -25.77912349     54.92780688   -128.17376739
 H    -23.61224119     56.24937154   -127.96319926
 H    -24.21397859     56.91735012   -126.42697552
 H    -26.02187805     58.05036498   -127.15707704
 H    -25.72584244     57.58167136   -128.84851308
 H    -23.80842412     58.47033506   -129.33690352
 H    -23.62388235     59.19721006   -127.72263473
 H    -25.67830521     60.55887671   -128.23447068
 H    -25.77477006     59.76987598   -129.82709086
 H    -23.45882258     61.00917276   -130.10530888
 H    -23.68904264     61.62328660   -128.45057942
 H    -25.67487742     62.85858980   -129.10709357
 H    -25.49881895     62.27985763   -130.78111243
 H    -23.28441084     63.60043143   -130.72007850
 H    -23.66492378     64.05457688   -129.04161835
 H    -25.54434247     65.24865385   -129.34577200
 H    -25.49850361     65.01641744   -131.10992384
 H    -23.44401814     66.17514294   -131.39261693
 H    -23.34370833     66.49538155   -129.64457464
 H    -25.47451940     67.84878467   -129.95549885
 H    -25.43951358     67.43724634   -131.68687907
 H    -23.39378853     68.55500236   -132.11080511
 H    -23.27274592     69.05826091   -130.40776483
 H    -25.25714436     70.38362107   -130.49381691
 H    -25.49940552     69.96437430   -132.20665325
 H    -23.09015922     71.41250544   -131.89228969
 H    -23.55527351     71.40152435   -130.17420507
 H    -25.57467771     72.78956787   -131.04376212
 H    -24.88739510     72.64234517   -132.67907089
 H    -22.91587433     73.96950167   -131.75502199
 H    -23.74088806     74.02091870   -130.17864155
 H    -25.19395468     75.38870559   -132.24354121
 H    -23.81674964     74.84531302   -133.23161887
 H    -22.08903849     75.81964497   -132.40450642
 H    -23.03666926     76.66795207   -131.15926040
 H    -24.33945445     77.93414344   -132.60516395
 H    -23.53415469     77.23442989   -134.03000075
 H    -21.40266404     78.26741935   -133.23346461
 H    -22.26969385     78.93613573   -131.83013130
 H    -23.62979348     80.27750665   -133.47641704
 H    -22.69921412     79.54243167   -134.80380301
 H    -20.64627624     80.60413768   -133.93495646
 H    -21.58681522     81.33382003   -132.61162099
 H    -22.97943909     82.65886275   -133.81172624
 H    -22.25242248     82.14830793   -135.35414229
 H    -20.38505689     83.52076788   -133.67181614
 H    -21.78706326     83.58855692   -132.57726169
 H    -23.23978444     84.80106336   -133.69444004
 H    -22.13276982     85.02367974   -135.07038598
 H    -20.46709261     86.16784742   -134.02769978
 H    -21.32541296     86.13416919   -132.46871979
 H    -23.15290544     87.26592134   -132.84879151
 H    -22.71190700     87.59085009   -134.54237008
 H    -20.86980431     88.77139182   -132.69683252
 H    -21.94853081     88.01123383   -131.50235539
 H    -23.82061206     89.38818600   -132.19928692
 H    -22.79739797     90.19151089   -133.41418146
 H    -21.38514201     91.07345386   -131.56830715
 H    -22.43390285     90.25286567   -130.38720496
 H    -24.35725354     91.55723074   -130.99505912
 H    -23.40268757     92.44625416   -132.20613625
 H    -21.88552242     93.47141641   -130.97242687
 H    -22.53473214     92.79860239   -129.45779335
 H    -24.65331071     93.96474024   -129.79303590
 H    -24.04107082     94.65910656   -131.31332680
 H    -22.31968411     95.81100152   -129.77136822
 H    -23.09632176     94.99838803   -128.39123781
 H    -25.08670171     95.72132252   -128.28142486
 H    -24.88470305     96.80659205   -129.67772471
 H    -23.17136125     98.07771272   -128.45898963
 H    -23.36495384     96.99900256   -127.05643020
 H    -25.49747274     97.40852219   -126.49405726
 H    -25.69920098     98.59164567   -127.80851199
 H    -23.99914584    100.04227598   -126.81769361
 H    -23.77240568     98.88128279   -125.48767467
 H    -26.11421485     99.26848969   -124.78578361
 H    -26.31823471    100.42532648   -126.12308358
 H    -24.43496427    101.64393184   -124.66143267
 H    -24.23751618    100.39327390   -123.80063425
 H    -24.11877539     99.33618106   -123.13049534
 H    -25.79807490     99.65396880   -122.63327230
 H    -24.49203820    101.81133909   -121.67433560
 H    -23.02622239    101.08299772   -122.37374214
 H    -22.82326357     99.20296535   -121.23905616
 H    -24.27195852     99.53407616   -120.25930351
 H    -23.02076290    101.55070136   -119.37519238
 H    -21.64075534    101.10803406   -120.40858072
 H    -21.61920175     98.98531402   -118.89926048
 H    -23.01614718     99.66961555   -118.03407751
 H    -21.97400397    101.55190901   -117.19915723
 H    -20.42704827    101.10315975   -117.95666551
 H    -20.07101668     99.13781580   -116.80300382
 H    -21.02825510     98.82142248   -116.55106622
 H    -22.09786057     98.19156169   -116.55711785
 H    -22.61116983     99.41755191   -115.37317181
 H    -20.90029818     98.75104315   -113.79892257
 H    -20.32564102     97.49847224   -114.92546682
 H    -22.61012385     96.43314740   -114.64569827
 H    -23.05274626     97.75266929   -113.53609742
 H    -21.12451951     96.73869606   -112.10367476
 H    -20.89730516     95.53051453   -113.39089568
 H    -23.32261183     94.85178127   -112.69107984
 H    -23.26064885     96.15704869   -111.48248388
 H    -21.31140323     94.52440841   -110.61941823
 H    -21.71640745     93.49171736   -112.01146257
 H    -23.68927909     92.81530565   -111.77294296
 H    -23.91087803     93.66023306   -110.22205346
 H    -21.96048075     91.96551832   -109.57590257
 H    -22.04333506     91.38725968   -111.25727665
 H    -24.40775327     90.64410190   -110.70032850
 H    -24.17915018     91.27304740   -109.05095442
 H    -22.34724548     89.47275978   -108.89235182
 H    -22.73562354     89.00390771   -110.56495664
 H    -25.01129586     88.35224238   -109.78620979
 H    -24.57022477     88.83769749   -108.13150248
 H    -22.87163542     87.26291781   -107.84068484
 H    -23.13737190     86.60155430   -109.47171185
 H    -25.43641568     85.93922222   -108.71979284
 H    -24.16560550     85.55935126   -107.19473917
 H    -23.32964539     85.10871443   -106.63666625
 H    -23.54953522     84.30187211   -108.20794618
 H    -25.60196567     83.49170806   -108.04708487
 H    -25.81828555     84.13019899   -106.39972282
 H    -24.61249960     83.42869328   -105.04358436
 H    -23.77037579     82.33550989   -106.16788158
 H    -25.69189754     81.03739987   -106.65316362
 H    -26.68493988     82.03040188   -105.55950892
 H    -25.06748238     81.09165696   -103.75475587
 H    -24.24015375     80.19927913   -105.05377697
 H    -25.77501186     78.83055379   -105.80141440
 H    -26.99038957     79.40877542   -104.63660393
 H    -24.93736006     78.27705395   -103.15411065
 H    -24.18827612     77.97661436   -104.74057715
 H    -26.15046590     76.47751063   -105.24135937
 H    -26.81242742     76.84864186   -103.63128632
 H    -25.20590526     75.99329287   -102.31142671
 H    -24.24264075     75.44910969   -103.70579138
 H    -25.54336463     73.98308763   -104.68679445
 H    -26.83563238     74.18419835   -103.47937356
 H    -25.14023012     73.28736546   -101.80133980
 H    -23.95962824     73.15106645   -103.12643167
 H    -25.87054197     71.41714703   -103.89451510
 H    -26.72711033     71.88468716   -102.40590383
 H    -24.74922187     70.89290216   -101.16097382
 H    -24.00974559     70.48802738   -102.72862108
 H    -25.89367479     68.96636343   -103.20971152
 H    -26.62430230     69.37872438   -101.63986803
 H    -25.03102649     68.59731874   -100.24123373
 H    -24.01755793     68.03400031   -101.59172271
 H    -26.06071914     66.47938101   -102.03644662
 H    -26.85073896     67.22960384   -100.62885966
 H    -25.40313031     66.57986273    -98.99940083
 H    -24.37625927     65.70807719   -100.16292672
 H    -25.65852397     64.14350785   -100.95445314
 H    -27.04145031     64.63254030    -99.94617309
 H    -25.25229562     63.90992351    -98.08395290
 H    -24.15533397     63.54889032    -99.43842580
 H    -25.95483944     61.77682435   -100.02607775
 H    -26.87381990     62.32919520    -98.60529345
 H    -25.47148712     61.82206225    -96.94374020
 H    -24.26153470     61.14781742    -98.06162916
 H    -25.11276317     59.49360127    -99.03105338
 H    -26.66077125     59.63981887    -98.16470585
 H    -26.21627417     59.34080731    -96.09448077
 H    -24.48079874     59.08520382    -96.39623988
 H    -26.08054416     57.07535052    -97.64260000
 H    -27.40957496     58.01890582    -96.92730481
 H    -26.78450788     57.65573945    -94.69454034
 H    -25.39190164     56.66783115    -95.19748342
 H    -26.78624440     54.99508521    -96.21533933
 H    -28.24857897     55.90140562    -95.75880063
 H    -27.74058729     55.61572952    -93.38735636
 H    -26.26980803     54.70347977    -93.80313927
 H    -27.82268678     52.99402355    -94.84891321
 H    -29.20590535     54.00892191    -94.37461966
 H    -28.21102299     53.37014294    -91.98164245
 H    -26.96458568     52.45264035    -92.86076115
 H    -29.27080847     51.17503390    -93.51704966
 H    -30.07658844     52.38546362    -92.49048003
 H    -28.82625640     51.48021277    -90.53859380
 H    -28.04505402     50.28886799    -91.60568664
 H    -30.30608046     49.31576464    -92.03994555
 H    -31.02132505     50.53739471    -90.96091273
 H    -30.22117087     50.19795625    -89.02396531
 H    -29.24355566     48.80795043    -89.55351136
 H    -31.06325699     47.46514885    -90.18350220
 H    -32.22040268     48.73080003    -89.70662946
 H    -31.30349636     48.39414361    -87.34839147
 H    -30.20595100     47.15197189    -87.99698246
 H    -32.06713073     45.74125469    -88.65701604
 H    -33.22027022     46.94145425    -88.02609846
 H    -32.02055965     46.31846371    -85.76957911
 H    -31.01126031     45.19516106    -86.71179600
 H    -33.52213717     44.19068276    -86.99664878
 H    -34.03854365     45.55819316    -85.98101779
 H    -32.45951436     44.19232184    -84.29222355
 H    -32.20775328     43.04901907    -85.63302249
 H    -34.93909591     43.14233068    -84.77017212
 H    -34.28770920     44.35134276    -83.63780655
 H    -32.85978765     43.01560348    -82.46453286
 H    -33.30471165     41.58327120    -83.42303874
 H    -35.57063441     41.58245115    -82.72898138
 H    -35.29793307     43.01650276    -81.71045469
 H    -33.72869865     41.84300162    -80.29919923
 H    -33.94128725     40.36064972    -81.26133519
 H    -36.29955403     40.20936112    -80.79373510
 H    -36.22209261     41.53875295    -79.74475959
 H    -35.51761565     38.68111189    -80.82068465
 H    -36.62844134     39.73384206    -81.72958076
 H    -37.65768963     39.02486414    -79.15144177
 H    -36.20476360     38.37868616    -78.88135114
 H    -35.10380158     38.04266333    -78.61928212
 H    -35.46683679     36.89896861    -79.93398151
 H    -36.97592875     35.68849873    -79.59421787
 H    -37.29854627     36.33488629    -77.96745184
 H    -35.05065878     35.56441040    -77.25667615
 H    -34.75891564     34.92938079    -78.89371311
 H    -36.49865924     33.33731831    -78.81849583
 H    -36.93771601     33.83463751    -77.16677872
 H    -34.65164121     33.05343764    -76.45647601
 H    -34.31253890     32.59261757    -78.14197925
 H    -35.50883625     31.16835703    -78.84365905
 H    -36.41189680     30.99643404    -77.31945736
 H    -34.49072683     30.27709121    -76.08881249
 H    -33.47476836     30.40411588    -77.54482066
 H    -35.18963808     28.49639546    -78.28997635
 H    -35.94120197     28.69383703    -76.68859094
 H    -33.91913970     27.96439175    -75.56286194
 H    -33.10733461     27.74337599    -77.13142536
 H    -34.55621015     26.05494213    -77.89891755
 H    -35.50005262     26.11966302    -76.39119103
 H    -34.57644175     25.65975791    -74.76015470
 H    -33.03301970     25.31001391    -75.57489034
 H    -34.26729819     23.45104366    -76.77279073
 H    -35.74514301     23.90757778    -75.89198545
 H    -33.97810803     23.08700030    -73.95546420
 H    -32.85561329     22.81783918    -75.31039021
 H    -33.85715009     21.25229339    -76.48640468
 H    -35.23204685     21.15908717    -75.35979998
 H    -33.60427410     20.39940283    -73.60511563
 H    -32.29090988     20.52428366    -74.79999884
 H    -33.00289599     18.94604214    -76.28478001
 H    -34.43716161     18.56979773    -75.30010294
 H    -32.63280910     17.82912792    -73.56897599
 H    -31.39704509     18.30080845    -74.76005595
 H    -32.20636178     16.58122775    -76.31178220
 H    -33.44819744     16.09578811    -75.13260486
 H    -31.48637155     15.45212012    -73.63412345
 H    -30.37996946     15.98840317    -74.92119049
 H    -31.33791480     14.16969201    -76.36033297
 H    -32.41101929     13.70214712    -75.01939480
 H    -30.55820060     13.10012532    -73.59940696
 H    -29.40461379     13.53992278    -74.88162471
 H    -30.64454939     11.55648602    -76.10024498
 H    -31.64308290     11.39500705    -74.63562147
 H    -29.38548841     10.80619314    -73.51482202
 H    -28.60743219     11.03360991    -75.09949131
 H    -30.04234033      9.06560563    -75.86016399
 H    -30.72355366      8.98027917    -74.21792939
 H    -28.26223604      8.42923554    -73.57807102
 H    -27.84976964      8.58314867    -75.30273008
 H    -29.31329974      6.66799972    -75.81931876
 H    -29.72354322      6.51714738    -74.09385925
 H    -27.15684713      6.00784632    -73.91744693
 H    -27.07030804      6.23281091    -75.68101393
 H    -28.57082327      4.28242863    -75.97096771
 H    -28.64007430      4.08107957    -74.20378647
 H    -26.08969948      3.63372518    -74.48976753
 H    -26.30946485      3.89416845    -76.23680478
 H    -27.80591289      1.88688658    -76.25584529
 H    -27.53841980      1.69332238    -74.50677496
 H    -25.33113066      1.29525108    -74.45463119
 H    -25.18984864      1.40637320    -76.22549480
 H    -26.81993835     -0.73111479    -75.86924684
 H    -26.64658207     -0.40827937    -74.12741115
 H    -24.33216199     -0.80881554    -74.04683118
 H    -24.29028961     -1.17603163    -75.78799910
 H    -25.86049938     -3.13921943    -74.97156100
 H    -25.68249481     -2.47840600    -73.32842173
 H    -23.25890461     -2.96455503    -73.42016209
 H    -23.45732648     -3.62082928    -75.06278180
 H    -24.91070508     -5.40016140    -74.18519823
 H    -24.71659272     -4.74944453    -72.53985492
 H    -22.23447041     -5.35108206    -72.87676392
 H    -22.65400342     -5.94534121    -74.50129916
 H    -24.08658473     -7.67912666    -73.44486892
 H    -23.64264021     -7.05367965    -71.83863233
 H    -21.43841613     -7.43433067    -71.81490352
 H    -21.46433032     -8.15575388    -73.44190803
 H    -22.99087731     -9.90185739    -72.17933696
 H    -22.75357821     -8.91801783    -70.71509124
 H    -20.25152834     -9.71545298    -71.19170601
 H    -20.90582659    -10.57517518    -72.60628659
 H    -22.23565735    -11.97337543    -70.99051102
 H    -21.52505641    -11.05057141    -69.64449998
 H    -19.30507332    -11.74092659    -70.07190448
 H    -19.83634841    -12.72755509    -71.45486423
 H    -21.16879390    -14.15640683    -70.00198608
 H    -20.66716694    -13.20343447    -68.58477730
 H    -18.39077623    -13.69208747    -68.72898807
 H    -18.64874700    -14.70917641    -70.16678077
 H    -19.98070303    -16.31377668    -69.18770881
 H    -19.89234570    -15.50654722    -67.60377692
 H    -17.45831019    -15.89474961    -67.54735007
 H    -17.55120266    -16.70115765    -69.13144089
 H    -18.98357994    -18.45185971    -68.11743422
 H    -18.87302031    -17.62264161    -66.54630706
 H    -16.64824201    -17.79444197    -66.16812747
 H    -16.38329372    -18.67366822    -67.69293246
 H    -17.84704808    -20.49463087    -66.74236844
 H    -18.04476202    -19.52614807    -65.26209248
 H    -15.61888218    -19.71488098    -64.83409065
 H    -15.43572072    -20.68194843    -66.31716149
 H    -16.81937203    -22.45914279    -65.49081387
 H    -17.07303216    -21.58546035    -63.96091120
 H    -14.64953140    -21.74952182    -63.49251039
 H    -14.99109621    -23.41097023    -64.67781599
 H    -15.73285480    -24.47774751    -64.44156892
 H    -16.08628008    -23.77933360    -62.84295225
 H    -14.55831437    -23.50397953    -61.67094727
 H    -13.38108206    -24.16572568    -62.83046563
 H    -15.32562442    -26.10046464    -61.96920076
 H    -15.92897015    -24.70994144    -61.03609528
 H    -13.74912830    -24.72207012    -59.79685630
 H    -13.22262105    -26.11183008    -60.77646032
 H    -15.13028357    -27.39210046    -59.72346406
 H    -15.56082207    -25.93318733    -58.79908549
 H    -13.47900582    -25.91710091    -57.60298219
 H    -12.94294803    -27.37893723    -58.46550367
 H    -14.39870428    -28.89866034    -57.84237779
 H    -15.28171990    -27.75726266    -56.80037902
 H    -13.85082975    -27.16913651    -55.28496404
 H    -12.56754262    -28.20532716    -55.95410508
 H    -14.42248729    -30.01530895    -55.23958621
 H    -15.39848177    -28.62925986    -54.69684376
 H    -13.81978857    -27.98221377    -53.02051595
 H    -12.75109937    -29.33489930    -53.46369981
 H    -14.54256911    -30.91172119    -52.76689289
 H    -15.57840991    -29.52930866    -52.33766556
 H    -14.07766467    -28.77149519    -50.62218427
 H    -12.96650886    -30.11940084    -50.96387095
 H    -15.37144580    -31.21040404    -50.06556530
 H    -15.89315121    -29.51163705    -49.96417067
 H    -14.03981892    -29.30049214    -48.19903321
 H    -13.66913777    -31.02275022    -48.45337401
 H    -15.98265517    -31.52396529    -47.60016542
 H    -16.25547040    -29.77830678    -47.38449238
 H    -14.38004204    -29.85394889    -45.68476620
 H    -14.20892545    -31.59779889    -45.99777250
 H    -16.60927904    -31.72699197    -45.06247104
 H    -16.55903054    -29.96165550    -44.84036989
 H    -14.91286885    -29.74702984    -43.34810982
 H    -14.64485853    -31.50493489    -43.26932556
 H    -17.05638179    -31.55612127    -42.35171862
 H    -17.09986536    -29.78493441    -42.52281200
 H    -15.13108588    -30.37287338    -40.65293968
 H    -15.58289177    -32.06547579    -40.96795582
 H    -17.74828873    -30.60577505    -39.82826745
 H    -16.57430386    -29.26877576    -39.87785652
 H    -14.96641774    -29.56298156    -38.75038651
 H    -15.51609398    -31.14700195    -38.15288999
 H    -17.44166592    -29.69765403    -37.14055024
 H    -16.65768720    -28.27679703    -37.87185689
 H    -14.68893544    -28.71582933    -36.38589504
 H    -15.53974519    -30.12381226    -35.70620873
 H    -17.25443189    -28.44885052    -34.85699743
 H    -16.29336522    -27.14564372    -35.59609795
 H    -14.38889399    -27.49285052    -34.24768180
 H    -15.19153134    -28.82771385    -33.38618321
 H    -16.87692497    -27.19579555    -32.55109837
 H    -16.03791727    -25.89653085    -33.43214546
 H    -14.03990387    -26.24333394    -32.02945245
 H    -14.88308793    -27.54195331    -31.15144616
 H    -16.46430619    -25.59356044    -30.45611273
 H    -15.43997228    -24.50677157    -31.42456338
 H    -13.56887724    -25.05917143    -29.82841148
 H    -14.68054817    -26.12374342    -28.93446467
 H    -16.03948014    -24.07404195    -28.41110263
 H    -14.87191310    -23.09348485    -29.32955876
 H    -13.09876916    -23.67906966    -27.73636468
 H    -14.25419695    -24.66337639    -26.80663701
 H    -15.15020157    -22.03922640    -26.68344760
 H    -13.72780961    -21.68827804    -27.69433979
 H    -12.49283341    -22.55020628    -25.53100109
 H    -14.10295403    -22.79306621    -24.81211492
 H    -14.61665424    -20.43706936    -24.90430454
 H    -13.02518668    -20.09719015    -25.62540077
 H    -11.98775514    -20.94321199    -23.50894282
 H    -13.61462733    -21.25700043    -22.85848885
 H    -14.41311679    -19.12510915    -22.82052761
 H    -12.88862912    -18.46971467    -23.46447022
 H    -11.57752394    -19.14046595    -21.61711492
 H    -12.99929989    -19.84978335    -20.81481284
 H    -13.83033944    -17.38495312    -20.82445467
 H    -12.30913840    -16.94492055    -21.63721871
 H    -10.98840348    -17.64312567    -19.72922264
 H    -12.46756872    -18.10437760    -18.85310421
 H    -13.40233146    -15.97598345    -18.74989622
 H    -12.01652319    -15.26839918    -19.61426108
 H    -11.10727904    -16.32223900    -17.18010518
 H    -12.65908417    -16.90772394    -16.98274748
 H    -13.58469801    -17.56080491    -16.92282721
 H    -14.21157542    -15.89629609    -16.85425759
 H    -13.29918586    -15.08045094    -15.03535443
 H    -12.45058181    -16.60141011    -14.66817455
 H    -14.79705425    -17.59893507    -14.44497847
 H    -15.46673861    -15.99657734    -14.83515693
 H    -14.90412699    -14.64714090    -13.35119984
 H    -14.01836057    -15.87211673    -12.41145588
 H    -15.43969702    -17.32741258    -11.79897608
 H    -16.79971446    -16.48345180    -12.57766049
 H    -17.55315972    -15.13884003    -12.52827601
 H    -16.56264130    -14.54576739    -11.17350490
 H    -17.02470260    -15.99064639     -9.56733325
 H    -18.15026488    -16.90842295    -10.59644084
 H    -19.61820787    -14.95752566    -10.78457088
 H    -18.51012883    -14.01700144     -9.75702931
 H    -18.69087264    -15.25114545     -7.83644955
 H    -19.84392600    -16.37715828     -8.59198227
 H    -21.41072632    -14.42802570     -8.84209421
 H    -20.19228701    -13.37936964     -8.07790001
 H    -20.65905537    -14.99224115     -6.05182674
 H    -21.82156531    -15.83886994     -7.10066278
 H    -23.18632156    -13.77988185     -7.21410678
 H    -22.01281716    -12.94925610     -6.16471888
 H    -22.91962101    -15.41731570     -4.93629273
 H    -23.76145144    -15.37011942     -5.49304243
 H    -21.83773776    -14.38706027     -3.62467331
 H    -21.94329563    -15.98284279     -4.58911183
 H    -22.98872542    -13.87517579     -2.47258672
 H    -21.49998913    -13.38737863     -3.31756296
 H    -20.43343246    -15.41385210     -2.19902272
 H    -22.00054086    -15.76590516     -1.43188741
 H    -22.19811910    -13.87491284     -0.15954775
 H    -20.63873922    -13.24281156     -0.74010699
 H    -19.23809395    -14.82328197      0.04520052
 H    -20.57004829    -15.74356549      0.78495896
 H    -20.76253593    -13.51639309      2.19015241
 H    -19.39266909    -12.89947308      1.23561524
 H    -17.74570441    -14.22979549      1.73175963
 H    -18.73576732    -15.19451092      2.85308306
 H    -19.15670982    -13.44149516      4.35960581
 H    -18.19720487    -12.30817380      3.37817847
 H    -16.22072711    -13.82689451      3.90582543
 H    -17.31825781    -14.86185847      4.85057018
 H    -17.56474694    -12.74563640      6.32430243
 H    -16.44003123    -11.91928898      5.21957116
 H    -14.61445914    -13.35875603      5.70874208
 H    -15.60937403    -14.28860379      6.85495068
 H    -15.92663200    -12.41649384      8.31658605
 H    -14.94488625    -11.38304666      7.25055186
 H    -13.08257463    -13.09952603      7.93108507
 H    -14.31401559    -13.92735014      8.91420616
 H    -14.28453412    -11.18764803      9.70218612
 H    -13.24655844    -11.08729099      9.27591913
 H    -15.10489508    -12.66966639     11.08259320
 H    -15.55595105    -11.25470645     10.10141862
 H    -13.88862635     -9.99547213     11.59854065
 H    -13.57569684    -11.52610464     12.45148021
 H    -15.64944519    -11.89691219     13.31494080
 H    -16.29157840    -10.40086168     12.59538229
 H    -14.94420641     -8.91436807     13.75415882
 H    -14.13703338    -10.23943483     14.62647554
 H    -16.75532810    -10.37580170     15.42011841
 H    -17.00257505     -8.98806380     14.33323335
 H    -15.44675277     -7.70027848     15.84684354
 H    -15.27311521     -9.15380368     16.85945461
 H    -17.67810799     -9.05547558     17.39912946
 H    -17.84471520     -7.60233251     16.38479032
 H    -16.12970773     -6.94042834     18.46445638
 H    -16.38290150     -8.62530051     18.97959264
 H    -18.82955280     -7.91589819     19.28472713
 H    -18.37468265     -6.28424969     18.73784235
 H    -16.84049596     -5.88122327     20.49964607
 H    -17.21542419     -7.38924153     21.24032296
 H    -16.98485918     -4.66789148     19.95957593
 H    -15.69418845     -5.88302426     20.12047366
 H    -16.31931922     -5.23151344     22.69520132
 H    -17.52027808     -4.13184423     21.97638832
 H    -15.64080090     -2.86462379     20.93855675
 H    -14.48501876     -3.99615969     21.68156472
 H    -15.64554697     -2.83393396     23.82959616
 H    -16.60975655     -1.91112128     22.65189360
 H    -14.19804344     -1.01133786     22.04197980
 H    -13.57414622     -2.08398663     23.31808463
 H    -14.87231537     -0.75100445     24.97857207
 H    -15.46533311      0.28800923     23.66060121
 H    -12.88327866      0.78583576     23.42136124
 H    -12.62645760     -0.24655700     24.78033688
 H    -13.54206011      2.00499385     22.87895625
 H    -12.56434931      0.61247123     22.35624313
 H    -10.83545958      1.66083324     24.01440293
 H    -12.03511621      2.93358879     24.34483286
 H    -11.89046179      3.66056031     21.98862054
 H    -10.69183958      2.38349833     21.67131289
 H     -9.13129457      3.43400977     23.25007375
 H    -10.32059954      4.71748348     23.57644101
 H    -10.59785451      5.74219634     21.70903680
 H     -9.42989278      4.70882859     20.85096735
 H     -7.65997419      5.59900203     22.38547556
 H     -8.89027252      6.60076555     23.19238480
 H     -9.46095176      7.92321035     21.39902583
 H     -8.29141159      7.09857220     20.34052954
 H     -6.36606653      7.65467643     21.43300119
 H     -7.25443087      8.58150368     22.66591105
 H     -8.03559737     10.14062282     20.92259167
 H     -7.14563921      9.21033678     19.69344196
 H     -5.05165856      9.42089540     20.31219074
 H     -5.47161465     10.43704428     21.71195680
 H     -6.37600480     12.20745956     20.48825635
 H     -6.04482818     11.37787436     18.94865345
 H     -3.77281340     11.28690088     19.06059967
 H     -3.74838633     12.12081019     20.63294354
 H     -3.19120617     13.71858644     18.93080770
 H     -4.75370937     13.27863913     18.00633059
 H     -2.97737960     12.85204646     17.28962320
 H     -2.09292773     13.51251711     18.74765983
 H     -3.91647091     14.50675016     16.40665269
 H     -3.72344579     12.74241485     16.27200917
 H     -1.32522602     12.97711409     15.90526887
 H     -1.46821470     14.74686100     16.03103365
 H     -2.90601480     14.76261926     14.02518762
 H     -2.75756392     12.99277075     13.90743684
 H     -0.35208751     13.17002469     13.53636780
 H     -0.45611504     14.94354867     13.64617504
 H     -1.84033863     15.19769016     11.75482114
 H     -1.85286274     13.43974265     11.47601950
 H      0.23772345     12.95806796     11.06678667
 H      0.75963066     14.65101786     11.23941385
 H     -0.86520052     14.85576634      9.13848367
 H     -1.14005919     13.10538013      9.30838806
 H      1.45139132     13.10264872      8.75064207
 H      1.34069417     14.87739537      8.67135060
 H     -0.13875137     14.93652434      6.84661311
 H     -0.16234163     13.15927835      6.75118342
 H      2.11155757     12.90892094      6.24810203
 H      1.46299110     14.47784103      5.17089941
 H      0.80264153     14.88063342      4.36070902
 H      0.58215829     13.11437925      4.36082182
 H      2.98608088     12.84632715      3.82405397
 H      3.17843905     14.61585184      3.83093778
 H      1.53176254     14.50942745      1.83641911
 H      1.49972174     12.74079666      2.03437153
 H      3.96564660     12.78907938      1.45976063
 H      3.86077359     14.55845669      1.29675071
 H      2.28739795     14.27492256     -0.58705780
 H      2.40171196     12.50726466     -0.41217350
 H      4.73266497     12.45280476     -0.94003568
 H      4.75643579     14.22016074     -1.15016534
 H      3.05433205     13.16301331     -3.08896477
 H      3.47099632     11.60153961     -2.34300402
 H      5.85120193     12.08285398     -3.09909650
 H      5.28050985     13.61868163     -3.79466149
 H      3.87721848     12.09972149     -5.33070828
 H      4.10659621     10.89167519     -4.53324754
 H      3.97861384      9.99017988     -3.80539994
 H      5.70783806      9.94427114     -4.06122576
 H      6.75130349     10.06577048     -3.73810063
 H      6.05274100      8.48852072     -4.47239200
 H      5.58048274      7.60254855     -3.88434147
 H      5.35021466      8.24207554     -3.03546680
 H      4.58436865      8.78306620     -2.33580220
 H      6.11953291      9.43401477     -1.71306363
 H      6.97160082      7.32371293     -1.05334991
 H      5.49563073      6.50798287     -1.62287902
 H      3.93828847      7.38347474     -0.30861332
 H      5.11831862      8.39363680      0.56050584
 H      5.92829128      5.87537111      1.14192635
 H      4.56680577      5.34079808      0.12760118
 H      2.99379774      6.38945980      1.72034135
 H      4.36666592      6.91686332      2.72301037
 H      5.05497582      4.67173821      3.20639225
 H      3.71521761      4.02246464      2.23081118
 H      2.07725317      5.02348260      3.74677758
 H      3.39435348      5.68607225      4.74401796
 H      3.69482188      2.97644294      4.93644342
 H      2.28162122      2.88790830      3.85788320
 H      0.78889066      3.35891000      5.49058384
 H      0.78442467      3.51202350      5.48509247
 H     -0.03072694      3.67199040      4.76387019
 H      0.65776425      5.25211216      5.47535348
 H      0.95579145      6.07510511      6.48312941
 H      0.13456790      4.93267087      7.57340577
 H     -1.97589771      5.35465036      6.31175659
 H     -1.10005674      6.48556686      5.25241852
 H     -0.04349440      7.90932503      6.33510433
 H     -0.80641884      7.79895453      7.49304988
 H      0.04042990      8.05839426      4.68334045
 H      1.03208331      7.81958044      6.14205843
 H      0.67399923      9.60216342      7.33570561
 H     -0.42733731     10.30686665      6.12793169
 H      1.55739250     10.35293911      4.56193375
 H      2.56370138      9.66989932      5.89791569
 H      3.13266196      8.87458852      6.39574122
 H      2.92715695     10.32379391      7.40857788
 H      4.24437470     11.48098543      5.50247819
 H      4.31181029      9.90656906      4.67487188
 H      5.64699519      9.01457958      6.56666043
 H      5.55909488     10.60211646      7.36682720
 H      6.90345589     11.32584397      5.23307658
 H      6.75072124      9.74103341      4.62933129
 H      6.41044955      8.87058789      4.01672214
 H      7.38990687      8.21508746      5.35060714
 H      9.12662249      9.80482179      3.97506766
 H      7.74590000     10.14853206      2.90561204
 H      7.58651709      7.84630702      2.19768836
 H      8.21989383      7.28792682      3.14432311
 H      8.39723791      6.66157596      4.12419587
 H     10.03860821      7.29483680      3.85373162
 H      9.03762725      5.22327791      2.14060396
 H      9.12116784      5.09823097      2.34027507
 H      8.29242849      5.94180385      0.89873245
 H      8.08075082      4.68490559      2.14117600
 H     10.11327442      3.59437144      0.96543865
 H     10.12438615      4.97187858     -0.16177795
 H      8.12305844      4.71361070     -1.15495935
 H      7.52775643      3.86746577     -0.27716620
 H      6.84023970      3.43432540      0.57898273
 H      7.89854722      2.03101776      0.29794976
 H      7.36830938      1.61189638     -1.88129747
 H      6.56517302      2.89348007     -2.12948445
 H      6.78193347      3.77744066     -2.74684308
 H      5.30553575      3.80146937     -1.75289184
 H      4.25763749      1.98267240     -2.72410430
 H      5.61075687      1.73382172     -3.85344391
 H      4.58466634      4.20644531     -4.48128249
 H      4.27157605      4.45144390     -3.63941794
 H      3.43001938      5.44587895     -3.49456056
 H      2.94693750      3.95941365     -2.16892077
 H      1.73396423      5.02629380     -4.16113024
 H      3.03143827      6.51463534     -3.54572151
 H      1.19089219      6.82145749     -2.62420229
 H      1.89807001      6.42861294     -1.83043028
 H      1.78889196      7.06743411     -0.72305822
 H      0.74836566      7.31679189     -1.37697133
 H      1.41203232      8.58417109     -1.17378474
 H      0.34126127      8.21737240     -0.90791408
 H     -0.36990709      8.63188382     -1.66264200
 H      1.04298839      9.80013882     -0.81922388
 H      0.79786539     10.94069884     -0.60073782
 H     -0.67195080     10.50305814     -0.61752405
 H     -1.01881205     11.76520002     -0.39893059
 H     -0.08159503     12.16384660     -0.26478374
 H     -1.56962960     12.09288076      0.49595159
 H     -0.58996005     12.04154672      1.01765271
 H     -1.48586015     12.45524544      1.98788078
 H     -2.32894886     12.79141756      1.31038993
 H     -3.03995172     12.71895564      2.52550383
 H     -1.93240776     12.62367089      3.06849078
 H     -2.43382205     12.64766112      4.15681866
 H     -3.46102341     13.33479678      3.70026014
 H     -3.84221194     13.07618628      5.09347364
 H     -2.45628389     13.00230599      5.24267929
 H     -3.12664608     13.34352204      6.58048997
 H     -4.35096817     13.23932104      6.13368304
 H     -4.68446304     14.04190481      6.96305661
 H     -2.98399403     14.54774830      6.81885468
 H     -3.41782465     13.17157304      7.86106355
1502
Final Conformation Chain 4 (Simulation Frame 5)
 C      0.00000000      0.00000000      0.00000000
 C      1.54000000      0.00000000      0.00000000
 C      2.16637443     -1.25197954      0.64171825
 C      3.70591808     -1.26925965      0.60845052
 C      4.33593858     -2.44439782      1.37898570
 C      5.83999701     -2.27328182      1.66205381
 C      6.49146529     -3.49063161      2.34414512
 C      7.99731548     -3.32283773      2.61957282
 C      8.63708084     -4.51716089      3.35161958
 C     10.07058605     -4.25253884      3.84824619
 C     10.71274946     -5.44907812      4.57455183
 C     12.18575800     -5.22748040      4.96537188
 C     12.44597007     -3.89899807      5.69955468
 C     13.90839197     -3.70309919      6.14062819
 C     14.12886312     -2.48373807      7.05504107
 C     15.60582069     -2.22039076      7.40266807
 C     15.86346209     -0.84158424      8.03836729
 C     17.34614065     -0.56063850      8.34550534
 C     17.62454788      0.87464222      8.82930145
 C     19.08865678      1.12584748      9.23535691
 C     19.28926351      2.37323169     10.11591900
 C     20.53426070      2.30811343     11.01998847
 C     20.63838874      3.46845750     12.02714237
 C     21.98342594      3.53032386     12.77456962
 C     22.12137277      4.74065870     13.71672685
 C     23.46726031      4.80369733     14.46252365
 C     23.77258488      6.17704948     15.08884687
 C     25.13107529      6.24821622     15.81067724
 C     26.27541911      6.79821033     14.93913624
 C     27.62499150      6.90688103     15.67292438
 C     28.69218884      7.70955510     14.90584929
 C     29.85322548      8.20866596     15.78589604
 C     30.98734910      8.89109978     14.99871900
 C     31.96482532      9.69366127     15.87737440
 C     33.14611264     10.30585402     15.10188726
 C     33.87633922     11.43095597     15.85853428
 C     35.09388073     12.00249448     15.10851000
 C     35.76591491     13.19175686     15.81958316
 C     37.28505123     13.28484624     15.58472321
 C     37.97686641     14.39787218     16.39352790
 C     37.96476188     14.16579751     17.91589278
 C     38.87169098     15.12940976     18.70363071
 C     38.57845050     15.17101928     20.21488141
 C     39.80989741     15.48859826     21.08337556
 C     39.57150883     15.31639379     22.59503574
 C     38.44436002     16.20296482     23.15639783
 C     38.37380133     16.22733409     24.69458754
 C     37.68757381     17.47999534     25.27037534
 C     37.85228932     17.64035029     26.79312124
 C     36.87557952     18.64883791     27.42604358
 C     37.03589477     18.80431954     28.94976418
 C     36.58067692     20.17227063     29.49113884
 C     37.00440331     20.44231890     30.94686198
 C     36.56583622     21.81817031     31.48192442
 C     37.06687958     22.12542306     32.90535384
 C     36.80385736     23.57202453     33.36335328
 C     37.09219438     23.81873042     34.85586726
 C     36.79012404     25.25469084     35.32316928
 C     37.11422242     25.51189296     36.80654628
 C     36.80470350     26.94560767     37.27586510
 C     37.17102497     27.21592129     38.74703440
 C     36.84639255     28.64475201     39.22101388
 C     37.08370697     28.87482776     40.72512392
 C     36.63782930     30.26164310     41.22466001
 C     36.97695179     30.53411584     42.70193945
 C     36.92764609     32.02319311     43.09157753
 C     37.27482436     32.29646102     44.56683748
 C     36.81045807     33.67412085     45.07479154
 C     37.17252310     33.95419997     46.54518761
 C     36.57744907     35.26235077     47.09856667
 C     37.13856099     35.67381967     48.47241046
 C     36.97129321     37.17041600     48.79462302
 C     37.47412712     37.56979757     50.19435600
 C     37.23057560     39.04846155     50.54908897
 C     37.96199839     39.51614607     51.82105276
 C     38.32675655     41.01232428     51.81954706
 C     39.10476513     41.46862762     53.06778178
 C     39.69528427     42.88637028     52.95423499
 C     40.48242029     43.33853364     54.19824672
 C     40.99363021     44.78925301     54.12289594
 C     41.47219708     45.35564226     55.47262812
 C     41.97084202     46.81085904     55.39984518
 C     42.30882411     47.42646220     56.77039283
 C     42.69146049     48.91696102     56.71037054
 C     43.47004177     49.41388624     57.94263533
 C     44.33903429     50.65682760     57.67514932
 C     45.06740995     51.19199505     58.92201127
 C     46.17094064     52.21979799     58.60985566
 C     46.59097765     53.07482627     59.81985382
 C     47.62004825     54.17064189     59.48548598
 C     48.31360461     54.77626362     60.71990969
 C     49.38373501     55.83107873     60.38258785
 C     49.76264899     56.73983158     61.56672993
 C     50.99869584     57.62155788     61.30915096
 C     51.29962763     58.62377480     62.43901878
 C     52.70076073     59.25761708     62.35734875
 C     52.90884674     60.44325112     63.31785494
 C     54.30515312     61.08627006     63.22590306
 C     54.51260634     62.27308847     64.18508251
 C     55.98584220     62.68512106     64.36229777
 C     56.21278875     63.74375067     65.45746836
 C     57.69596697     64.06071193     65.72452253
 C     57.92203471     65.14293994     66.79656540
 C     59.40555285     65.44486587     67.07872607
 C     59.63265041     66.63172906     68.03338961
 C     61.09500163     66.80091440     68.48561215
 C     61.26768048     67.70004478     69.72389587
 C     62.72233337     68.13219749     69.98624867
 C     62.89225734     69.04767384     71.21288183
 C     64.03505324     70.07100800     71.07721779
 C     64.24163620     70.94845817     72.32581888
 C     65.35776393     71.99883092     72.17556585
 C     65.54945370     72.89095521     73.41611786
 C     64.29972042     73.70375397     73.80228481
 C     64.37059482     74.33244207     75.20632473
 C     63.21872456     75.30680677     75.51520715
 C     63.31353571     75.96918268     76.90224320
 C     62.03671859     76.71788341     77.32743170
 C     62.22510612     77.63181201     78.55252136
 C     61.04559809     78.58853331     78.80756087
 C     60.93350481     79.06976723     80.26613860
 C     60.02120942     80.29635650     80.45267517
 C     60.20193188     81.01161646     81.80446753
 C     59.38286413     82.30853483     81.94132788
 C     59.80048992     83.19032802     83.13280993
 C     58.97178810     84.48016924     83.27828478
 C     59.52311040     85.46396272     84.32699547
 C     59.25484556     85.04209782     85.78358875
 C     60.38326658     85.41697324     86.76222781
 C     60.15672009     84.91639105     88.20087098
 C     61.34006663     85.18169118     89.15003209
 C     61.06139847     84.80875757     90.61797779
 C     62.32788025     84.49345659     91.43541841
 C     62.08078190     83.56817507     92.64140204
 C     63.36880240     83.04054550     93.30034836
 C     63.12451026     82.19010936     94.56077675
 C     64.38201075     81.47268710     95.08575087
 C     64.14137452     80.63576602     96.35589153
 C     65.29378788     79.67388361     96.69987655
 C     65.29550075     79.19671885     98.16408652
 C     66.42788397     78.20837411     98.49947128
 C     66.42419914     77.72424768     99.96139058
 C     67.82087301     77.37812859    100.51011972
 C     67.83316785     77.01230647    102.00598837
 C     69.14452653     76.35884860    102.48025751
 C     69.10504042     75.86065092    103.93691118
 C     70.41703899     75.20892175    104.41178891
 C     70.40096520     74.77252557    105.88857596
 C     71.73448315     74.18046805    106.38132111
 C     71.67070489     73.59013736    107.80225109
 C     73.03882016     73.16131745    108.36436681
 C     73.15830599     73.29771514    109.89365384
 C     74.36841511     72.55962452    110.49569882
 C     74.48718243     72.69496637    112.02513562
 C     75.73753264     72.01958818    112.61850621
 C     76.10092986     72.50715483    114.03336353
 C     77.36324794     71.84696265    114.61842707
 C     77.70234658     72.30272530    116.04982237
 C     79.00943662     71.70610173    116.60403888
 C     79.08440585     71.68222347    118.14202764
 C     80.26986663     70.87214841    118.69885899
 C     80.40101999     70.92734380    120.23227096
 C     81.55244044     70.07252607    120.79362432
 C     81.84057522     70.31300706    122.28719294
 C     82.82971348     69.30679104    122.90423008
 C     83.01687372     69.46448272    124.42465909
 C     83.81334621     68.32072496    125.07967799
 C     84.11081121     68.54061577    126.57459023
 C     84.74132222     67.32186559    127.27366380
 C     84.66672090     67.37359688    128.81098567
 C     85.63130800     66.40332356    129.51790957
 C     85.52392371     66.42160486    131.05405227
 C     86.38704938     65.35611763    131.75501662
 C     86.05996238     65.16808637    133.24808672
 C     87.17098040     64.46379522    134.04884446
 C     86.88292152     64.35536086    135.55777258
 C     87.83597468     63.40879198    136.31096382
 C     87.51134397     63.25440844    137.80842187
 C     88.34449980     62.17339003    138.52175948
 C     87.80308381     61.77880028    139.90839846
 C     88.70642862     60.79679649    140.67731764
 C     88.23568531     60.50692599    142.11466793
 C     89.20784715     59.63203316    142.92772629
 C     88.68691379     59.24970764    144.32560170
 C     89.26572778     57.93080165    144.87063505
 C     88.92451176     57.66009514    146.34775712
 C     89.38470447     56.28050465    146.85426747
 C     89.75072370     56.25249930    148.34987625
 C     90.62732720     55.05387106    148.75786723
 C     90.81659842     54.90527418    150.27895085
 C     91.64310372     53.67253059    150.68984286
 C     91.90814412     53.57227446    152.20354768
 C     92.71170966     52.32547663    152.61752546
 C     92.72873496     52.06680844    154.13555079
 C     92.83972738     50.57872198    154.51618101
 C     92.46793807     50.27715883    155.97988603
 C     92.84311209     48.85669819    156.44155263
 C     92.12597785     48.40624325    157.72779087
 C     91.88641543     46.88733622    157.81223792
 C     91.11971339     46.44321665    159.07181157
 C     90.84882811     44.92870636    159.13874268
 C     90.00692199     44.49605672    160.35348889
 C     90.04672372     42.98274786    160.63617625
 C     89.18107111     42.54606036    161.83265007
 C     89.06648069     41.01933715    161.99873826
 C     87.85773895     40.56980620    162.84044209
 C     87.74851018     39.04357717    163.01449388
 C     86.38787132     38.57107909    163.55947778
 C     86.28999230     37.04793464    163.76454036
 C     84.93544322     36.57726721    164.32602852
 C     84.69674629     35.06132449    164.19741502
 C     84.12156729     34.63115012    162.83516720
 C     84.20024788     33.11578036    162.57236713
 C     83.99040262     32.72403913    161.09788289
 C     84.20103790     31.22557452    160.81181197
 C     83.76924305     30.79087060    159.39894761
 C     83.74361425     29.26484291    159.19356340
 C     83.54233460     28.83321834    157.72905436
 C     82.38805475     29.56048930    157.01469101
 C     82.14282397     29.08060257    155.57206473
 C     80.91411813     29.72047632    154.89942548
 C     80.79840748     29.42224839    153.39301547
 C     79.46140931     29.86235607    152.76824261
 C     79.47633044     29.91465252    151.22920315
 C     78.39145874     30.82402212    150.62282017
 C     78.60381284     31.14359860    149.13138576
 C     77.45574302     31.94769419    148.49344692
 C     77.74499287     32.42037410    147.05660726
 C     76.58068906     33.18806433    146.40342402
 C     76.79206046     33.49355166    144.90890081
 C     75.59179899     34.18390970    144.23482501
 C     75.75057797     34.37300953    142.71474919
 C     74.75400754     35.37360930    142.10054443
 C     74.37224602     35.06184065    140.64155216
 C     73.48390734     36.13408517    139.98371775
 C     73.28733391     35.94126825    138.46853442
 C     72.70972475     37.17475384    137.74986832
 C     72.99382893     37.20818260    136.23667061
 C     72.33141008     38.38777121    135.50089075
 C     72.33766312     38.25218766    133.96688358
 C     72.05375497     39.56897829    133.22052001
 C     72.20092374     39.46632552    131.69100906
 C     71.55697350     40.63360029    130.92003715
 C     71.81902027     40.60243941    129.40281584
 C     71.17339846     41.76861452    128.63157781
 C     71.17318404     41.58450009    127.10262332
 C     70.32339830     42.62286528    126.34680460
 C     70.08719842     42.27942436    124.86428716
 C     69.59721544     43.46792767    124.01636232
 C     69.71527869     43.24442857    122.49724770
 C     69.05005184     44.34405339    121.64877938
 C     68.86482763     43.96618806    120.16739159
 C     68.69882237     45.17554708    119.22851300
 C     68.05465650     44.83204994    117.87254101
 C     67.25732493     45.99122032    117.24629315
 C     66.46815029     45.59835892    115.98357255
 C     65.74936419     46.77752219    115.30201513
 C     64.93565516     46.37967602    114.05654492
 C     64.17367297     47.54933175    113.40624604
 C     63.64498013     47.24361578    111.99251989
 C     62.49605258     48.16421431    111.54078564
 C     61.99356975     47.88396643    110.11229968
 C     60.82940690     48.78935536    109.66890848
 C     60.00847489     48.22425661    108.49488376
 C     58.88956254     49.16182045    108.00436445
 C     58.15437931     48.65653211    106.74905997
 C     57.09609219     49.63497226    106.20658116
 C     56.55890801     49.26618913    104.81122022
 C     55.22603031     49.94912053    104.45255360
 C     54.87800125     49.89498637    102.95337207
 C     53.36611772     49.90422475    102.66058744
 C     53.00911080     49.57530661    101.19909542
 C     51.51557177     49.74704436    100.86525814
 C     51.14509062     49.34391719     99.42587209
 C     49.71371652     49.73567091     99.01441468
 C     49.55621528     51.21852279     98.62978022
 C     48.46310251     51.47984480     97.57696719
 C     48.94023629     51.30848481     96.12280795
 C     48.19492327     52.19763661     95.11012953
 C     48.67908758     52.03382636     93.65742477
 C     48.03963187     53.02606235     92.66840296
 C     48.58964343     52.92262603     91.23369456
 C     48.51352995     54.23851586     90.43730226
 C     48.96608404     54.11025899     88.97089680
 C     48.55286603     55.29776733     88.08169783
 C     48.95097908     55.14087049     86.60234345
 C     48.68110008     56.39138636     85.74503639
 C     48.33466635     56.08147045     84.27686208
 C     47.96588693     57.32365608     83.44465021
 C     48.10687893     57.12345263     81.92424242
 C     48.09695276     58.43442566     81.11625034
 C     48.30858316     58.23940225     79.60337941
 C     48.57642563     59.54669696     78.83471762
 C     49.02969883     59.33529757     77.37819652
 C     49.31608713     60.64208469     76.61537991
 C     49.90443623     60.42983514     75.20811467
 C     50.11648376     61.73264570     74.41481745
 C     50.61810936     61.51480755     72.97519309
 C     50.56039319     62.77654030     72.09411460
 C     51.26143870     62.62174086     70.73170045
 C     51.07009638     63.82406165     69.78861359
 C     51.93016638     63.76238324     68.51265302
 C     51.72268244     64.95381148     67.55921232
 C     52.75686652     65.03257057     66.42085372
 C     52.52532949     66.20030088     65.44392153
 C     53.66769076     66.40619035     64.43188385
 C     53.41141799     67.53824912     63.41977358
 C     54.38945648     67.54826917     62.23026094
 C     53.90714075     68.38364511     61.02979496
 C     54.79994005     68.25948733     59.78115800
 C     54.17634400     68.85204987     58.50381795
 C     55.07761056     68.74628217     57.25957851
 C     54.46632236     69.36539079     55.98889710
 C     55.43488026     69.42553417     54.79312188
 C     54.81473582     70.01768334     53.51391109
 C     55.64941394     69.77473162     52.24273569
 C     54.90816034     70.10535995     50.93398514
 C     55.82390524     70.18505210     49.69840412
 C     55.07286376     70.43338591     48.37709151
 C     55.96507549     70.35163343     47.12454421
 C     55.21918012     70.62501249     45.80526259
 C     56.06500124     70.37198642     44.54345261
 C     55.41443240     70.87605825     43.24181066
 C     56.25627078     70.61515679     41.97894147
 C     55.59505900     71.09795356     40.67460016
 C     56.27998244     70.58014317     39.39618228
 C     55.57008720     70.99392766     38.09371111
 C     56.26231319     70.48713237     36.81481248
 C     55.60831593     70.98084950     35.51092177
 C     56.30504823     70.48014748     34.23207010
 C     55.75527335     71.10187537     32.93484151
 C     55.86750225     70.18368062     31.70361323
 C     54.76156268     70.40422668     30.65487251
 C     54.90412430     69.52361869     29.39956149
 C     53.74466333     69.67013592     28.39667418
 C     53.83127434     68.71138883     27.19463318
 C     52.92523063     69.10474444     26.01312729
 C     52.66185771     67.95979003     25.01747971
 C     51.51041679     68.23791971     24.03339247
 C     51.17672081     67.05258004     23.10861311
 C     50.00436705     67.31955452     22.14637027
 C     49.60040927     66.09970217     21.29761920
 C     48.14639655     66.14222992     20.79201225
 C     47.79427328     65.01631723     19.80209819
 C     46.31188522     64.98929434     19.38569046
 C     45.97631010     63.91608896     18.33344545
 C     44.46967236     63.76205870     18.05430858
 C     44.10060466     62.46862475     17.30436347
 C     42.58502470     62.21715986     17.19767327
 C     42.18406221     61.29144349     16.03411052
 C     40.90674424     60.47231156     16.29694448
 C     40.84648083     59.14103148     15.52515327
 C     39.66603260     58.23715849     15.92659517
 C     39.55569638     56.94511378     15.09590487
 C     38.46386380     55.97626102     15.58664509
 C     38.44989256     54.62358746     14.85065661
 C     37.37162221     53.64687147     15.35559121
 C     37.34135860     52.30361625     14.60302924
 C     36.28961906     51.31180663     15.13383770
 C     36.04383558     50.10502528     14.20924631
 C     35.00661109     49.10305727     14.74945503
 C     34.77031554     47.88974185     13.83096163
 C     34.29799846     46.62536022     14.57248415
 C     33.76417389     45.51792105     13.64500917
 C     33.14311948     44.32198483     14.39041374
 C     32.52585669     43.25825798     13.46355246
 C     31.66245259     42.21432617     14.19590465
 C     31.27468407     41.00243543     13.32840456
 C     30.60454659     39.85924661     14.11302873
 C     30.31900886     38.60336091     13.26874246
 C     29.47570715     37.53885954     13.99488229
 C     28.68433768     36.61525815     13.05026871
 C     27.34499044     37.20671829     12.57285495
 C     26.38713091     36.17061209     11.95593595
 C     24.97801406     36.71766012     11.66143949
 C     23.89851040     35.62767829     11.52648968
 C     22.62226865     36.09622745     10.80311655
 C     21.32217371     35.80773718     11.57650294
 C     20.04747985     35.90736100     10.71811454
 C     18.74337559     35.67731032     11.50423716
 C     17.51753247     35.39622037     10.61547561
 C     16.22730275     35.10151203     11.40291086
 C     14.94996029     35.12282401     10.54294456
 C     13.66022672     34.82371761     11.32953384
 C     12.37294241     34.95244899     10.49411339
 C     12.51648058     34.45927346      9.04229567
 C     12.04574443     33.00934331      8.82386938
 C     12.17929108     32.51973702      7.36989174
 C     11.47232542     31.17998076      7.09266848
 C     11.90434916     30.50402247      5.77812070
 C     11.43327220     29.04435405      5.64008229
 C     12.23505461     28.22174836      4.61438017
 C     11.79175119     26.75084201      4.50706482
 C     12.59415487     25.92799977      3.48203849
 C     12.03174056     24.51595053      3.23423395
 C     12.97398740     23.59805442      2.43346081
 C     12.49808350     22.13613004      2.34462059
 C     13.28874651     21.28010007      1.33781142
 C     12.79768613     19.82434376      1.23182424
 C     11.32751001     19.68954880      0.79363194
 C     10.86324737     18.23434493      0.59756590
 C      9.49968471     18.10125095     -0.10569994
 C      8.92795794     16.67133064     -0.09818864
 C      7.39791500     16.60763957     -0.26101389
 C      6.86224954     15.20488751     -0.60299220
 C      5.32927704     15.13400226     -0.73171901
 C      4.82290604     13.91377350     -1.52306608
 C      3.29247600     13.74382571     -1.50066888
 C      2.80185005     12.40840596     -2.09019435
 C      3.40150806     11.16468066     -1.40816967
 C      2.52613184      9.90305332     -1.52484412
 C      3.15524997      8.64413743     -0.89959125
 C      2.14729800      7.51471471     -0.61668287
 C      2.80097038      6.16046807     -0.28452563
 C      1.81841854      5.10785047      0.26154037
 C      2.42426826      3.69906721      0.40252210
 C      3.50976742      3.58994315      1.48943678
 C      3.98507447      2.14989323      1.75765206
 C      5.04023384      2.03615965      2.87358368
 C      5.49101437      0.59266250      3.16463846
 C      6.06802935      0.38957047      4.57793508
 C      6.58319130     -1.03689484      4.84515196
 C      6.98639831     -1.29325835      6.30915397
 C      7.89956338     -2.51821715      6.50204122
 C      8.39180955     -2.71097310      7.94846400
 C      9.58812712     -3.67173888      8.08019628
 C     10.10857928     -3.83015741      9.52090205
 C     11.38332730     -4.68655751      9.63577742
 C     11.98485852     -4.72746066     11.05284733
 C     13.49620297     -5.02156459     11.08352046
 C     14.36420201     -3.80289360     11.44823772
 C     15.85816061     -4.12970398     11.62957358
 C     16.72119538     -2.91694700     12.02453116
 C     18.10319347     -3.28997987     12.59244643
 C     18.88189282     -2.09787773     13.17906369
 C     20.20765322     -2.48885777     13.85810270
 C     21.01686982     -1.29078880     14.38857346
 C     22.08080852     -1.66807638     15.43608888
 C     22.60956351     -0.47272966     16.25043793
 C     23.85861024     -0.79209902     17.09274754
 C     24.37508415      0.39755849     17.92315090
 C     25.67165618      0.10311129     18.70019776
 C     26.37530812      1.36042768     19.24391591
 C     27.51395897      1.06109774     20.23662726
 C     28.06544939      2.30844855     20.95187146
 C     29.03671150      1.99160080     22.10419842
 C     29.68692877      3.23665258     22.73559654
 C     30.73262002      2.91558736     23.81959236
 C     31.71821933      4.06536589     24.09924098
 C     32.42921890      4.60054015     22.84239250
 C     33.64124917      3.75868998     22.40208473
 C     34.13183563      4.06559787     20.97494336
 C     33.20362701      3.53603143     19.86607541
 C     33.49378247      4.12384174     18.47255869
 C     32.34413127      3.94186232     17.46420081
 C     32.55112273      4.69325058     16.13598012
 C     31.68922946      4.16269030     14.97527095
 C     32.02742795      4.78589243     13.60821539
 C     31.04521184      4.40369314     12.48537292
 C     30.82239294      5.51508805     11.44289841
 C     29.73178740      5.19090242     10.40507221
 C     28.29626585      5.28576410     10.95450750
 C     27.57639621      3.92875281     11.06363158
 C     26.10766422      4.03332439     11.51473147
 C     25.49216218      2.69362202     11.95965261
 C     26.43105246      1.82812169     12.82046283
 C     25.77033665      0.55549876     13.38214379
 C     26.64780458     -0.21488246     14.38621689
 C     27.84915361     -0.93419047     13.74515798
 C     28.61002318     -1.86349226     14.70904369
 C     29.80752322     -2.58769862     14.06630048
 C     30.98673052     -2.82358380     15.02829233
 C     31.73206831     -1.53804848     15.43260718
 C     32.43620378     -1.62580360     16.79938891
 C     33.54655171     -0.57779655     17.00040802
 C     34.62056046     -0.58356887     15.89674508
 C     35.98328370     -0.02425474     16.34591439
 C     35.95245141      1.46661980     16.73054731
 C     37.33714089      2.05965431     17.05077400
 C     37.31448778      3.56557008     17.37218423
 C     36.82782010      4.44743452     16.20725090
 C     37.01790933      5.95738908     16.44284234
 C     36.38629779      6.47182973     17.74975385
 C     36.24572307      8.00393307     17.81682171
 C     35.33699737      8.50025658     18.95676933
 C     34.07865839      7.63959443     19.17458505
 C     33.09934575      8.21395422     20.21509338
 C     31.88144108      7.31335913     20.49300829
 C     30.96017422      7.11239982     19.27543581
 C     29.71818271      6.24927589     19.56539126
 C     28.91462669      6.70223470     20.79856847
 C     27.73444430      5.77791548     21.15127730
 C     26.52709910      5.91483908     20.20514333
 C     25.52003089      4.75384915     20.30269338
 C     24.29314759      4.91012048     19.38512233
 C     23.37498641      3.67423279     19.35103908
 C     22.25306941      3.75622334     18.29928826
 C     21.19571224      2.64346986     18.42328634
 C     20.01368825      2.79101201     17.44724813
 C     19.06752551      1.57622990     17.42116193
 H     -0.36333333      0.00000000      1.02766186
 H     -0.36333333     -0.88998127     -0.51383093
 H     -0.36333333      0.88998127     -0.51383093
 H      1.88274777     -0.66802055      0.79017246
 H      1.88274777     -0.36911226      0.96663339
 H      3.22759356     -1.26985069      0.39353568
 H      3.11486613     -0.96601407      1.09634695
 H      4.05809505     -1.94263999      1.38987890
 H      4.03673386     -2.30769837      0.59095923
 H      5.39155669     -2.50170350      1.11349286
 H      5.41709569     -2.30632267      1.39058519
 H      6.01849551     -2.49733339      2.71373778
 H      6.32988134     -3.23418566      1.50464622
 H      7.48248219     -3.63497290      1.91385324
 H      7.52736605     -3.55628049      2.01142929
 H      8.22019477     -3.76857450      3.58897653
 H      8.51604682     -4.20090273      2.23483961
 H      9.58661406     -4.74681263      2.86814597
 H      8.99950229     -4.17155749      4.31976677
 H     10.12744125     -4.53749235      4.89880270
 H     10.52602306     -5.20871040      4.10595353
 H     11.70471441     -5.61330996      4.15367959
 H     11.50042044     -5.07165520      5.22664566
 H     12.49083718     -4.24382951      4.60835982
 H     12.21403651     -4.58277811      5.84381327
 H     13.30418040     -3.41318932      5.23526502
 H     13.43682215     -3.54115504      5.41980383
 H     14.11403043     -2.63341258      6.18041967
 H     14.17778318     -4.52189127      6.80779227
 H     13.51559886     -2.60915763      7.94738455
 H     15.10158703     -2.05118295      6.82093796
 H     16.15239654     -2.05574492      6.47409573
 H     16.00198972     -3.10233614      7.90597955
 H     16.78862152     -0.89617232      8.61212698
 H     15.53415668     -0.07422743      7.33778078
 H     17.90630952     -0.61783239      7.41221026
 H     17.70512021     -1.32717228      9.03228015
 H     17.04751354      1.04815971      9.73760925
 H     17.29801444      1.56722513      8.05354065
 H     19.72295531      0.92616979      8.37170525
 H     19.34399317      0.43711041     10.04067957
 H     18.69806138      2.25081707     11.02344019
 H     18.93245682      3.24308184      9.56442132
 H     21.41286508      2.19156344     10.38550408
 H     20.43926508      1.43988956     11.67211050
 H     19.75252843      3.45178305     12.66202305
 H     20.66825209      4.40459937     11.46960621
 H     22.77961757      3.64272533     12.03867234
 H     22.11829154      2.59373184     13.31559333
 H     21.32086794      4.69330624     14.45500170
 H     22.01619470      5.64970990     13.12455839
 H     24.26681983      4.85191105     13.72328079
 H     23.57402170      3.89466441     15.05443679
 H     22.97769708      6.41588264     15.79539630
 H     23.78673570      6.92134782     14.29265610
 H     25.91891077      6.08504631     15.07529242
 H     25.13726422      5.50071878     16.60396739
 H     26.00652257      7.80351167     14.61484646
 H     26.38364092      6.15217435     14.06791552
 H     27.90667086      5.91322107     16.02134456
 H     27.49729566      7.56941494     16.52898663
 H     28.31006704      8.71684081     14.74014347
 H     28.86244393      7.22298184     13.94545371
 H     30.33586994      7.34314447     16.23979787
 H     29.44098888      8.84642321     16.56783381
 H     30.56915825      9.74529445     14.46620809
 H     31.38534706      8.17445278     14.28030777
 H     32.41188597      9.01331015     16.60219101
 H     31.40023172     10.46414449     16.40243600
 H     32.74595178     10.97218329     14.33770364
 H     33.69919348      9.49669061     14.62496361
 H     34.25580858     11.02359512     16.79563628
 H     33.15843787     12.22315388     16.07099637
 H     34.75241629     12.39823430     14.15201012
 H     35.80097876     11.19141463     14.93455066
 H     36.71618822     12.85222416     16.23164890
 H     35.02791810     13.98618440     15.93069389
 H     37.46091676     13.38218212     14.51341698
 H     37.74476856     12.36504902     15.94629349
 H     37.36813398     14.61214035     17.27195489
 H     37.52818774     15.35196507     16.11695203
 H     38.47382877     13.22452826     18.12316820
 H     36.92754230     14.09783443     18.24400334
 H     38.53876957     16.14904453     18.50970216
 H     39.89416559     15.00690187     18.34636684
 H     38.71294341     14.16722612     20.61788382
 H     37.54346737     15.48303150     20.35473242
 H     40.19958005     16.46121683     20.78294160
 H     40.56419151     14.72304027     20.90154769
 H     39.27873764     14.28292446     22.78030900
 H     38.55457476     15.63755559     22.82042475
 H     37.52070590     15.95522327     22.63334220
 H     38.70117514     17.24510825     22.96644243
 H     39.32474955     16.59980492     25.07545888
 H     38.21561531     15.20795114     25.04663241
 H     36.67086531     17.52388126     24.87989122
 H     38.24234446     18.35769994     24.93876689
 H     38.91715072     17.69877368     27.01841418
 H     37.42589259     16.76236677     27.27833333
 H     35.85824072     18.31324606     27.22479774
 H     37.03650406     19.62078581     26.95965257
 H     38.05325361     19.13733020     29.15515379
 H     36.87164865     17.83129638     29.41274273
 H     35.52811620     20.30655103     29.24177018
 H     37.17140161     20.94770909     29.00345089
 H     38.09209543     20.39688210     31.00128018
 H     36.57618524     19.66399649     31.57848173
 H     35.47896619     21.87762648     31.42466623
 H     37.00572531     22.58840099     30.84840860
 H     38.15632636     22.09110006     32.90009705
 H     36.68242484     21.35797383     33.57715458
 H     35.72917136     23.75139445     33.33210538
 H     37.30526306     24.24751079     32.67023668
 H     38.13952689     23.58409252     35.04597160
 H     36.45854806     23.15308367     35.44196175
 H     35.73560929     25.46029470     35.13925167
 H     37.40165469     25.94138761     34.73786781
 H     38.17474868     25.31595770     36.96463939
 H     36.52351210     24.82340293     37.41081674
 H     35.74296438     27.13589321     37.11901658
 H     37.39103798     27.63806246     36.67186324
 H     38.23888680     27.03714246     38.87276922
 H     36.61024787     26.52179738     39.37299050
 H     35.77632991     28.81186379     39.09797078
 H     37.39803076     29.34687851     38.59586296
 H     38.13254089     28.67189559     40.94160935
 H     36.45650316     28.17833108     41.28154801
 H     35.57188500     30.37140941     41.02512529
 H     37.19117288     31.01978140     40.67046039
 H     38.05710493     30.45623155     42.82564568
 H     36.48578623     29.77590610     43.31183647
 H     35.92191064     32.39540486     42.89650164
 H     37.64194290     32.56380275     42.47059342
 H     38.28221938     31.92579604     44.75621207
 H     36.56491224     31.75490121     45.19200767
 H     35.72815364     33.73458422     44.96050546
 H     37.28385859     34.44228549     44.46330563
 H     38.25623857     33.89847028     46.64792511
 H     36.70888112     33.18641213     47.16457274
 H     35.49190872     35.20629936     47.01757045
 H     36.94484559     36.08976691     46.49152276
 H     38.21702335     35.80080720     48.37810720
 H     36.92758782     34.87404949     49.18231044
 H     35.90790164     37.40883783     48.77333017
 H     37.48817969     37.74616796     48.02687433
 H     38.53317143     37.32090642     50.26201942
 H     36.91786176     36.99544576     50.93515884
 H     36.15855935     39.24004633     50.50243659
 H     37.74257700     39.66666505     49.81167525
 H     39.03220941     39.37071175     51.67409277
 H     37.62331302     38.90303999     52.65621332
 H     37.40716358     41.58920249     51.72126021
 H     38.97124013     41.20712743     50.96234659
 H     40.02724388     40.89100638     53.12682971
 H     38.49234919     41.26602816     53.94641719
 H     38.87671682     43.58613249     52.78577076
 H     40.37317792     42.90797840     52.10095116
 H     41.30175942     42.63781697     54.35880680
 H     39.81060329     43.31477375     55.05626618
 H     40.13478105     45.44946243     54.00205868
 H     41.64545133     44.87826264     53.25381222
 H     42.28182335     44.72563510     55.84099789
 H     40.63807867     45.32213434     56.17350163
 H     41.15460587     47.43508204     55.03624625
 H     42.80214279     46.85352553     54.69612748
 H     43.08623404     46.82064132     57.23591927
 H     41.41086845     47.40231889     57.38780091
 H     41.85389313     49.46893429     56.28386564
 H     43.56253208     49.02142413     56.06351526
 H     44.38530830     48.82826261     58.02884515
 H     42.85185367     49.25402913     58.82603172
 H     43.68918697     51.46212042     57.33265563
 H     45.05671740     50.41127255     56.89237625
 H     45.71007749     50.40135466     59.30926598
 H     44.31923722     51.45159090     59.67097559
 H     45.71663126     53.06322132     58.08991328
 H     46.90672977     51.74600031     57.96006331
 H     46.95506437     52.40764723     60.60114312
 H     45.71406394     53.61237206     60.18064026
 H     47.18642095     54.83015867     58.73375133
 H     48.51063496     53.69178845     59.07847899
 H     48.82658154     53.97528813     61.25225633
 H     47.54889052     55.20944542     61.36463125
 H     48.90621723     56.63833487     59.82723727
 H     50.14379723     55.36085348     59.75865385
 H     50.14234480     56.11199709     62.37280372
 H     48.86433178     57.25807519     61.90221429
 H     50.79520578     58.25275127     60.44411529
 H     51.84529481     56.97008640     61.09245974
 H     51.46409396     58.06345312     63.35939395
 H     50.43354215     59.27450089     62.55964839
 H     52.78569646     59.77982047     61.40435896
 H     53.44130877     58.45902129     62.40131868
 H     52.75113651     60.09044907     64.33704982
 H     52.17141078     61.21006390     63.08060747
 H     54.45242427     61.44148920     62.20598612
 H     55.04940666     60.32392546     63.45615810
 H     54.36479209     61.91909854     65.20534820
 H     53.76842112     63.03509251     63.95348327
 H     56.38475267     62.95982951     63.38582160
 H     56.53665160     61.82908888     64.75206426
 H     55.85354006     63.34007253     66.40408567
 H     55.63694346     64.63257216     65.19959521
 H     58.14078337     64.42482151     64.79842179
 H     58.19370431     63.14012674     66.02928547
 H     57.47128860     64.80167771     67.72848173
 H     57.42956769     66.05838371     66.46863409
 H     59.86976335     65.77923442     66.15092960
 H     59.88481052     64.52503473     67.41387195
 H     59.14214043     66.40826479     68.98078798
 H     59.18046490     67.51916394     67.59057181
 H     61.71253783     66.95041553     67.59994943
 H     61.40427933     65.88784706     68.99429214
 H     60.70289045     67.26211935     70.54689863
 H     60.86482613     68.68564978     69.49067677
 H     63.08034643     68.67832764     69.11351245
 H     63.32618863     67.23569284     70.12674150
 H     62.52938099     68.51434071     72.09150378
 H     62.29119839     69.94364589     71.05776183
 H     63.83337575     70.69676834     70.20782134
 H     64.96667895     69.52617365     70.92447926
 H     64.46418178     70.29607675     73.17019554
 H     63.31664772     71.49138246     72.52005979
 H     65.10608721     72.64891581     71.33762286
 H     66.29187435     71.47849027     71.96394513
 H     65.79297596     72.25098493     74.26419506
 H     64.57110629     73.07626588     73.85950967
 H     63.48628883     73.00673073     74.00374861
 H     64.03164871     74.34125906     72.95977379
 H     65.23507675     74.99540103     75.24177067
 H     64.49696812     73.53134443     75.93459141
 H     62.27781375     74.76315216     75.43019825
 H     63.24220702     76.10982339     74.77851666
 H     64.25234622     76.52046683     76.95535251
 H     63.31011334     75.18381256     77.65807524
 H     61.21125571     76.00622087     77.34316283
 H     61.83304537     77.49431567     76.59002397
 H     62.99193155     78.36924939     78.31531921
 H     62.55762737     77.01834550     79.38989132
 H     60.14671558     77.99127227     78.96049713
 H     60.91814515     79.21790182     77.92679358
 H     61.85675415     79.58635166     80.52853370
 H     60.81113942     78.19642345     80.90676122
 H     59.02297087     80.03796077     80.09933192
 H     60.41905433     81.11399419     79.85160276
 H     61.23828355     81.34022639     81.88251059
 H     59.98567421     80.29935488     82.60071878
 H     58.32783833     82.06176508     81.82247813
 H     59.68774484     82.99172433     81.14861112
 H     60.84962286     83.45895404     83.00927806
 H     59.67925121     82.61023255     84.04762708
 H     57.92562511     84.20269512     83.40732396
 H     59.08282839     85.06380281     82.36442379
 H     60.53768834     85.73909045     84.03883521
 H     59.94890299     84.88687447     85.14783030
 H     59.71775369     84.06931987     85.94947765
 H     58.17699917     84.96020679     85.92373516
 H     60.51334036     86.49889396     86.73716044
 H     61.30112967     84.93284877     86.42868495
 H     60.07117761     83.83003091     88.17629204
 H     59.22562708     85.34589318     88.57059214
 H     61.51703127     86.25665988     89.18504378
 H     62.22094824     84.68136589     88.74776079
 H     60.81830399     83.74711052     90.66168853
 H     60.20753968     85.39153625     90.96351241
 H     62.97244580     85.37234297     91.42149052
 H     62.84264456     83.65781211     90.96127073
 H     61.66746089     82.62896001     92.27378702
 H     61.35845998     84.04972023     93.30054186
 H     63.95563162     83.89468771     93.63824264
 H     63.93377665     82.48476253     92.55201062
 H     62.50667416     81.33599873     94.28351587
 H     62.59264838     82.80201741     95.28933112
 H     65.13346618     82.22635062     95.32113575
 H     64.75735405     80.81882424     94.29855283
 H     63.38551387     79.88294416     96.13220892
 H     63.77317948     81.29892762     97.13867446
 H     66.19999397     80.26227640     96.84369745
 H     65.43279035     78.99173203     95.86115876
 H     64.35269683     78.68566339     98.35913288
 H     65.37493125     80.07145916     98.80954775
 H     67.38077554     78.69746075     98.29725381
 H     66.32333716     77.33574787     97.85472838
 H     65.47117171     77.23287126    100.15731898
 H     66.52483189     78.59394035    100.61070384
 H     68.44494777     78.26947341    100.44581496
 H     68.24749086     76.59033102     99.88925564
 H     67.18359439     76.14946797    102.15317546
 H     67.44403828     77.86036173    102.56944240
 H     69.96213453     77.05434076    102.29076393
 H     69.30160937     75.44754262    101.90324244
 H     68.30432255     75.12653425    104.02648574
 H     68.89221608     76.71125971    104.58442218
 H     71.21683797     75.94407970    104.32254557
 H     70.63126231     74.35856874    103.76440331
 H     69.59250370     74.05426884    106.02494771
 H     70.21297073     75.65234718    106.50393928
 H     72.51161583     74.93428306    106.25511598
 H     71.96995250     73.30985996    105.76919716
 H     70.92041842     72.79951530    107.81157677
 H     71.37259655     74.38205506    108.48934481
 H     73.68998369     74.03518982    108.38517867
 H     73.46200991     72.40862701    107.69918448
 H     72.38900120     72.67789653    110.35419159
 H     72.99076102     74.34161792    110.15878712
 H     75.27496492     72.96220047    110.04381383
 H     74.28016266     71.50091781    110.25187181
 H     73.58057878     72.29174218    112.47633410
 H     74.57494963     73.75352912    112.26976151
 H     76.61935069     72.47204418    112.16487584
 H     75.70474405     70.95884693    112.36980377
 H     75.25682006     72.30531383    114.69278666
 H     76.27955661     73.58155622    113.99030393
 H     78.20135770     72.06269640    113.95575750
 H     77.19960073     70.77006259    114.65850031
 H     76.85827971     72.06064499    116.69561509
 H     77.85371962     73.38210931    116.03903447
 H     79.82714702     72.00265211    115.94714651
 H     78.91801258     70.61994333    116.60278181
 H     78.25067849     71.08837037    118.51664370
 H     78.99366990     72.70580881    118.50553836
 H     81.19279227     71.30900207    118.31745746
 H     80.18014555     69.84540934    118.34409569
 H     79.48260796     70.53523473    120.66915747
 H     80.52838255     71.96866742    120.52811532
 H     82.48636792     70.42616442    120.35679553
 H     81.38402191     69.03610262    120.50111511
 H     80.93680468     70.08392273    122.85183370
 H     82.09662037     71.36389674    122.42199563
 H     83.77099146     69.37292269    122.35859068
 H     82.41440014     68.30525952    122.79220573
 H     82.04759703     69.33078504    124.90500026
 H     83.38442431     70.47146325    124.62213510
 H     84.79870774     68.27957191    124.61549152
 H     83.28515317     67.38539725    124.89454510
 H     83.16208342     68.64313090    127.10137884
 H     84.68513243     69.46124957    126.67797569
 H     85.67782001     67.08392018    126.76922960
 H     84.05470968     66.48039509    127.18097827
 H     83.61769970     67.43062830    129.10150576
 H     85.18669458     68.26981085    129.14940535
 H     86.64891170     66.65071850    129.21562086
 H     85.39340997     65.38911601    129.19714863
 H     84.50420496     66.15260848    131.32957836
 H     85.73933965     67.43231624    131.40069111
 H     87.42874156     65.52510766    131.48221674
 H     86.07353325     64.37397336    131.40118010
 H     85.01410658     64.87370786    133.33541910
 H     86.21279864     66.12082228    133.75507327
 H     88.08059535     65.05912337    133.96956617
 H     87.34037922     63.48111601    133.60867904
 H     85.95717794     63.79549397    135.69061794
 H     86.75893424     65.36230057    135.95626922
 H     88.85474910     63.77422705    136.18190609
 H     87.74840970     62.41450251    135.87299028
 H     86.49752599     62.86491079    137.90096743
 H     87.56651257     64.23828473    138.27430156
 H     89.39856896     62.43338229    138.42458826
 H     88.15912077     61.21814132    138.03060317
 H     86.78728417     61.40309803    139.78552086
 H     87.78753880     62.66953166    140.53645575
 H     89.68315147     61.26198557    140.81040250
 H     88.81371338     59.89086918    140.08075609
 H     87.23194283     60.08452715    142.06797475
 H     88.20844607     61.44863417    142.66288662
 H     90.16890860     60.14378206    142.97846033
 H     89.32940100     58.68134055    142.40858448
 H     87.75208917     58.70227533    144.20509946
 H     88.50146539     60.16671443    144.88489360
 H     90.35004214     58.02843957    144.92382535
 H     89.00655658     57.13044507    144.17755523
 H     87.83969406     57.62572583    146.44820270
 H     89.31902866     58.48093114    146.94666002
 H     90.46612670     56.21473244    146.73468498
 H     88.90458119     55.51427844    146.24559758
 H     88.87364763     56.55297687    148.92306976
 H     90.55714117     56.96611943    148.51880575
 H     91.55057659     55.09192312    148.17971274
 H     90.08717046     54.13749773    148.51997938
 H     89.83470917     54.78318680    150.73621245
 H     91.28278055     55.81520270    150.65684542
 H     92.62733779     53.75029111    150.22795912
 H     91.13698794     52.78133210    150.31874707
 H     90.94791222     53.52794302    152.71744399
 H     92.44710753     54.46631405    152.51709457
 H     93.67194753     52.34993571    152.10231191
 H     92.15552854     51.44076446    152.30761106
 H     91.70017969     51.93931882    154.47307184
 H     93.16714713     52.93569420    154.62639936
 H     93.76246777     50.18405423    154.09087224
 H     91.98749077     50.05095415    154.08809940
 H     91.43924497     50.59741791    156.14518764
 H     93.13439883     50.84715112    156.62721812
 H     93.92021402     48.73302720    156.32904964
 H     92.32645861     48.14085763    155.80222371
 H     91.05110697     48.43591502    157.54926302
 H     92.38128712     49.10436914    158.52499687
 H     92.85248229     46.38480646    157.76450263
 H     91.27867189     46.58820374    156.95826629
 H     90.15146835     46.94377967    159.07799299
 H     91.69244425     46.74906931    159.94733056
 H     91.80624295     44.40806952    159.11889099
 H     90.26342581     44.64622640    158.26375169
 H     89.04886740     45.01394072    160.30846045
 H     90.53653822     44.78989544    161.25972586
 H     91.08238840     42.69496211    160.81694690
 H     89.67260663     42.45971234    159.75607953
 H     88.14832559     42.82987256    161.63019679
 H     89.53445199     43.07003982    162.72071959
 H     90.06881464     40.61314891    162.13452402
 H     88.62767058     40.60766890    161.08985162
 H     86.95006399     40.93106918    162.35700106
 H     87.94446946     41.01676325    163.83079920
 H     88.65655516     38.68830754    163.50166715
 H     87.66543251     38.59099756    162.02637961
 H     85.61051089     38.89355887    162.86678913
 H     86.22629565     39.03921627    164.53047772
 H     87.06490110     36.74648555    164.46934162
 H     86.46253536     36.56108113    162.80469529
 H     84.15233847     36.88057962    163.63115549
 H     84.77566529     37.06363092    165.28832855
 H     85.48987513     34.54256983    164.73587602
 H     85.13142884     34.72453943    163.25628437
 H     84.82090620     34.93529422    162.05637233
 H     83.16976505     35.14166071    162.68836317
 H     83.64400588     32.60254725    163.35676920
 H     85.24708237     32.81478868    162.61288345
 H     84.75771432     33.21587914    160.50003161
 H     83.00660924     33.07526040    160.78660453
 H     83.49721314     30.65814709    161.42071002
 H     85.22035026     30.96262463    161.09458339
 H     84.34682504     31.36293065    158.67283031
 H     82.70964412     31.01695283    159.27962898
 H     83.04699249     28.83387625    159.91265023
 H     84.74498341     28.87698664    159.38045194
 H     84.35806828     29.24534848    157.13506168
 H     83.44492849     29.73031102    157.11763244
 H     82.59471377     30.63059001    157.03132016
 H     81.46635732     29.35991079    157.56089802
 H     81.91205172     28.01566937    155.59965899
 H     83.05565799     29.23980236    154.99805298
 H     81.05695263     30.80093046    154.88161667
 H     80.03337985     29.48018125    155.49495749
 H     80.73759078     28.34196307    153.26116347
 H     81.69430723     29.79867369    152.89928717
 H     79.35212022     30.93698570    152.91428047
 H     78.65436333     29.34170149    153.28369930
 H     79.71868724     28.92007618    150.85479551
 H     80.24832204     30.61825312    150.91763429
 H     78.54075303     31.83513392    151.00158678
 H     77.41698716     30.45597444    150.94382803
 H     78.61294546     30.20479353    148.57761536
 H     79.56799197     31.63988041    149.02109986
 H     77.35426276     32.88847663    149.03449234
 H     76.53649382     31.37044763    148.59278136
 H     77.93347480     31.54262498    146.43843977
 H     78.63493548     33.04946122    147.07535747
 H     76.36166960     34.06354894    147.01469906
 H     75.70910358     32.53392668    146.38012835
 H     76.91881289     32.54865200    144.38050848
 H     77.69748055     34.09165934    144.80603367
 H     75.40145944     35.12368726    144.75317719
 H     75.52961789     33.83418442    143.20432720
 H     75.88171373     33.39153318    142.25910944
 H     76.63913363     34.97839060    142.53563303
 H     74.89765753     36.34038014    142.58305744
 H     73.74349602     35.01570887    142.29770872
 H     73.92454790     34.06855422    140.60917222
 H     75.28123677     35.07045380    140.04008593
 H     74.02073478     37.08254124    140.00235571
 H     72.56699381     36.22405760    140.56619054
 H     72.82737406     34.96688980    138.30384212
 H     74.26632696     35.96646798    137.98995569
 H     73.39143093     38.01130981    137.90333101
 H     71.74212651     37.40835618    138.19403450
 H     72.56024645     36.31507152    135.78671635
 H     74.07395706     37.20088807    136.09048581
 H     72.69943920     39.31537698    135.93929935
 H     71.25320238     38.32013202    135.64578071
 H     71.80423166     37.33949301    133.70129111
 H     73.37280077     38.17810536    133.63356411
 H     72.81623105     40.29465713    133.50357556
 H     71.07357021     39.93301943    133.52843542
 H     71.50384070     38.71032155    131.32957686
 H     73.22144487     39.15731757    131.46484383
 H     72.02608428     41.56121260    131.24801652
 H     70.49428415     40.65881778    131.16119150
 H     71.42154037     39.66851641    129.00545257
 H     72.89627197     40.63717316    129.24026634
 H     71.56956932     42.70319542    129.02870148
 H     70.09620163     41.73239780    128.79416725
 H     70.62454782     40.67251349    126.86729648
 H     72.20607103     41.48336110    126.76943362
 H     70.71400319     43.61513319    126.57248625
 H     69.29535792     42.54782686    126.70120865
 H     69.57840361     41.31686256    124.81230047
 H     71.05636824     42.20521361    124.37103000
 H     70.34541730     44.25876154    124.06998844
 H     68.65859947     43.82651537    124.43887259
 H     69.12388884     42.36783134    122.23279479
 H     70.76288714     43.06159688    122.25810525
 H     69.52028650     45.29669011    121.89262902
 H     67.99211266     44.38415985    121.90811733
 H     68.24405381     43.07165589    120.11687374
 H     69.84574864     43.75215569    119.74302839
 H     69.58768918     45.80057865    119.31425298
 H     67.82437558     45.74141390    119.54981902
 H     67.06917614     44.40546514    118.05950055
 H     68.68137177     44.09352289    117.37263524
 H     67.93389433     46.83335477    117.10081659
 H     66.46583494     46.27654106    117.93928352
 H     65.76888467     44.80555135    116.24924861
 H     67.17353606     45.22667317    115.24034943
 H     66.49739238     47.51915845    115.02178402
 H     65.05414869     47.21537995    116.01829440
 H     64.18538296     45.64813202    114.35660323
 H     65.61470645     45.92798593    113.33338145
 H     64.89776741     48.30985706    113.11403295
 H     63.48838930     47.96490700    114.14501766
 H     62.97157846     46.38885163    112.05583211
 H     64.49341937     46.99140488    111.35640630
 H     62.85472001     49.19337883    111.55746117
 H     61.67202153     48.05515662    112.24589501
 H     61.64387936     46.85252669    110.06815550
 H     62.82828919     48.01440811    109.42358464
 H     61.16349639     49.82575126    109.71756809
 H     59.99885726     48.64254571    110.35936791
 H     59.59767526     47.26068681    108.79634172
 H     60.67680148     48.08451585    107.64522966
 H     59.34379472     50.09974528    107.68488027
 H     58.21175496     49.35134709    108.83668442
 H     57.71306395     47.68640889    106.97753684
 H     58.88360758     48.54407977    105.94676290
 H     57.59201405     50.57347695    105.95885055
 H     56.35774469     49.80971274    106.98914664
 H     56.11139248     48.27388676    104.86748600
 H     57.39740837     49.24766654    104.11503485
 H     55.37330579     51.02851484    104.48885611
 H     54.48174401     49.65883025    105.19408543
 H     54.81892048     48.84892042    102.65278017
 H     55.67601639     50.38803019    102.39823280
 H     52.94169630     50.81721047    103.07822788
 H     52.91729624     49.03878761    103.14810958
 H     53.39725891     48.58372224    100.96628331
 H     53.48746948     50.31317130    100.55502348
 H     51.23740913     50.78255699    101.06131714
 H     50.94099155     49.08717508    101.51528130
 H     51.40958133     48.29597508     99.28458515
 H     51.72323303     49.96053673     98.73766304
 H     49.56704859     50.79059216     99.24621129
 H     49.01595268     49.25015966     99.69669354
 H     50.22284248     51.42831294     97.79330172
 H     49.84537806     51.82738630     99.48638404
 H     47.51209995     51.12618305     97.97523532
 H     48.54839144     50.72137405     96.79879760
 H     49.29910945     50.28685598     95.99796966
 H     49.75952302     52.00547125     95.94651517
 H     48.33873004     53.23917577     95.39755918
 H     47.13391164     51.95180210     95.15394404
 H     48.54159017     50.99264019     93.36566147
 H     49.73906487     52.28497248     93.61903520
 H     48.27676459     54.03804624     92.99666610
 H     46.95944426     52.88146284     92.68804230
 H     48.40907667     51.91126692     90.86948529
 H     49.66267043     53.11189948     91.26350406
 H     49.08799572     54.99576716     90.97083722
 H     47.46928100     54.54618851     90.38269747
 H     48.32980357     53.37458763     88.47892647
 H     49.99902510     53.76238349     88.96015460
 H     48.99023771     56.20559065     88.49722501
 H     47.46590339     55.37716592     88.09925010
 H     48.47640605     54.23999030     86.21337645
 H     50.03429582     55.03304014     86.54851537
 H     49.24568047     57.22358284     86.16550994
 H     47.61532359     56.61517513     85.79128649
 H     47.44262347     55.45531110     84.26001049
 H     49.16927002     55.53683395     83.83537846
 H     48.81260847     58.00990807     83.45951101
 H     47.10239938     57.80194973     83.90695360
 H     47.45386872     56.30381731     81.62444984
 H     49.14237191     56.86085985     81.70767989
 H     48.92555676     59.05434104     81.45862487
 H     47.15511447     58.94834974     81.30840308
 H     47.51225729     57.59801552     79.22577092
 H     49.27114348     57.75083612     79.45211555
 H     49.47152002     60.01066336     79.24901367
 H     47.72350729     60.20992359     78.97880354
 H     48.25034675     58.78268893     76.85347371
 H     49.94818005     58.74842625     77.38681679
 H     50.10158541     61.18231840     77.14381154
 H     48.40537469     61.24095008     76.60743650
 H     49.19578608     59.84116189     74.62555242
 H     50.83964832     59.87877140     75.30714551
 H     50.79760367     62.37016840     74.97850219
 H     49.15302385     62.23187638     74.31179445
 H     49.88531628     60.90626756     72.44529368
 H     51.56817358     60.98240102     73.02015164
 H     51.17554693     63.54728776     72.55847894
 H     49.52556395     63.11591857     72.04882861
 H     50.78393079     61.80429707     70.19144879
 H     52.30824738     62.37635701     70.91080475
 H     51.46816725     64.71185806     70.27999645
 H     50.00246471     63.95451593     69.61185304
 H     51.67052745     62.85471024     67.96784356
 H     52.97868259     63.72167450     68.80770651
 H     51.97081893     65.86951659     68.09588023
 H     50.67355757     64.97831541     67.26453188
 H     52.69639654     64.11308607     65.83862383
 H     53.74896310     65.11721663     66.86433926
 H     52.56493440     67.13212236     66.00804933
 H     51.53605088     66.08553722     65.00091235
 H     53.78028026     65.49066451     63.85116357
 H     54.58594057     66.60004461     64.98626441
 H     53.27174411     68.46718362     63.97264960
 H     52.50169327     67.30422174     62.86684308
 H     54.30352018     66.59548887     61.70783902
 H     55.40149957     67.65918103     62.61957743
 H     53.76253394     69.41124892     61.36329051
 H     52.95604016     67.97530788     60.68808108
 H     54.82611367     67.21186628     59.48131626
 H     55.80551867     68.58716785     60.04485694
 H     53.97654694     69.90923709     58.67856440
 H     53.23838585     68.33261969     58.30753550
 H     55.29130391     67.69267767     57.07970994
 H     56.00802542     69.27592776     57.46428255
 H     54.27052495     70.42019827     56.18162636
 H     53.52724618     68.85445983     55.77632836
 H     55.75484807     68.41001396     54.55979958
 H     56.30027489     70.02166137     55.08264648
 H     54.47799235     71.03083341     53.73352618
 H     53.95947198     69.40369855     53.23169409
 H     55.75832302     68.69901775     52.10461078
 H     56.63206183     70.22386720     52.38688957
 H     54.62020584     71.15633220     50.95927411
 H     54.01368936     69.48474625     50.88050344
 H     56.32056241     69.22237613     49.57721578
 H     56.57049816     70.95945004     49.87449175
 H     54.53035466     71.37488231     48.46293089
 H     54.36477888     69.61842175     48.22692751
 H     56.40939824     69.35710961     47.08454827
 H     56.75368971     71.09849268     47.21613492
 H     54.78960605     71.62553991     45.85537243
 H     54.41967835     69.89094114     45.70508183
 H     56.38331257     69.32950809     44.54755550
 H     56.94095876     71.01950167     44.58247082
 H     55.24962364     71.94954217     43.33438672
 H     54.45649606     70.37062676     43.11934856
 H     56.41515521     69.54056487     41.88889734
 H     57.21714319     71.11578735     42.09807690
 H     55.42143447     72.17101873     40.75513384
 H     54.64094126     70.58288702     40.56294983
 H     56.25400535     69.49054967     39.41071505
 H     57.31596813     70.91897862     39.40109992
 H     55.54116114     72.08267099     38.05010785
 H     54.55247733     70.60416229     38.11926713
 H     56.29979049     69.39847410     36.85378201
 H     57.27685093     70.88507734     36.79352948
 H     55.63409663     72.07053247     35.50578567
 H     54.57246057     70.64185349     35.49730626
 H     56.28423122     69.39034939     34.23467296
 H     56.64891488     71.34673987     33.66738138
 H     55.88106672     72.18303933     32.99281140
 H     54.69422255     70.86287335     32.86308338
 H     55.31212274     69.26811640     31.90707271
 H     56.91958483     69.94383706     31.54967395
 H     54.81166935     71.43911945     30.31636654
 H     53.79746117     70.22373398     31.13029935
 H     54.87940762     68.47881852     29.70920919
 H     55.86559452     69.74222024     28.93492359
 H     53.69454109     70.71207750     28.08053258
 H     52.81787478     69.39884894     28.90220990
 H     53.83142211     67.68855465     27.57134290
 H     54.76605746     68.90494046     26.66849796
 H     53.21238120     70.10140430     25.67799498
 H     51.89328875     69.12257058     26.36366714
 H     52.18638614     67.13995154     25.55589558
 H     53.61952677     67.62543068     24.61851379
 H     51.75385001     69.13625496     23.46608827
 H     50.60066395     68.40732800     24.60937042
 H     50.89867704     66.20104173     23.72963981
 H     52.06832064     66.80607367     22.53208526
 H     50.25969135     68.17784667     21.52488488
 H     49.11979573     67.55093728     22.73974671
 H     49.31342220     65.29284860     21.97195275
 H     50.46392576     65.79098589     20.70843881
 H     48.02064948     67.03885554     20.18509366
 H     47.48428479     66.19277121     21.65639271
 H     47.95651070     64.05985379     20.29904557
 H     48.45878624     65.09609692     18.94177400
 H     46.06946604     65.94410647     18.91914279
 H     45.70626391     64.85898194     20.28254135
 H     46.23464493     62.94026392     18.74469794
 H     46.57843187     64.10696068     17.44512268
 H     44.08682638     64.71964092     17.70137058
 H     43.97386713     63.49413584     18.98731154
 H     44.42650632     61.61935627     17.90488921
 H     44.62822464     62.46299582     16.35058914
 H     42.13412861     63.05877427     16.67186160
 H     42.17568979     62.15733743     18.20612069
 H     42.68183395     60.33167072     16.17252850
 H     42.52259073     61.74532369     15.10271844
 H     40.08651257     61.16610501     16.48125576
 H     41.06944422     59.85848869     17.18286219
 H     41.70648919     58.53743575     15.81525293
 H     40.89963152     59.36036117     14.45877178
 H     38.73969946     58.78168351     15.74356671
 H     39.75188829     58.01331807     16.98990334
 H     40.47864338     56.37849029     15.21922018
 H     39.43565708     57.22049104     14.04811772
 H     37.50459323     56.49231621     15.54680771
 H     38.68671522     55.70269756     16.61795508
 H     39.41984657     54.14668718     14.99156556
 H     38.28866057     54.81250603     13.78933007
 H     36.39649167     54.11680305     15.22758831
 H     37.54820650     53.45902180     16.41466179
 H     38.31507306     51.82649774     14.71410615
 H     37.15396620     52.50571947     13.54844952
 H     35.30691493     51.77538275     15.04729427
 H     36.50590727     51.11192103     16.18329716
 H     36.98601712     49.57133189     14.08448526
 H     35.70636488     50.47742484     13.24201723
 H     34.06135679     49.62837593     14.88596364
 H     35.35804524     48.73141056     15.71198958
 H     35.71806934     47.36667555     13.70342979
 H     34.42350071     48.25423368     12.86402566
 H     33.36282611     46.85638352     15.08256348
 H     35.05608326     46.35602180     15.30791889
 H     34.56014256     45.23424666     12.95648704
 H     32.92205602     45.91934978     13.08127833
 H     32.31566271     44.68885505     14.99772054
 H     33.90512746     43.88871506     15.03827262
 H     33.30832541     42.88239450     12.80433372
 H     31.74623283     43.73331848     12.86806597
 H     30.85264298     42.73617600     14.70578811
 H     32.28758178     41.70732860     14.93093320
 H     32.18970609     40.51509536     12.99175286
 H     30.71653261     41.36375550     12.46468311
 H     29.70063633     40.24880569     14.58131280
 H     31.29659472     39.52123476     14.88433760
 H     31.26454986     38.23663714     12.86928547
 H     29.66203401     38.88552792     12.44602391
 H     28.52266507     37.98829930     14.27383515
 H     30.01025753     37.23301592     14.89422404
 H     29.39237207     36.10483936     12.39738283
 H     28.18279574     37.23429731     12.30639627
 H     27.55004853     38.13960314     12.04771017
 H     26.72878328     37.41058787     13.44854092
 H     26.17716699     35.40846166     12.70636374
 H     26.88332599     35.71159546     11.10083703
 H     25.07269725     37.55280255     10.96741340
 H     24.54475138     37.07036224     12.59738002
 H     23.85998112     35.06602162     12.45984775
 H     24.18434927     34.96106738     10.71283986
 H     22.89832103     36.43088886      9.80316814
 H     22.19860320     36.93093573     11.36156948
 H     21.37635523     36.31550379     12.53948655
 H     21.25009508     34.73196199     11.73654173
 H     20.12708364     35.18957803      9.90168889
 H     19.98693455     36.91634695     10.31021550
 H     18.68339523     36.42509962     12.29500483
 H     18.78128927     34.68216540     11.94735019
 H     17.72165092     34.50510998     10.02187816
 H     17.37213355     36.24903588      9.95240332
 H     16.00463222     35.96396161     12.03116126
 H     16.40166385     34.22884455     12.03231507
 H     15.05200909     34.37242427      9.75898902
 H     14.85758082     36.11033457     10.09085062
 H     13.55680300     35.57184825     12.11547536
 H     13.75435338     33.83517626     11.77900706
 H     12.64314438     35.31257915      9.50144166
 H     12.31281077     35.97149692     10.11198054
 H     12.64542364     33.37705756      9.05910156
 H     13.29927294     35.04293046      8.55785721
 H     10.99484297     32.94403113      9.10572120
 H     12.63575434     32.35680013      9.46743422
 H     13.22805091     32.58686703      7.08058848
 H     11.58392614     33.17314037      6.73215776
 H     10.41257207     31.29849971      7.31844735
 H     11.90144030     30.42359218      7.74981134
 H     12.97812069     30.32209489      5.82303248
 H     11.68516422     31.18399932      4.95490174
 H     10.34459578     29.02921825      5.69160470
 H     11.84434992     28.47147020      6.47129778
 H     13.28093845     28.21679686      4.92130439
 H     12.14420033     28.70468961      3.64143965
 H     10.74117003     26.72975671      4.21735006
 H     11.90814135     26.28550571      5.48584747
 H     13.64455035     25.94909200      3.77242523
 H     12.47841653     26.39315166      2.50309091
 H     11.00892923     24.61339832      2.87028215
 H     12.03052556     23.97641927      4.18133718
 H     13.90950906     23.50252086      2.98461647
 H     13.16741674     24.06435229      1.46741144
 H     11.51867229     22.12296788      1.86641516
 H     12.41345269     21.74110643      3.35699107
 H     14.33727925     21.28172490      1.63559733
 H     13.19052206     21.73307932      0.35127113
 H     11.90216067     19.71925342      1.84427030
 H     12.88164408     19.36184096      2.21525814
 H     11.21636194     20.16072558     -0.18296344
 H     10.70402510     20.20949260      1.52097300
 H     10.98953585     17.70415145      1.54151828
 H     11.49169828     17.77383231     -0.16471855
 H      9.57198204     18.57294378     -1.08568921
 H      8.75264033     18.62154045      0.49373606
 H      8.81151936     16.35419662      0.93813567
 H      9.63851296     16.01545264     -0.60121510
 H      7.13423874     17.07722109     -1.20867840
 H      6.94256426     17.16314325      0.55884669
 H      7.15041511     14.52342815      0.19742879
 H      7.32016787     14.88164607     -1.53783217
 H      5.01935354     15.82067729     -1.51945299
 H      4.89091859     15.44663021      0.21601810
 H      5.16655577     13.01104929     -1.01799790
 H      5.24951798     13.95414242     -2.52529989
 H      2.84182764     14.63999486     -1.92716260
 H      2.97477032     13.63568497     -0.46362082
 H      3.34781461     11.59877927     -1.60591413
 H      3.13849211     12.34630860     -3.12504508
 H      3.13520841     11.19131841     -0.35153589
 H      4.48585047     11.20684150     -1.51075621
 H      2.38583974      9.67983025     -2.58247808
 H      1.55970209     10.11284444     -1.06647612
 H      3.33528808      8.83983538      0.15747478
 H      4.10403771      8.45047389     -1.39998735
 H      1.67692907      7.23129872     -1.55823926
 H      1.38936916      7.89528976      0.06801160
 H      3.42760959      6.28961892      0.59793874
 H      3.42105207      5.86263126     -1.13003846
 H      1.04443477      4.94031693     -0.48744671
 H      1.36473921      5.50169703      1.17102371
 H      3.34180125      3.77734336      0.98570822
 H      2.76511041      3.37264926     -0.58001439
 H      3.06703067      3.86987438      2.44532520
 H      4.31238633      4.28514944      1.24328420
 H      4.38709463      1.74321361      0.82970191
 H      3.12522565      1.55797587      2.07133001
 H      4.61017475      2.43210179      3.79357227
 H      5.90535756      2.63535597      2.58963876
 H      5.91238547      0.17428460      2.25057810
 H      4.61617632      0.01331548      3.45979167
 H      5.30163997      0.66219519      5.30348526
 H      6.92913276      1.04762481      4.69440573
 H      7.36583426     -1.26010295      4.12006705
 H      5.75413985     -1.73158675      4.71033041
 H      6.11468704     -1.11984373      6.94014274
 H      7.77410950     -0.58874268      6.57611603
 H      8.80723105     -2.36437299      5.91845630
 H      7.37451851     -3.39880077      6.13190560
 H      7.52135079     -2.82730572      8.59411737
 H      8.94645180     -1.82017612      8.24334145
 H     10.41267983     -3.27568977      7.48744175
 H      9.29184093     -4.64402767      7.68653526
 H      9.29500628     -4.20898901     10.13951791
 H     10.41504879     -2.84932267      9.88441224
 H     12.16565558     -4.21855297      9.03825401
 H     11.16694908     -5.67825936      9.23852698
 H     12.76018243     -5.49330720     11.07410562
 H     12.22888412     -3.70787547     11.35117191
 H     14.00630508     -4.25592103     10.49898152
 H     13.66683685     -5.98873350     10.61069028
 H     14.06343281     -3.45086492     12.43500705
 H     14.18226755     -3.01988349     10.71210253
 H     16.23273012     -4.55032703     10.69636732
 H     15.95325010     -4.86865943     12.42518833
 H     16.34114436     -2.51747050     12.96478632
 H     16.62786268     -2.16128227     11.24455691
 H     18.64132622     -3.86201046     11.83660640
 H     17.95444018     -3.90777135     13.47805704
 H     18.28757119     -1.66207494     13.98215630
 H     19.02355789     -1.35935583     12.39000323
 H     20.83961831     -2.98049070     13.11849660
 H     19.98614939     -3.18501533     14.66705307
 H     20.40370647     -0.75782791     15.11526692
 H     21.24246909     -0.63148227     13.55040887
 H     22.77410844     -2.37543848     14.98103496
 H     21.57862720     -2.14270820     16.27908268
 H     21.76822336     -0.01113849     16.76733284
 H     23.04935400      0.24563059     15.55859772
 H     24.64925812     -1.12546896     16.42055679
 H     23.80718005     -0.21347201     18.01505212
 H     23.57969132      0.71630762     18.59683424
 H     24.62082576      1.21103595     17.24053427
 H     26.44448381     -0.17623081     17.98409341
 H     25.48413810     -0.73107406     19.37626859
 H     25.68577959      1.87758865     19.91114522
 H     26.61996723      2.00755880     18.40161950
 H     28.25672020      0.44449656     19.73045662
 H     27.09757849      0.50974331     21.07967862
 H     27.24857777      2.77903309     21.49901947
 H     28.44177309      2.99834244     20.19653915
 H     29.87771882      1.42910478     21.69872967
 H     28.51065992      1.38047476     22.83761146
 H     28.89496017      3.87847123     23.12154284
 H     30.23801663      3.76673101     21.95879604
 H     31.51865723      2.30974187     23.36881887
 H     30.24330791      2.34637139     24.60995104
 H     31.14681597      4.93590333     24.42136327
 H     31.62237570      4.80086151     23.30051688
 H     31.67110777      4.96049928     22.14683738
 H     32.90184090      3.76113462     22.33236622
 H     33.29777739      2.74493887     22.19608517
 H     34.31805585      4.40088029     21.83850303
 H     34.41022256      5.11836564     20.92718638
 H     33.27037057      4.34765279     20.36961456
 H     32.22111389      3.98984358     19.99577697
 H     33.12161465      2.45461050     19.97517519
 H     34.52174036      3.87952767     18.20476550
 H     33.37996616      5.20652636     18.52677921
 H     31.45633696      4.43135439     17.86459908
 H     32.15163507      2.87479510     17.35278818
 H     33.47059301      4.33040890     15.67661064
 H     32.64954481      5.75640035     16.35535573
 H     30.64049992      4.25071297     15.25902853
 H     31.93597212      3.11281845     14.81719767
 H     33.07272513      4.57347214     13.38386869
 H     31.88256261      5.86398351     13.67773988
 H     30.04778269      4.73407898     12.77533896
 H     31.05193062      3.31895213     12.37864057
 H     31.78357118      5.75757292     10.98964629
 H     30.43099233      6.39325061     11.95645082
 H     28.88117990      5.84831970     10.58498716
 H     28.82799471      5.73680913     10.67570966
 H     28.13414371      6.30110563     11.31630577
 H     28.21220613      4.61690042     11.81104433
 H     28.15539958      3.28595710     11.72670682
 H     27.53434825      3.48220462     10.07018974
 H     25.57058205      4.64919552     10.79338169
 H     26.08287309      4.51408251     12.49266655
 H     26.30293306      1.99062693     12.15082918
 H     25.54488987      1.99742276     11.12261833
 H     26.69864399      2.39525890     13.71200652
 H     27.32972534      1.61677945     12.24096174
 H     25.42055194     -0.04749288     12.54419884
 H     24.91993294      0.85302531     13.99565131
 H     26.87770680      0.44850423     15.21998128
 H     27.65762859     -0.27821348     13.98082245
 H     28.47020653     -0.18846284     13.24888831
 H     27.47110947     -1.64159772     13.00708101
 H     27.91525349     -2.61830272     15.07735911
 H     28.97430005     -1.26624067     15.54492221
 H     30.50343139     -1.83572334     13.69435291
 H     29.43921996     -3.18579028     13.23279039
 H     30.63140571     -3.42494342     15.86507838
 H     31.06610320     -1.96182402     15.69099139
 H     31.02212365     -0.86860079     15.91832146
 H     32.11647960     -1.06597057     14.52846648
 H     33.15708082     -2.44251660     16.76175724
 H     31.68441252     -1.83947382     17.55916186
 H     33.10329652      0.41354335     16.90622713
 H     33.77438712     -0.12999401     16.03311080
 H     34.13227718     -0.38681937     14.94229808
 H     35.08157836     -1.57097165     15.87228590
 H     35.97194425      1.05705062     16.20898325
 H     36.06868540      1.00086457     15.98544669
 H     35.24294778      1.59509740     17.54798116
 H     35.61636687      2.03709429     15.86469164
 H     37.97059016      1.94566451     16.17108750
 H     37.76576111      1.49999250     17.88213635
 H     36.66672690      3.72223976     18.23471565
 H     36.40038392      3.99076903     16.95779313
 H     35.81668507      4.13822648     15.94249377
 H     37.49080384      4.28841531     15.35680075
 H     38.07969955      6.14915209     16.59753064
 H     36.89735417      6.15597342     17.50779807
 H     36.83887384      5.93518647     18.58359372
 H     35.31719762      6.26153643     17.71972808
 H     35.62159466      8.32764351     16.98388997
 H     37.23827762      8.44377748     17.71949569
 H     35.75258523      8.15247357     19.90251438
 H     35.05616115      7.64330827     19.56903612
 H     33.81379748      7.68093521     20.23110748
 H     33.50007208      7.63845139     18.25082287
 H     32.78476816      9.20252035     19.88061179
 H     32.87865804      7.43484132     20.94473715
 H     30.98453446      7.83914163     20.16557695
 H     31.44849771      7.01783689     19.53732704
 H     30.50702778      6.12371571     19.34797564
 H     29.92650088      7.20417134     19.60889857
 H     29.59430610      6.17902467     20.64604816
 H     28.94729270      6.89055762     19.99269248
 H     27.90580367      6.29742329     20.71792203
 H     28.67580381      5.82138028     21.39452075
 H     26.82790444      6.38146588     21.19613701
 H     27.37084933      5.32007346     20.23134286
 H     26.24441199      4.91898603     19.86387409
 H     25.69784697      5.34389236     20.62282830
 H     24.57934404      5.07776754     19.85740121
 H     25.27801065      4.42424740     19.29230292
 H     24.06455193      3.93729979     18.94984777
 H     23.46643888      4.34803797     19.81953683
 H     22.39658568      3.98414058     18.98390263
 H     23.23885238      3.37695768     18.31123380
 H     22.08253339      2.75588846     17.90135912
 H     21.32673935      3.41128314     18.75866706
 H     20.21956186      3.07119844     18.19464102
 H     21.02394370      2.22197367     17.43286394
 H     19.69702109      1.79451670     17.13932121
 H     19.09231506      2.58136587     17.99058959
 H     18.28007295      1.71303729     18.16231117
 H     19.63070861      0.67201825     17.65208637
 H     18.62210837      1.48382084     16.43062463
1502
Final Conformation Chain 5 (Simulation Frame 6)
 C      0.00000000      0.00000000      0.00000000
 C      1.54000000      0.00000000      0.00000000
 C      2.16637443     -0.44274711      1.33537638
 C      3.64607167     -0.85543885      1.22683322
 C      4.27910835     -1.27540594      2.56641980
 C      5.73082252     -1.77454427      2.44399892
 C      6.13255499     -2.80218558      3.51831934
 C      7.57747809     -3.31744369      3.38301854
 C      8.13271840     -3.96869636      4.66332248
 C      7.34308823     -5.20577369      5.12993137
 C      7.60227840     -6.46867903      4.28761875
 C      8.95462279     -7.14687564      4.57539299
 C      9.05500497     -8.59144691      4.05123913
 C      8.90615827     -8.71519510      2.52345281
 C      8.86887786    -10.16778447      2.01336038
 C     10.14106948    -10.97573755      2.33012574
 C     10.00070722    -12.48876983      2.07986235
 C     11.11697184    -13.33557653      2.71898027
 C     10.78516292    -14.83602487      2.81976522
 C     12.00948695    -15.73187533      3.08449648
 C     11.66216839    -17.21347185      3.32080464
 C     12.85160959    -18.06721968      3.79823975
 C     12.56185043    -19.57922318      3.83677569
 C     13.71456653    -20.42345777      4.41133076
 C     13.55738611    -21.93789487      4.18030131
 C     14.59702155    -22.79628238      4.92456539
 C     14.55353973    -24.29119822      4.55722908
 C     15.57108017    -25.15485345      5.32554613
 C     15.27297312    -25.28379306      6.83090547
 C     16.07101096    -26.39729936      7.53435364
 C     16.07292792    -26.29162502      9.07072249
 C     16.66825857    -27.52074312      9.78237558
 C     16.67708519    -27.41186556     11.31849659
 C     17.12801615    -28.69826655     12.03503951
 C     17.04232058    -28.62272522     13.57079658
 C     17.31665275    -29.96185205     14.28007875
 C     17.55080267    -29.83100791     15.79653964
 C     17.64201554    -31.17938196     16.53489430
 C     18.73610978    -31.22789710     17.61757804
 C     18.93185018    -32.61907194     18.24838566
 C     19.13223659    -33.74962252     17.22208128
 C     19.47228303    -35.11356676     17.85106819
 C     19.72463035    -36.23199971     16.82294924
 C     20.68126274    -37.33298074     17.31721155
 C     21.16757167    -38.28442980     16.20822629
 C     20.03556149    -39.05250305     15.50096648
 C     20.52876632    -40.10590272     14.49166072
 C     19.53233399    -41.25448822     14.24778786
 C     20.16650430    -42.51236444     13.62555363
 C     19.15858688    -43.43793355     12.91913712
 C     19.80197437    -44.65795087     12.23414785
 C     18.90887311    -45.91246629     12.22145238
 C     19.62078132    -47.18313429     11.72126288
 C     18.72290722    -48.43397026     11.69242714
 C     19.42643212    -49.69797597     11.16427729
 C     18.57957510    -50.97932523     11.27642570
 C     19.17836045    -52.19230211     10.54039365
 C     18.33806740    -53.47697587     10.66336081
 C     18.95183829    -54.69736037      9.95234255
 C     18.09047307    -55.97104358     10.03825557
 C     18.72245399    -57.20144740      9.36127214
 C     17.82213763    -58.45084770      9.36668959
 C     18.37395261    -59.62415160      8.53575146
 C     17.38311672    -60.79044756      8.36371083
 C     17.96911052    -62.00586778      7.62144071
 C     17.12919965    -63.28918578      7.76016577
 C     17.65049596    -64.47244907      6.92366225
 C     16.62430781    -65.60472651      6.73265002
 C     17.16394688    -66.81279445      5.94463889
 C     16.08817481    -67.85115413      5.57568952
 C     16.65620971    -69.17652260      5.03500961
 C     15.71565129    -70.38211264      5.21804653
 C     16.24798438    -71.69063513      4.60486600
 C     15.25919108    -72.86842561      4.68670375
 C     15.87927953    -74.23267203      4.33184884
 C     15.27902975    -75.41592596      5.11364827
 C     15.90778443    -76.77854555      4.76790933
 C     15.49018308    -77.91930997      5.71441112
 C     16.11725303    -79.28237914      5.36738703
 C     15.61414459    -80.44458658      6.24360375
 C     15.97653425    -81.83986741      5.70187952
 C     15.50391601    -83.00115075      6.59611271
 C     15.72430977    -84.39547729      5.98058036
 C     15.02118093    -85.53455264      6.74197197
 C     15.60433380    -86.93126877      6.45786496
 C     15.29306263    -87.97359485      7.54794138
 C     15.81955976    -89.38603113      7.23262480
 C     15.84049378    -90.33235835      8.44737849
 C     15.91673647    -91.82524668      8.07714681
 C     16.00775701    -92.76790167      9.29152600
 C     16.44928173    -94.20086647      8.94043087
 C     16.60407033    -95.12565289     10.16207345
 C     16.62767466    -96.62546010      9.81333119
 C     16.95390786    -97.54121171     11.00772261
 C     16.84234186    -99.04460682     10.69314958
 C     17.45411080    -99.95739497     11.77211045
 C     17.12030406   -101.45003238     11.59264841
 C     17.70500821   -102.35894696     12.68973334
 C     17.36935382   -103.85131476     12.51147939
 C     18.25723229   -104.79657708     13.34199186
 C     18.06355703   -106.28840987     13.01256080
 C     19.02459413   -107.22626296     13.76650992
 C     18.80625688   -108.72065840     13.46532704
 C     19.79147471   -109.65621702     14.19036215
 C     19.48384957   -111.15390612     14.00625857
 C     20.60145452   -112.08881132     14.50476780
 C     20.50361680   -113.52678998     13.96232412
 C     21.40975068   -114.53495022     14.69316905
 C     21.29638098   -115.97690970     14.16449129
 C     21.50711520   -117.05730966     15.24149037
 C     21.45269855   -118.49865440     14.70189407
 C     21.61219818   -119.58003708     15.78668500
 C     21.52908425   -121.02153092     15.25115949
 C     20.19743377   -121.35456599     14.55302296
 C     20.22830773   -122.65868865     13.73454212
 C     18.85077223   -123.09857198     13.20492094
 C     18.87684856   -124.41854488     12.41208327
 C     17.57369687   -124.71560925     11.64713333
 C     17.47122937   -126.15945461     11.12138530
 C     16.07141786   -126.53991375     10.60429868
 C     16.07411217   -127.68364086      9.57304650
 C     14.69072617   -128.31799211      9.33758599
 C     14.74036240   -129.68253379      8.62543274
 C     13.36996850   -130.37382327      8.49997589
 C     13.45126945   -131.85589071      8.08952946
 C     12.08053951   -132.51536719      7.84913354
 C     12.14521574   -134.04170190      7.65491885
 C     12.72054491   -134.47615043      6.29409159
 C     13.55210034   -135.77112666      6.35023538
 C     14.18749496   -136.16636110      5.00425491
 C     15.11905966   -137.38988142      5.08662754
 C     15.64239381   -137.87177314      3.72079382
 C     16.96728655   -138.65300619      3.79782716
 C     17.78929609   -138.62207028      2.49592728
 C     19.22066590   -139.17010255      2.64573077
 C     20.01154290   -139.22549415      1.32548634
 C     21.50616220   -139.55092219      1.50383921
 C     22.28949672   -139.64232079      0.18110215
 C     23.81929851   -139.64534292      0.35801271
 C     24.58923598   -140.19599538     -0.85672107
 C     26.12041791   -140.16204676     -0.69569499
 C     26.89066314   -140.69947311     -1.91614376
 C     28.24567553   -141.34312065     -1.56792073
 C     28.96192983   -141.98470946     -2.77081041
 C     30.43952013   -142.33043020     -2.50850511
 C     31.19405257   -142.83855900     -3.75111765
 C     32.67095429   -143.18676022     -3.48821614
 C     33.40778941   -143.75739990     -4.71420324
 C     34.86465516   -144.17003262     -4.43335378
 C     35.65211236   -144.58324536     -5.69063910
 C     37.04766976   -145.16260970     -5.39339088
 C     37.52494549   -146.20529846     -6.42130529
 C     39.02708512   -146.53231398     -6.33054523
 C     39.50464728   -147.57394703     -7.35939652
 C     40.99248136   -147.94866743     -7.22697913
 C     41.37229369   -149.26401873     -7.93209866
 C     42.86082359   -149.63698459     -7.80257946
 C     43.24787916   -150.93377812     -8.53750431
 C     44.71433893   -151.35655915     -8.33170843
 C     45.26299703   -152.27448793     -9.43985149
 C     46.78450080   -152.50161765     -9.36887000
 C     47.31662690   -153.50807554    -10.40592559
 C     48.84462174   -153.69644985    -10.36922541
 C     49.35212428   -154.86828669    -11.22994581
 C     50.88437766   -154.92150214    -11.37474813
 C     51.38456438   -156.00869256    -12.34399022
 C     52.88397410   -155.90651757    -12.68004193
 C     53.41435857   -157.07033361    -13.53784410
 C     54.85770654   -156.87323692    -14.03734337
 C     55.24905617   -157.79998523    -15.20335497
 C     56.76792847   -157.91285850    -15.43114121
 C     57.15770798   -158.80333796    -16.62559433
 C     58.66577570   -158.80805376    -16.93753910
 C     59.02260482   -159.44137578    -18.29517535
 C     60.50342578   -159.84229725    -18.42945592
 C     60.84068735   -160.56055396    -19.74928998
 C     62.35054547   -160.69774825    -20.01967153
 C     62.68768389   -161.36807676    -21.36451255
 C     64.18584247   -161.34045074    -21.71998082
 C     64.48889529   -161.70647865    -23.18482981
 C     65.99140211   -161.80519390    -23.50782908
 C     66.29423554   -162.30102333    -24.93402861
 C     67.79050418   -162.53907647    -25.20991056
 C     68.10578938   -162.91893835    -26.66864296
 C     69.52649681   -162.53549892    -27.12269650
 C     69.92292251   -163.11278067    -28.49426219
 C     71.28775491   -162.62034344    -29.01034174
 C     72.03433186   -163.64585251    -29.88358513
 C     73.54227777   -163.36753742    -30.02585199
 C     74.24929712   -164.26166102    -31.06135507
 C     75.74249939   -163.93746598    -31.25330444
 C     76.47170932   -164.89154830    -32.21745164
 C     77.96107434   -164.55755443    -32.42199976
 C     78.61587788   -165.30851859    -33.59625917
 C     79.74853342   -164.52606546    -34.28651892
 C     80.13104469   -165.07173662    -35.67487339
 C     81.43569770   -164.48196473    -36.24201505
 C     81.61092552   -164.69145034    -37.75760437
 C     82.42311648   -163.58333755    -38.45332836
 C     82.54795022   -163.76151610    -39.97788369
 C     83.33271957   -162.63643659    -40.67783596
 C     83.38331704   -162.76839913    -42.21133711
 C     84.45584959   -161.88902821    -42.88065073
 C     84.48186436   -161.99310708    -44.41690944
 C     85.41920099   -160.97843801    -45.09767865
 C     85.10271398   -160.73308525    -46.58470185
 C     86.04517070   -159.72459510    -47.26758029
 C     85.54534321   -159.22831543    -48.63706157
 C     86.50020165   -158.23969598    -49.33166718
 C     86.00964504   -157.75848487    -50.70985080
 C     86.75528649   -156.52104581    -51.24310814
 C     86.19196977   -155.18191915    -50.73221278
 C     87.15297537   -153.99113596    -50.90571674
 C     86.77260128   -152.75276508    -50.07303845
 C     87.79676359   -151.60546638    -50.15302116
 C     87.31133089   -150.28735197    -49.52172924
 C     88.25195675   -149.09254234    -49.76514849
 C     87.89797661   -147.83911880    -48.94342622
 C     86.40977239   -147.44819932    -49.00690973
 C     86.06870883   -146.15504743    -48.24334320
 C     84.61003603   -145.69218346    -48.41547872
 C     84.20282086   -144.54202450    -47.47584573
 C     82.83241174   -143.92067533    -47.80372384
 C     82.25181546   -143.05182781    -46.67252450
 C     80.72413012   -142.87069332    -46.74300726
 C     80.10148057   -142.29626487    -45.45695147
 C     78.59490753   -141.99771063    -45.56965922
 C     77.93426724   -141.59753566    -44.23736255
 C     76.43747608   -141.25602007    -44.35812388
 C     75.82135002   -140.67675569    -43.07109573
 C     74.34564294   -140.26071274    -43.21530689
 C     73.76586694   -139.56657969    -41.96885629
 C     72.22820385   -139.48261165    -41.95695732
 C     71.67386679   -138.25079762    -41.21740028
 C     70.13817874   -138.22636354    -41.10486051
 C     69.59583643   -137.12685688    -40.17290024
 C     68.13532539   -137.34169702    -39.73432162
 C     67.75513244   -136.60159376    -38.43844335
 C     66.27195783   -136.74259502    -38.04868483
 C     65.81183219   -135.74940534    -36.96542186
 C     64.48398753   -136.13368854    -36.28663251
 C     64.09621183   -135.22173708    -35.10783036
 C     62.62213854   -135.34465234    -34.67934491
 C     62.26503754   -134.52921969    -33.42270317
 C     60.79007160   -134.64910573    -32.99643705
 C     60.35642896   -133.61321523    -31.94264155
 C     58.83696424   -133.56910054    -31.69590113
 C     58.37109055   -132.35385137    -30.87265683
 C     56.94181789   -132.48598978    -30.31469707
 C     56.60807157   -131.47554462    -29.20149719
 C     55.13058107   -131.48720837    -28.76734768
 C     54.71895080   -130.27332733    -27.91373574
 C     53.46744084   -130.51149113    -27.04851852
 C     52.77316352   -129.21846976    -26.58196224
 C     51.25802038   -129.36923077    -26.35128415
 C     50.53229704   -128.04079304    -26.06812550
 C     49.03309664   -128.20056260    -25.75432326
 C     48.30036708   -126.86951117    -25.50330633
 C     46.78470093   -127.02182088    -25.27712526
 C     46.10988151   -125.76815236    -24.69015508
 C     44.57888262   -125.74568744    -24.85489040
 C     43.90016461   -124.51049716    -24.23420786
 C     42.37654118   -124.45741079    -24.45181637
 C     41.77093103   -123.04955525    -24.30088882
 C     40.23218251   -123.02042739    -24.35570259
 C     39.62135207   -121.63580192    -24.07057370
 C     38.08867379   -121.64609772    -23.92093647
 C     37.50387623   -120.33065568    -23.37392271
 C     35.99734698   -120.15594893    -23.64121875
 C     35.33301867   -119.05891179    -22.78870635
 C     34.13327488   -118.37585745    -23.47109304
 C     33.63955024   -117.10879180    -22.74833401
 C     32.37279325   -116.48847845    -23.36650720
 C     31.92924825   -115.17363543    -22.69863322
 C     30.51924612   -114.70816995    -23.10708873
 C     29.38041215   -115.45164697    -22.38466289
 C     28.11053263   -114.60486601    -22.17980191
 C     28.13899443   -113.72947253    -20.91312272
 C     26.74863935   -113.45309892    -20.31135001
 C     26.77806297   -112.58763209    -19.03788960
 C     25.40565853   -112.42679908    -18.35800816
 C     25.44914550   -111.63263457    -17.03929226
 C     24.33776427   -112.01164867    -16.04290875
 C     24.31300014   -111.14255741    -14.77181980
 C     23.01466416   -111.26714547    -13.95303930
 C     22.96185277   -110.34770351    -12.71876323
 C     21.73455391   -110.57871209    -11.81766803
 C     21.24015997   -109.31147440    -11.09566853
 C     19.93134367   -109.50931366    -10.30861102
 C     19.69361290   -108.45355344     -9.21295851
 C     18.59939090   -108.83779195     -8.19972656
 C     18.41276016   -107.81676840     -7.06206234
 C     17.52036185   -108.31748215     -5.91118833
 C     17.52116274   -107.40092760     -4.67363949
 C     16.64034104   -107.90920069     -3.51717436
 C     16.75933764   -107.07718038     -2.22675504
 C     15.81906076   -107.53596809     -1.09671379
 C     15.87599463   -106.65211139      0.16310996
 C     14.74659234   -106.92763821      1.17312750
 C     14.91764697   -106.19801607      2.51848688
 C     13.71964101   -106.35556333      3.47324371
 C     13.97241304   -105.80955639      4.89084123
 C     12.76898236   -105.95272889      5.84102870
 C     13.09652781   -105.65464176      7.31597210
 C     11.88692612   -105.77058687      8.26202732
 C     12.25078607   -105.69280265      9.75640196
 C     11.03531304   -105.74524681     10.70058146
 C     11.35227410   -105.34200262     12.15265922
 C     10.10914393   -104.98898481     12.99027835
 C     10.43378573   -104.42621282     14.38652166
 C      9.22293583   -103.80768966     15.10962027
 C      9.54378525   -103.26065930     16.51297819
 C      8.32846061   -102.66109645     17.24449061
 C      8.60666845   -102.27537333     18.70921518
 C      7.40322586   -101.63834521     19.42860457
 C      7.76113637   -100.95057722     20.75919664
 C      6.63076801   -100.07938356     21.33789257
 C      6.84281464    -99.67374536     22.80829860
 C      5.75976863    -98.72784902     23.35956211
 C      6.04710936    -98.20687336     24.77999150
 C      4.94962013    -97.28478887     25.34291031
 C      5.31450369    -96.62376261     26.68511159
 C      4.13581216    -95.90993683     27.37267180
 C      4.50455113    -95.23468459     28.70671302
 C      3.32948701    -94.50762450     29.38657177
 C      3.74972002    -93.58759238     30.54784052
 C      2.58655358    -92.79246924     31.16946987
 C      2.99960148    -91.90384447     32.35746711
 C      1.82121269    -91.18882914     33.04430986
 C      2.23303025    -90.30869725     34.23903751
 C      1.04494506    -89.71908899     35.02160744
 C      1.33931952    -88.35536701     35.67368566
 C      0.10797291    -87.43783839     35.78999023
 C      0.38738777    -86.10196932     36.50341937
 C     -0.81582029    -85.14107911     36.52751051
 C     -0.51040310    -83.77062369     37.16010223
 C     -1.76500903    -82.96644069     37.54850108
 C     -1.50285580    -81.46527370     37.77070218
 C     -2.77977812    -80.60522998     37.80804084
 C     -2.51314822    -79.09263762     37.92016956
 C     -3.78917153    -78.23047738     37.92681910
 C     -3.52055009    -76.71408728     37.92871493
 C     -4.68468818    -75.87104746     37.37584392
 C     -4.49338617    -74.35227574     37.54417696
 C     -5.60140158    -73.50520963     36.89119852
 C     -5.46794847    -71.99287616     37.14934135
 C     -6.46244306    -71.13079627     36.34971719
 C     -6.10158345    -69.63425330     36.30801014
 C     -6.97605139    -68.80556419     35.34874993
 C     -7.03965579    -67.30659345     35.69608437
 C     -7.28718959    -66.39223020     34.48189046
 C     -6.69377992    -64.97896820     34.63073757
 C     -6.76437071    -64.13155492     33.34679533
 C     -6.20755651    -62.70466830     33.50664682
 C     -6.16455381    -61.89850323     32.19521682
 C     -5.49453813    -60.51846091     32.32998403
 C     -5.45722162    -59.70967580     31.01999392
 C     -4.82525591    -58.31273291     31.16411161
 C     -4.63342517    -57.57116606     29.82811776
 C     -4.27788383    -56.08093476     29.98432601
 C     -4.00680836    -55.35860872     28.65152325
 C     -3.67427209    -53.86289827     28.80602204
 C     -2.93266368    -53.25821631     27.59938345
 C     -2.93438023    -51.71848802     27.57050677
 C     -2.27257885    -51.11475793     26.31785801
 C     -2.42567782    -49.58666809     26.20339343
 C     -2.05696123    -49.02218313     24.81883401
 C     -1.89452862    -47.49105178     24.78963743
 C     -1.32390397    -46.94680880     23.46684225
 C     -1.10312649    -45.42273227     23.45991176
 C     -0.69698620    -44.85488889     22.08724868
 C     -1.05946531    -43.37106540     21.89109374
 C     -2.51192008    -43.13589008     21.43648655
 C     -2.78497709    -41.70917697     20.92508691
 C     -4.17237166    -41.52934225     20.28135110
 C     -4.26768168    -40.32661236     19.32429478
 C     -5.70921538    -39.86643823     19.03825223
 C     -6.03303938    -39.71580503     17.54023766
 C     -7.32768241    -38.93214577     17.25497005
 C     -7.66025652    -38.79576738     15.75750706
 C     -8.70860909    -37.71187467     15.44488353
 C     -8.99614983    -37.53334842     13.94253580
 C    -10.23268692    -36.66667729     13.64011695
 C    -10.50489952    -36.46631706     12.13766692
 C    -11.79862944    -35.68815781     11.83380665
 C    -12.03712692    -34.48263518     12.76194142
 C    -11.58067900    -33.13629033     12.16981742
 C    -11.88541516    -31.92206005     13.06669015
 C    -11.53473911    -30.56632156     12.42590980
 C    -11.47642773    -29.39702927     13.42638734
 C    -10.88634902    -28.10060875     12.84098069
 C    -10.20235955    -27.19702053     13.88371111
 C     -9.57132400    -25.92334105     13.29114489
 C     -8.94171004    -24.98935276     14.34131256
 C     -8.49743101    -23.62559952     13.78060475
 C     -7.59305929    -22.82135378     14.73291803
 C     -7.06091482    -21.50755604     14.13095644
 C     -6.34215523    -20.59940325     15.14596539
 C     -5.67222298    -19.36387899     14.51646511
 C     -6.65383088    -18.41159703     13.80850680
 C     -6.01193317    -17.09935899     13.32106585
 C     -7.02828281    -15.99368694     12.98029800
 C     -6.42698252    -14.80818675     12.20272018
 C     -7.47144012    -13.94401076     11.47202999
 C     -6.90880610    -12.62754577     10.90461225
 C     -7.94674187    -11.77675443     10.14933520
 C     -7.56312281    -10.29104284     10.01857786
 C     -8.49681361     -9.48157874      9.09956244
 C     -7.99073852     -8.06110288      8.78693433
 C     -6.61503475     -8.02425903      8.09578915
 C     -6.32310499     -6.70813404      7.35134839
 C     -4.91926879     -6.64279883      6.72160620
 C     -4.78990979     -5.61156079      5.58520207
 C     -3.33605016     -5.30305556      5.18182051
 C     -3.20702353     -4.46669737      3.89517483
 C     -1.78082233     -3.95410340      3.62168343
 C     -0.77906089     -5.06105868      3.24389510
 C      0.59558096     -4.53418091      2.79183359
 C      1.62464154     -5.64127105      2.49690012
 C      2.97053056     -5.11878426      1.96099873
 C      3.83322061     -6.19588853      1.27746945
 C      5.20720500     -5.68884643      0.80136524
 C      5.99117049     -6.70735439     -0.04695051
 C      7.47467411     -6.34579278     -0.24717591
 C      8.29740593     -7.44222950     -0.94898705
 C      9.82089934     -7.27517987     -0.79844720
 C     10.64177060     -8.40982990     -1.43902484
 C     12.14470249     -8.36019242     -1.10686245
 C     12.91764428     -9.62955596     -1.51044291
 C     14.20903533     -9.85964433     -0.70361671
 C     14.03638037    -10.80707950      0.49811407
 C     15.32051020    -11.01316693      1.32281920
 C     15.10192666    -11.77733060      2.64186246
 C     16.40081130    -12.08664109      3.40921226
 C     16.27557768    -13.25149357      4.40872976
 C     17.61534700    -13.69433244      5.02558622
 C     17.46684960    -14.62003479      6.24731601
 C     18.79103987    -15.24507955      6.72422182
 C     18.61150510    -16.44641123      7.67088410
 C     19.93433828    -17.02461628      8.20697300
 C     20.02370327    -18.56007937      8.12972676
 C     21.40057671    -19.12787521      8.52142488
 C     21.50926969    -20.65788776      8.38413899
 C     22.82382071    -21.24410326      8.93177666
 C     22.90660384    -22.77973617      8.85066860
 C     24.33809163    -23.33659334      8.96181174
 C     24.46362310    -24.82273167      8.57810001
 C     25.85010740    -25.42867276      8.86462519
 C     25.80182220    -26.83099921      9.49925034
 C     25.09054712    -26.87658040     10.86439140
 C     25.91555110    -26.28168803     12.02070948
 C     25.14518581    -26.17553187     13.34994543
 C     23.88814525    -25.28895038     13.27630924
 C     23.09632678    -25.21408518     14.59502783
 C     21.70110189    -24.57794646     14.45263743
 C     20.82673845    -24.69679202     15.71476432
 C     19.69051706    -23.65996489     15.78953373
 C     18.96332673    -23.62437249     17.14656262
 C     17.65580720    -22.81081980     17.13539467
 C     16.67313804    -23.18902761     18.25919188
 C     15.22972853    -22.71017774     18.01655680
 C     14.51790496    -23.42956746     16.85578738
 C     14.30552919    -22.54981577     15.60978035
 C     13.65276461    -23.28751587     14.42601645
 C     14.08719355    -22.76308382     13.04476972
 C     15.61316352    -22.65664423     12.86676332
 C     16.04438099    -21.91593308     11.58731090
 C     17.56777292    -21.73641781     11.45074118
 C     18.10687229    -20.44650762     12.09657674
 C     19.61003742    -20.49292899     12.42814822
 C     20.18320441    -19.15325787     12.92650641
 C     21.70080646    -19.17937565     13.18689433
 C     22.11541685    -20.04991925     14.38766577
 C     23.61343188    -20.40596617     14.41562252
 C     23.99996390    -21.40183127     15.52487709
 C     23.90104335    -20.82307198     16.94855276
 C     24.58534634    -21.68643020     18.02462990
 C     23.97644189    -23.09235057     18.18026823
 C     24.51407223    -23.87725018     19.39125387
 C     24.33667031    -25.40278466     19.27779411
 C     22.88523952    -25.88055829     19.46931699
 C     22.70307753    -27.40312679     19.32718264
 C     23.10639934    -27.95614490     17.94765283
 C     22.45297047    -29.30625428     17.59860361
 C     22.77078417    -29.80712246     16.17743313
 C     22.15287127    -28.94882499     15.05800958
 C     22.61232387    -29.34154186     13.64157859
 C     22.18857104    -28.34484197     12.54676222
 C     20.66447563    -28.16385955     12.42035591
 C     20.24624035    -26.95044709     11.56929218
 C     20.50343941    -27.12474960     10.06095956
 C     20.59780202    -25.79832287      9.28424351
 C     19.37078484    -24.88358806      9.45538396
 C     19.38790324    -23.63696089      8.55137751
 C     18.03462896    -22.90699958      8.46532401
 C     18.05956561    -21.64296781      7.58600505
 C     16.66336034    -21.09280458      7.24027214
 C     16.68906681    -19.78545737      6.42677201
 C     17.29143223    -19.93636761      5.01752328
 C     17.28336005    -18.63732033      4.19047370
 H     -0.36333333      0.00000000      1.02766186
 H     -0.36333333     -0.88998127     -0.51383093
 H     -0.36333333      0.88998127     -0.51383093
 H      1.88274777      0.07771446      1.03178701
 H      1.88274777      0.41456635      0.94802885
 H      3.13346914     -0.89968034      1.12551966
 H      3.21864878     -0.15848992      1.33130851
 H      4.07533386     -0.85884062      2.22874260
 H      3.83269588     -1.65411663      1.94473656
 H      5.03697760     -2.03247193      2.36496192
 H      5.23493299     -1.75611705      2.35805452
 H      6.21880872     -1.64983648      3.41065161
 H      5.75361523     -2.83115869      2.71073187
 H      6.74964794     -3.56720260      3.04710257
 H      6.85419042     -3.49169618      3.08023552
 H      8.09239670     -3.14610084      4.32832297
 H      7.60086291     -4.35976759      3.70100288
 H      7.32488480     -4.03526789      5.39207010
 H      8.29414965     -5.02854929      4.46646795
 H      6.83760408     -5.63591935      4.26531557
 H      7.77614532     -6.08722879      4.65706939
 H      8.62926424     -6.43339513      3.92408728
 H      8.25861943     -7.12955095      4.85380314
 H      8.76140970     -8.10989604      5.04800318
 H      9.13026678     -7.90061162      3.80784413
 H      9.77474522     -8.60988087      3.23286626
 H      9.56220195     -8.57159200      3.08663714
 H      9.49814942     -9.56724625      2.18930419
 H      7.93271435     -8.31473340      2.24036737
 H      8.02503988    -10.67409301      2.48207044
 H      9.46524049    -10.78304792      2.68708325
 H     10.27401229    -10.99562012      3.41180541
 H     10.99062680    -10.47218277      1.86883954
 H     10.98986131    -12.94113346      2.15086478
 H      9.19084865    -12.86580246      2.70442258
 H     11.10411583    -13.16354647      3.79524250
 H     12.07267812    -13.00773587      2.31002305
 H     10.60078113    -15.21456526      1.81437449
 H      9.88305153    -14.94791343      3.42124339
 H     12.46719256    -15.41828913      4.02272314
 H     12.71935176    -15.59183022      2.26927913
 H     11.14672206    -17.58983077      2.43719328
 H     10.99840738    -17.27659967      4.18309009
 H     13.22042892    -17.64810522      4.73441034
 H     13.63582493    -18.01525769      3.04298730
 H     12.28994723    -19.90182502      2.83174002
 H     11.72390591    -19.75051222      4.51250423
 H     13.91222039    -20.08630846      5.42885880
 H     14.59920546    -20.25957841      3.79597922
 H     13.50352753    -22.11702384      3.10647076
 H     12.62842605    -22.26162049      4.64969980
 H     14.50153858    -22.60077375      5.99262877
 H     15.59047844    -22.49955538      4.58826718
 H     14.73377160    -24.38641109      3.48645788
 H     13.56064227    -24.67357413      4.79396375
 H     15.65391133    -24.76566678      6.34032331
 H     16.57125401    -24.77821736      5.11130899
 H     14.28604110    -25.73146691      6.94775284
 H     15.27277155    -24.28486025      7.26706278
 H     17.13353291    -26.18703520      7.41214036
 H     15.83092925    -27.34628635      7.05489096
 H     15.04098180    -26.33734328      9.41871250
 H     16.50754256    -25.33115251      9.34767495
 H     17.69747872    -27.64633369      9.44617191
 H     16.08427819    -28.39665064      9.49979295
 H     15.64964593    -27.28299277     11.65887929
 H     17.26446900    -26.53683687     11.59671423
 H     18.13764833    -28.93976414     11.70274178
 H     16.45009597    -29.50364993     11.75240576
 H     16.00723284    -28.42148814     13.84683465
 H     17.67477609    -27.80209358     13.90941693
 H     18.31852646    -30.29453368     14.00865287
 H     16.58490876    -30.69059945     13.93139845
 H     16.66342100    -29.38221503     16.24290129
 H     18.40803549    -29.17687791     15.95580618
 H     18.69519562    -31.42317173     16.67445892
 H     16.70876230    -31.72011393     16.37758145
 H     18.52737433    -30.44897964     18.35093819
 H     19.69730962    -31.03152718     17.14256885
 H     18.35595928    -33.34168011     17.67020997
 H     17.98868523    -32.92632179     18.70020135
 H     20.01343021    -33.51740298     16.62402452
 H     18.25452889    -33.78629503     16.57680280
 H     18.65755158    -35.39625814     18.51770021
 H     20.39180174    -35.00599122     18.42640534
 H     20.55674077    -35.93108350     16.18644183
 H     18.82671905    -36.34870818     16.21612600
 H     20.25341923    -37.78168368     18.21371342
 H     21.63753309    -36.87118357     17.56295613
 H     21.68585559    -37.69380304     15.45281792
 H     20.34062871    -38.45981397     15.52010876
 H     19.35497487    -38.32673691     15.05580880
 H     19.50191926    -39.64068186     16.24753976
 H     21.15087064    -40.82556754     15.02379676
 H     21.12606487    -39.60031903     13.73289885
 H     18.60281579    -40.82766555     13.87106737
 H     19.34417372    -41.75272904     15.19881457
 H     20.94579529    -42.87158442     14.29768944
 H     20.61065851    -42.23514556     12.66953233
 H     18.67099163    -42.87161841     12.12563977
 H     18.41411963    -43.75491785     13.64947229
 H     20.32787321    -45.23872046     12.99193217
 H     20.51505370    -44.29810648     11.49244044
 H     17.98582449    -45.67075229     11.69452203
 H     18.67909039    -46.18006432     13.25280644
 H     20.47403860    -47.37641016     12.37141398
 H     19.97176664    -47.00197773     10.70534378
 H     17.87704008    -48.23361335     11.03480575
 H     18.36095070    -48.61944714     12.70370643
 H     20.28359971    -49.90604680     11.80464458
 H     19.77079818    -49.49978645     10.14927338
 H     17.66172372    -50.83451340     10.70662014
 H     18.33417108    -51.13714996     12.32664864
 H     20.16398719    -52.39511197     10.95933051
 H     19.27740278    -51.93819230      9.48506488
 H     17.34850736    -53.28005888     10.25093550
 H     18.24788333    -53.72768720     11.72029537
 H     19.93419411    -54.88766523     10.38461689
 H     19.06047027    -54.45881912      8.89432688
 H     17.12199764    -55.76111874      9.58428763
 H     17.95215022    -56.22095857     11.09016302
 H     19.68030739    -57.40244574      9.84108098
 H     18.88506190    -56.96797642      8.30906020
 H     16.89710901    -58.20901056      8.84329982
 H     17.59747980    -58.70693794     10.40208645
 H     19.34779377    -59.90168340      8.93912411
 H     18.48964920    -59.28952449      7.50485913
 H     16.48921270    -60.41061655      7.86897453
 H     17.11956595    -61.16502048      9.35281958
 H     18.83038032    -62.36782497      8.18295769
 H     18.29093995    -61.68076866      6.63207911
 H     16.13371232    -63.09195388      7.36241640
 H     17.05482715    -63.53736155      8.81892803
 H     18.66955567    -64.69381634      7.24085909
 H     17.65275339    -64.17601049      5.87474896
 H     15.74753873    -65.19207847      6.23355326
 H     16.33999545    -65.97911974      7.71606051
 H     18.02309636    -67.21574586      6.48091525
 H     17.47964145    -66.46670883      4.96043277
 H     15.32912630    -67.35747523      4.96887282
 H     15.63517634    -68.21750050      6.49692929
 H     17.30263723    -69.60921347      5.79856057
 H     17.24313464    -68.95917514      4.14260880
 H     14.78228682    -70.17098848      4.69616784
 H     15.51711442    -70.50336673      6.28293177
 H     17.20259329    -71.92613536      5.07535665
 H     16.39848963    -71.53236537      3.53697141
 H     14.34788507    -72.58821742      4.15840013
 H     15.02919219    -73.05054523      5.73648133
 H     16.70039914    -74.42590923      5.02215455
 H     16.26530789    -74.17933320      3.31389154
 H     14.21061423    -75.45966950      4.90228417
 H     15.43182247    -75.23638330      6.17784694
 H     16.97449776    -76.72916082      4.98650446
 H     15.76319621    -76.96250877      3.70331938
 H     14.40583503    -78.02123421      5.67081353
 H     15.78944760    -77.65092725      6.72758014
 H     17.20174609    -79.18149905      5.40979014
 H     15.81657946    -79.55005503      4.35444823
 H     14.53387085    -80.52321739      6.12143239
 H     15.84644266    -80.21524872      7.28357575
 H     17.06205896    -81.90882589      5.63130454
 H     15.54039493    -81.94578446      4.70856987
 H     14.41970918    -82.94131253      6.69105971
 H     15.96161433    -82.88542007      7.57856813
 H     16.79010495    -84.52144657      5.79002230
 H     15.17848322    -84.44436091      5.03835758
 H     13.95061120    -85.32994119      6.75267733
 H     15.39882936    -85.54764849      7.76437608
 H     16.65666342    -86.92759254      6.74192279
 H     15.51710454    -87.12825352      5.38936692
 H     14.21044946    -88.06544304      7.63519172
 H     15.70458724    -87.61584693      8.49174429
 H     16.90132055    -89.32944035      7.11141809
 H     15.36637859    -89.72031651      6.29936164
 H     14.82345668    -90.42292868      8.82886577
 H     16.47820564    -89.89206525      9.21390675
 H     16.82635263    -91.98906119      7.49933780
 H     15.04861854    -92.07151831      7.46573734
 H     15.12522204    -92.61335680      9.91228998
 H     16.90137983    -92.50960510      9.85969951
 H     17.43155017    -94.15142820      8.47053240
 H     15.72999746    -94.61818542      8.23575007
 H     15.64402616    -95.17890191     10.67547360
 H     17.34897568    -94.69111636     10.82870230
 H     17.46358494    -96.80716015      9.13780244
 H     15.69333649    -96.87519959      9.31059629
 H     16.20039871    -97.38041854     11.77874110
 H     17.93448022    -97.26378652     11.39452116
 H     17.53404850    -99.27764391      9.88362155
 H     15.82215337    -99.25248009     10.37049783
 H     16.94119200    -99.76543321     12.71453551
 H     18.50974961    -99.70622285     11.87525734
 H     17.49442044   -101.77041263     10.62028354
 H     16.03671990   -101.56471447     11.62081543
 H     17.30991130   -102.03263314     13.65177166
 H     18.78926611   -102.24729208     12.68549139
 H     17.76318502   -104.17865026     11.54926919
 H     16.28497533   -103.96174567     12.51679964
 H     18.13789401   -104.54183190     14.39506511
 H     19.29459030   -104.64082766     13.04579857
 H     18.29467772   -106.43937932     11.95809816
 H     17.02094389   -106.54753360     13.19671491
 H     18.86884081   -107.08850525     14.83649296
 H     20.04673100   -106.94836833     13.50938972
 H     18.94266925   -108.87816716     12.39542860
 H     17.78495702   -108.98072475     13.74355731
 H     19.68216702   -109.50343238     15.26405143
 H     20.80381275   -109.38970500     13.88664677
 H     19.51564715   -111.38190189     12.94084464
 H     18.48202871   -111.34767825     14.38954348
 H     20.75873496   -111.89920756     15.56656499
 H     21.51352775   -111.85615692     13.95513669
 H     20.55042805   -113.48652327     12.87407447
 H     19.54485588   -113.94451396     14.26954421
 H     21.13004370   -114.54624009     15.74660939
 H     22.44274005   -114.20116652     14.59508033
 H     21.56575531   -115.97690016     13.10830122
 H     20.26207057   -116.30239988     14.27565836
 H     20.75613567   -116.91727950     16.01900006
 H     22.50127070   -116.92606080     15.66872401
 H     22.23036814   -118.61142736     13.94650525
 H     20.47608561   -118.65669920     14.24434735
 H     20.81047668   -119.45610219     16.51468416
 H     22.57442160   -119.43389154     16.27746762
 H     22.31829809   -121.15857627     14.51193010
 H     20.79943383   -121.04492446     14.44173809
 H     20.06917396   -120.66962108     13.71487029
 H     19.38891349   -121.20783152     15.26916816
 H     20.47743508   -123.47956900     14.40699360
 H     21.00148587   -122.56641773     12.97179600
 H     18.45823208   -122.30448581     12.56975216
 H     18.18657926   -123.24421724     14.05682185
 H     19.25950694   -125.20302298     13.06497430
 H     19.54732364   -124.29440018     11.56170027
 H     17.39305681   -123.89925714     10.94782053
 H     16.75701383   -124.76447055     12.36737037
 H     17.53212965   -126.83891042     11.97152115
 H     18.31120544   -126.34043143     10.45072324
 H     15.80923662   -125.86043533      9.79333008
 H     15.36019867   -126.42153086     11.42176595
 H     16.51849548   -128.56353907     10.03823745
 H     16.68203246   -127.37642450      8.72207586
 H     14.01263807   -127.54061167      8.98548346
 H     14.32883476   -128.71318659     10.28677298
 H     15.33155267   -130.36595996      9.23495938
 H     15.22437227   -129.54697131      7.65824234
 H     12.70533566   -129.71780117      7.93783873
 H     12.96914921   -130.52470258      9.50231282
 H     14.03604959   -132.38779466      8.84000290
 H     13.95569956   -131.91730943      7.12522764
 H     11.57097240   -131.96763330      7.05639843
 H     11.50064423   -132.44590904      8.76945796
 H     12.58559756   -134.48264776      8.54919543
 H     13.08312784   -134.28420351      7.15530515
 H     13.73067890   -134.07627340      6.20561747
 H     12.09355508   -134.05678254      5.50725340
 H     12.91431190   -136.57206334      6.72416897
 H     14.38213599   -135.61584605      7.03945868
 H     14.83901489   -135.35439940      4.68123793
 H     13.38879507   -136.30324431      4.27525458
 H     14.54030806   -138.23717757      5.45437176
 H     15.92002840   -137.16405021      5.79058019
 H     16.19201620   -137.05318115      3.25611932
 H     14.78647502   -138.13391935      3.09887550
 H     16.81442702   -139.52520525      4.43343928
 H     17.72155750   -138.00540366      4.24480179
 H     18.01745896   -137.58282740      2.25925041
 H     17.18381870   -139.05194078      1.69798713
 H     19.15808726   -140.20337515      2.98709811
 H     19.74044908   -138.57123122      3.39358007
 H     20.07188414   -138.21573702      0.91946976
 H     19.47063830   -139.86562177      0.62852231
 H     21.58962442   -140.52074618      1.99432415
 H     21.95071957   -138.78370720      2.13775553
 H     22.20617615   -138.68502709     -0.33343303
 H     21.83913856   -140.42402163     -0.43063417
 H     24.09105250   -140.50033808      0.97707090
 H     24.10762078   -138.72403866      0.86414385
 H     24.34569658   -139.58213400     -1.72387894
 H     24.26264729   -141.22074517     -1.03371742
 H     26.38651606   -140.75770333      0.17750889
 H     26.42548336   -139.12776254     -0.53666284
 H     26.62372589   -140.09523979     -2.78317698
 H     26.58666770   -141.73241049     -2.08563456
 H     28.06549291   -142.17246427     -0.88394456
 H     28.86461038   -140.59347507     -1.07491856
 H     29.13211481   -141.21193915     -3.52045241
 H     28.31248307   -142.75593509     -3.18497214
 H     30.48517667   -143.02672250     -1.67113272
 H     30.96509588   -141.41214735     -2.24653806
 H     31.15401709   -142.06396419     -4.51695055
 H     30.69157594   -143.73500899     -4.11442834
 H     32.70934087   -143.96211891     -2.72307211
 H     33.17456319   -142.29140748     -3.12376923
 H     33.36713649   -143.01748981     -5.51356574
 H     32.89316850   -144.66420612     -5.03195757
 H     34.86113601   -144.92945637     -3.65145660
 H     35.40841508   -143.29205587     -4.08466773
 H     35.66176561   -143.74019211     -6.38148498
 H     35.14020022   -145.42673380     -6.15385958
 H     36.92612160   -146.04185328     -4.76073238
 H     37.62547700   -144.40803008     -4.85967898
 H     37.55240171   -145.73156865     -7.40259333
 H     36.80850025   -147.02666172     -6.43429007
 H     39.23460891   -146.91589571     -5.33159631
 H     39.58851925   -145.61176085     -6.49014990
 H     39.29731743   -147.18938048     -8.35800700
 H     38.94323411   -148.49469289     -7.20083321
 H     41.15645847   -148.35325660     -6.22822035
 H     41.58651379   -147.04369205     -7.35443516
 H     41.13670310   -149.16528829     -8.99174453
 H     40.77653282   -150.06850688     -7.50085882
 H     43.09874936   -149.73480619     -6.74337114
 H     43.45477135   -148.83208886     -8.23555626
 H     43.01624974   -150.81038446     -9.59543712
 H     42.65306967   -151.75032196     -8.12816604
 H     44.88201756   -151.50410581     -7.26483736
 H     45.35653995   -150.55323875     -8.69275438
 H     45.18873257   -151.74632455    -10.39044511
 H     44.64863262   -153.17416189     -9.47510952
 H     47.01931017   -152.95105422     -8.40400144
 H     47.27961995   -151.53387283     -9.44903847
 H     47.07156436   -153.13676271    -11.40099902
 H     46.81935693   -154.46412024    -10.24221515
 H     49.12280230   -154.04849531     -9.37585762
 H     49.31364396   -152.73059425    -10.55695157
 H     49.05355448   -154.68933483    -12.26286996
 H     48.88501619   -155.78513293    -10.87035855
 H     51.31970207   -155.01341649    -10.37968813
 H     51.21792634   -153.99028338    -11.83265302
 H     50.95390262   -155.81628222    -13.32664413
 H     51.04086396   -156.97689689    -11.97991551
 H     53.44959371   -155.98826107    -11.75187575
 H     53.06807400   -154.93239024    -13.13312380
 H     52.85416732   -157.09014381    -14.47266672
 H     53.24748775   -158.00039962    -12.99449214
 H     55.50845327   -156.76245182    -13.16995917
 H     54.89195860   -155.96292582    -14.63589203
 H     54.56983925   -157.61056942    -16.03455051
 H     55.13895612   -158.83262474    -14.87224527
 H     57.22357248   -158.29841433    -14.51909119
 H     57.15826752   -156.91665020    -15.63923842
 H     56.70618734   -158.38628360    -17.52575808
 H     56.76206750   -159.80383217    -16.45072315
 H     59.19709569   -159.16575643    -16.05558226
 H     58.97351012   -157.78576040    -17.15734772
 H     58.51219188   -158.88188855    -19.07910945
 H     58.66924059   -160.47250783    -18.29582617
 H     60.73643680   -160.56126800    -17.64403443
 H     61.11374862   -158.94895579    -18.29699062
 H     60.58942490   -159.89536198    -20.57541758
 H     60.23393436   -161.46384336    -19.81268610
 H     62.79583993   -161.26089001    -19.19949825
 H     62.78505312   -159.69863391    -20.05243798
 H     62.24907580   -160.77143118    -22.16434816
 H     62.24639748   -162.36473426    -21.37084655
 H     64.73454303   -161.85701691    -20.93246124
 H     64.50825821   -160.30020756    -21.76517156
 H     63.97047934   -160.99692204    -23.82971300
 H     64.11062041   -162.71139476    -23.37231773
 H     66.43054397   -162.56880607    -22.86583929
 H     66.45221359   -160.84101639    -23.29308619
 H     65.83622186   -161.60993169    -25.64164137
 H     65.85213128   -163.29007072    -25.05414974
 H     68.15494921   -163.28464751    -24.50322560
 H     68.32149656   -161.60009523    -25.05350940
 H     67.76233919   -162.11127715    -27.31503707
 H     67.56314477   -163.83299901    -26.90974447
 H     70.24181151   -163.04165325    -26.47444296
 H     69.64058313   -161.45663771    -27.01713702
 H     69.21495534   -162.74669299    -29.23780929
 H     69.86236857   -164.19969985    -28.43912673
 H     72.05087972   -162.90395927    -28.28556413
 H     71.25122804   -161.53411479    -29.09324598
 H     71.40834702   -163.88400239    -30.74354304
 H     72.19643811   -164.54662150    -29.29160812
 H     73.98767207   -163.37569255    -29.03103673
 H     73.66814048   -162.38111979    -30.47221376
 H     73.77819040   -164.10139554    -32.03113517
 H     74.11946664   -165.30161017    -30.76177233
 H     76.24583847   -164.05981888    -30.29425307
 H     75.82903530   -162.90100559    -31.57943537
 H     75.98147004   -164.83720679    -33.18946627
 H     76.38872325   -165.90498447    -31.82481895
 H     78.45869260   -164.60292625    -31.45328026
 H     78.03380233   -163.54573585    -32.82079019
 H     78.07858585   -165.05214787    -34.50932616
 H     78.52699636   -166.37893601    -33.41076896
 H     80.51815809   -164.31148614    -33.54507871
 H     79.33744230   -163.59011798    -34.66481300
 H     79.24866543   -165.03248045    -36.31359538
 H     80.45058884   -166.10748774    -35.55993359
 H     82.24511731   -164.71094236    -35.54882739
 H     81.31816331   -163.40106136    -36.31904470
 H     80.77123981   -164.21987299    -38.26813616
 H     81.60320070   -165.76271259    -37.95869522
 H     83.41182471   -163.54460937    -37.99610176
 H     81.91232329   -162.63346837    -38.29540797
 H     81.54520258   -163.77110595    -40.40508996
 H     83.03497203   -164.71703384    -40.17255163
 H     84.33611495   -162.60309186    -40.25335295
 H     82.82447551   -161.69194357    -40.48361726
 H     82.36122575   -162.76017714    -42.58996858
 H     83.85455735   -163.71978288    -42.45811944
 H     85.42945517   -162.17133601    -42.48003310
 H     84.24900444   -160.84791440    -42.63286630
 H     83.50570680   -161.69236499    -44.79739677
 H     84.67281703   -163.03173400    -44.68689316
 H     86.43051123   -161.14298309    -44.72582317
 H     85.09165779   -159.97449357    -44.82765825
 H     84.08115270   -160.36062868    -46.66078503
 H     85.18352828   -161.68276175    -47.11355305
 H     87.06466588   -160.10277146    -47.19200113
 H     85.97026412   -158.77383486    -46.73980764
 H     84.57614963   -158.75007963    -48.49544830
 H     85.43238738   -160.09086402    -49.29383467
 H     87.46047866   -158.73477076    -49.47612832
 H     86.63137910   -157.37521743    -48.68084515
 H     85.04501244   -157.26829496    -50.57832974
 H     85.88977915   -158.62938452    -51.35426213
 H     87.81418941   -156.76693325    -51.32288273
 H     86.98241102   -155.86817038    -50.40033408
 H     86.25394598   -155.17686007    -49.64398791
 H     85.14787899   -155.11068179    -51.03700727
 H     87.37948020   -153.88525387    -51.96665243
 H     88.07017336   -154.20832051    -50.35828756
 H     86.76494662   -153.03651212    -49.02064641
 H     85.77381542   -152.43331288    -50.37048947
 H     87.89055941   -151.30181730    -51.19566184
 H     88.75679494   -151.97744714    -49.79515230
 H     87.08583136   -150.47290911    -48.47157758
 H     86.40417751   -149.97363138    -50.03820978
 H     88.34530331   -148.94341449    -50.84085631
 H     89.22858549   -149.33418607    -49.34573864
 H     87.94094004   -148.09924011    -47.88579158
 H     87.00819482   -148.05662746    -48.35259770
 H     85.81962663   -148.28333874    -48.62959006
 H     86.14890700   -147.26019883    -50.04840148
 H     86.65539752   -145.34089273    -48.66884114
 H     86.34272262   -146.29225491    -47.19730756
 H     83.95414409   -146.48530771    -48.05650841
 H     84.42738300   -145.52202631    -49.47650860
 H     84.85726138   -143.69236876    -47.67050628
 H     84.33729159   -144.87600109    -46.44702249
 H     82.07632844   -144.70285889    -47.73570231
 H     82.86580823   -143.53525907    -48.82276210
 H     82.95386094   -142.24398691    -46.46606575
 H     82.14236850   -143.67397009    -45.78423381
 H     80.25950433   -143.85537537    -46.69178111
 H     80.47815265   -142.40200405    -47.69585849
 H     80.55332806   -141.32363792    -45.26219350
 H     80.32868369   -142.97380240    -44.63389519
 H     78.07898558   -142.92593405    -45.81527236
 H     78.44761949   -141.27647630    -46.37354185
 H     78.43354031   -140.70430766    -43.86190265
 H     78.06969963   -142.41451739    -43.52863205
 H     75.91703690   -142.12996321    -44.74987183
 H     76.33054917   -140.42608921    -45.05660896
 H     76.36102212   -139.76566856    -42.81268858
 H     75.94244315   -141.40945932    -42.27323493
 H     73.76889914   -141.13862897    -43.50639053
 H     74.17268780   -139.38746686    -42.58631710
 H     74.35611743   -138.67232142    -41.76884001
 H     73.84783577   -140.25218626    -41.12545559
 H     71.82925108   -140.49599151    -42.00165571
 H     71.90845155   -138.92704012    -42.83854607
 H     72.06225092   -137.35575659    -41.70336254
 H     72.02327461   -138.28460694    -40.18547436
 H     69.81954638   -139.12022183    -40.56858560
 H     69.72050102   -138.23840543    -42.11158804
 H     69.92701625   -136.16070566    -40.55365179
 H     70.00996639   -137.28637848    -39.17733546
 H     68.07120700   -138.29619617    -39.21190397
 H     67.51053950   -137.37335553    -40.62692474
 H     67.91271474   -135.53438039    -38.59440310
 H     68.40811550   -136.95231072    -37.63924954
 H     66.05172502   -137.80179645    -37.91568167
 H     65.66462074   -136.34448851    -38.86155190
 H     65.97387254   -134.73759351    -37.33701269
 H     66.41738805   -135.91023089    -36.07349291
 H     64.60639518   -137.11301891    -35.82400048
 H     63.71052814   -136.18787949    -37.05274211
 H     64.00851683   -134.20059773    -35.47888834
 H     64.88924290   -135.27030833    -34.36161152
 H     62.43464723   -136.37841825    -34.38904327
 H     61.99457807   -135.08734950    -35.53261105
 H     62.47709488   -133.47913036    -33.62381035
 H     62.89104728   -134.87526424    -32.60022827
 H     60.57537229   -135.69884498    -32.79630780
 H     60.16603406   -134.30113842    -33.81959918
 H     60.51380059   -132.61707530    -32.35621067
 H     60.98036481   -133.74217315    -31.05823558
 H     58.51551418   -134.55495715    -31.35995977
 H     58.34371927   -133.32737577    -32.63737792
 H     58.65809209   -131.44787708    -31.40645521
 H     58.87460100   -132.38112055    -29.90630616
 H     56.90361664   -133.36802664    -29.67543841
 H     56.25717849   -132.61490116    -31.15299937
 H     56.72704264   -130.46981908    -29.60456297
 H     57.31107663   -131.62398687    -28.38183337
 H     54.88704034   -132.48676068    -28.40723230
 H     54.51596771   -131.25454691    -29.63695625
 H     54.89823628   -129.36889564    -28.49507903
 H     55.33938289   -130.25822973    -27.01766873
 H     53.66730048   -131.34876626    -26.37984335
 H     52.63741738   -130.76368884    -27.70848623
 H     52.47700771   -128.65094520    -27.46417968
 H     53.48741238   -128.63714229    -25.99886110
 H     51.10148924   -130.13545941    -25.59201366
 H     50.79865386   -129.68627564    -27.28753462
 H     50.68503293   -127.37840260    -26.92018810
 H     50.97186479   -127.59333698    -25.17668663
 H     48.93275001   -128.83969785    -24.87709086
 H     48.55310151   -128.67803298    -26.60856369
 H     48.39985787   -126.25009272    -26.39466617
 H     48.77596127   -126.37036294    -24.65905447
 H     46.63035523   -127.66651174    -24.41187900
 H     46.35160737   -127.49009955    -26.16100593
 H     46.27212280   -124.93794505    -25.37756586
 H     46.57852961   -125.54345071    -23.73204333
 H     44.16743348   -126.62238773    -24.35468423
 H     44.34793818   -125.79276229    -25.91910308
 H     44.30921188   -123.61926336    -24.71010980
 H     44.13058581   -124.49182009    -23.16900495
 H     41.93562605   -125.35001768    -24.00802950
 H     42.18352166   -124.45173941    -25.52457511
 H     42.24446322   -122.39271526    -25.03056580
 H     41.98618650   -122.68990856    -23.29469831
 H     39.84860878   -123.64669431    -23.55024561
 H     39.91562019   -123.42862328    -25.31552779
 H     40.00405007   -120.93330532    -24.81093898
 H     39.93487330   -121.32126530    -23.07514859
 H     37.82915745   -122.31137296    -23.09743169
 H     37.65652541   -122.02743537    -24.84610098
 H     37.77630381   -119.52485348    -24.05551351
 H     37.94264590   -120.14175349    -22.39417931
 H     35.46786583   -120.98662847    -23.17461269
 H     35.83525055   -120.18116592    -24.71880348
 H     35.83060736   -118.11237619    -22.99983629
 H     35.46733544   -119.31342059    -21.73738134
 H     33.38569952   -119.13752631    -23.69265932
 H     34.47912668   -117.92480091    -24.40116537
 H     34.46238174   -116.39510503    -22.70710898
 H     33.34644665   -117.38429343    -21.73527472
 H     31.57687132   -117.23257518    -23.33603844
 H     32.58870708   -116.22964159    -24.40308073
 H     32.74214200   -114.45291713    -22.78733993
 H     31.73401249   -115.37324637    -21.64500213
 H     29.83147026   -115.54377422    -22.97735876
 H     30.50499003   -114.56556161    -24.18762546
 H     29.49552730   -115.29567409    -21.31203949
 H     29.46875513   -116.51469241    -22.60878320
 H     27.74751599   -114.28928969    -23.15792793
 H     28.41091891   -113.61216581    -21.84451933
 H     28.99300451   -113.05559147    -20.98132166
 H     28.25913305   -114.38188554    -20.04823893
 H     26.28895786   -114.40829614    -20.05759578
 H     26.14377901   -112.94734781    -21.06398523
 H     27.24132899   -111.63204815    -19.28353964
 H     27.38006045   -113.10121792    -18.28827060
 H     25.03733633   -113.41728210    -18.09083377
 H     24.72218563   -111.96500457    -19.07054632
 H     25.84564690   -110.63946001    -17.25022099
 H     26.11499095   -112.15061894    -16.34904445
 H     24.43487384   -113.07160458    -15.80804027
 H     23.37415423   -111.83193159    -16.51962403
 H     24.16703409   -110.10417071    -15.06938825
 H     25.27425769   -111.24448755    -14.26813918
 H     22.89424322   -112.30950677    -13.65794319
 H     22.17952099   -110.97034424    -14.58750357
 H     23.05670088   -109.31551988    -13.05595871
 H     23.80152484   -110.59654881    -12.06982038
 H     21.75140167   -111.61301683    -11.47411330
 H     20.83648530   -110.40759325    -12.41120919
 H     20.97752656   -108.56841040    -11.84864899
 H     22.05269375   -108.93040051    -10.47706402
 H     20.09419526   -110.28727042     -9.56271382
 H     19.15742896   -109.83060777    -11.00569504
 H     19.66505488   -107.47106245     -9.68412291
 H     20.52580906   -108.49546562     -8.51025450
 H     18.89043585   -109.77154087     -7.71857607
 H     17.66571845   -108.98447767     -8.74271741
 H     18.14871236   -106.85589876     -7.50377299
 H     19.35777593   -107.72326642     -6.52698985
 H     17.97228567   -109.21717720     -5.49355970
 H     16.53889886   -108.55955037     -6.31890562
 H     17.16839789   -106.41519916     -4.97694857
 H     18.54409717   -107.32327612     -4.30529808
 H     17.00339680   -108.89188178     -3.21612887
 H     15.61580165   -107.99557132     -3.87905715
 H     16.46974261   -106.05093342     -2.45270170
 H     17.79909882   -107.09780187     -1.90030223
 H     16.05108889   -108.57387481     -0.85794074
 H     14.79225711   -107.46655782     -1.45581890
 H     15.60238730   -105.63538504     -0.11885909
 H     16.89781167   -106.66144831      0.54245514
 H     14.81083255   -107.97068134      1.48302137
 H     13.79224117   -106.75448340      0.67580342
 H     14.95052945   -105.12580305      2.32515304
 H     15.86050054   -106.51606334      2.96342853
 H     13.57925835   -107.41754682      3.67469784
 H     12.83281412   -105.95922523      2.97871951
 H     14.21078999   -104.74885761      4.81213598
 H     14.82255841   -106.34237671      5.31681699
 H     12.51917475   -107.01071945      5.92072904
 H     11.92619747   -105.41183139      5.41062945
 H     13.46778168   -104.63212455      7.38474072
 H     13.87396914   -106.34608076      7.64092916
 H     11.49635475   -106.78607258      8.19612753
 H     11.12417218   -105.06575059      7.93110100
 H     12.73966964   -104.73619631      9.94078513
 H     12.94247467   -106.50405340      9.98342421
 H     10.50518625   -106.68135451     10.52517347
 H     10.38046237   -104.90684979     10.46317667
 H     11.73948826   -104.32310644     12.14868958
 H     12.11484905   -106.01899471     12.53770617
 H      9.45205124   -105.85839420     13.01164464
 H      9.59569628   -104.15726041     12.50788222
 H     11.03077328   -103.52282564     14.26163185
 H     11.01310139   -105.17222091     14.93054858
 H      8.45930365   -104.57768583     15.21949198
 H      8.83448476   -102.99586324     14.49468642
 H     10.31247817   -102.49415633     16.41456886
 H      9.92433013   -104.08080349     17.12178776
 H      7.57090972   -103.43840088     17.34456295
 H      7.93341629   -101.84437676     16.64033091
 H      9.41180752   -101.54076077     18.72319631
 H      8.92213052   -103.17043038     19.24536494
 H      6.57808141   -102.35036799     19.41247440
 H      7.11668431   -100.73776764     18.88550790
 H      8.49182429   -100.16799734     20.55483445
 H      8.20193556   -101.69508685     21.42214572
 H      5.75975475   -100.71348988     21.50325601
 H      6.38512194    -99.30765249     20.60837960
 H      7.77620891    -99.11523447     22.87858878
 H      6.91663766   -100.58156367     23.40706072
 H      4.79443496    -99.22736229     23.27760233
 H      5.75339107    -97.82297872     22.75188698
 H      6.99515309    -97.66927518     24.76263366
 H      6.12727022    -99.06329059     25.44948667
 H      4.01254615    -97.84112320     25.36492098
 H      4.84765274    -96.42750158     24.67750730
 H      6.21865248    -96.03222477     26.54124381
 H      5.50757683    -97.41117310     27.41367694
 H      3.34986822    -96.64305614     27.55413308
 H      3.76360789    -95.13720191     26.70003169
 H      5.28553078    -94.49909044     28.51417200
 H      4.88461243    -95.99922057     29.38431035
 H      2.54047959    -95.23509944     29.57722202
 H      2.96017512    -93.74127801     28.70508679
 H      4.43808471    -92.83730314     30.15884167
 H      4.25831074    -94.19309423     31.29804249
 H      1.84817780    -93.50149729     31.54387665
 H      2.13690082    -92.17716072     30.39017030
 H      3.75203179    -91.19566265     32.01044097
 H      3.42980869    -92.54187178     33.12944049
 H      1.12596955    -91.94555697     33.40776545
 H      1.32239694    -90.56236092     32.30483680
 H      2.93218483    -89.55224476     33.88257925
 H      1.72448024    -90.67921825     35.12908867
 H      0.43830817    -90.54354064     35.39626885
 H      0.45117095    -89.11261796     34.33770307
 H      1.61501137    -87.65208517     34.88788120
 H      2.17592084    -88.47782939     36.36158188
 H     -0.64502047    -87.94912164     36.38973218
 H     -0.28378603    -87.26133514     34.78825596
 H      1.15922303    -85.57081776     35.94641996
 H      0.74908060    -86.31923898     37.50844285
 H     -1.64040895    -85.63713308     37.03945192
 H     -1.10364729    -84.92637272     35.49835708
 H      0.29169039    -83.30129149     36.59047664
 H     -0.18057132    -83.93265809     38.18628732
 H     -2.34057411    -83.55362362     38.26407152
 H     -2.35993318    -82.80413337     36.64971212
 H     -1.09994519    -81.04745855     36.84810068
 H     -0.76773824    -81.36014002     38.56860511
 H     -3.41264052    -80.96632113     38.61871855
 H     -3.30168794    -80.72517521     36.85866036
 H     -1.91766896    -78.78492828     37.06062350
 H     -1.95049640    -78.91073809     38.83583079
 H     -4.40347947    -78.53399002     38.77452532
 H     -4.33232015    -78.41498556     36.99997158
 H     -2.94454527    -76.46692467     37.03695875
 H     -2.93760409    -76.47037961     38.81690441
 H     -5.56723108    -76.06355608     37.98589183
 H     -4.87714832    -76.18375522     36.34955305
 H     -3.58167101    -74.06172272     37.02220529
 H     -4.38811124    -74.13582544     38.60726983
 H     -6.55479577    -73.78250468     37.34091729
 H     -5.62288849    -73.73189698     35.82524769
 H     -4.50673328    -71.66160262     36.75637417
 H     -5.49768674    -71.82499794     38.22592508
 H     -7.47376447    -71.43636054     36.61796984
 H     -6.29742361    -71.31311890     35.28781934
 H     -5.11632129    -69.53180319     35.85318879
 H     -6.06991998    -69.26066418     37.33149859
 H     -8.01499372    -68.89893376     35.66494760
 H     -6.86397840    -69.21328703     34.34410983
 H     -6.02656183    -66.90530612     35.66945533
 H     -7.44435681    -67.20496682     36.70305463
 H     -8.23428695    -66.67858781     34.02460945
 H     -6.47809494    -66.54450505     33.76755286
 H     -5.61750383    -65.07264354     34.77549497
 H     -7.13909403    -64.51096788     35.50867324
 H     -7.81066454    -64.03517514     33.05682952
 H     -6.21627808    -64.65249242     32.56173571
 H     -5.16397503    -62.77631659     33.81308476
 H     -6.78039447    -62.19823971     34.28349092
 H     -7.17892362    -61.82858305     31.80245091
 H     -5.53569805    -62.43415234     31.48407656
 H     -4.47124293    -60.66649437     32.67502465
 H     -6.04738394    -59.93984594     33.07002878
 H     -6.48197878    -59.56137051     30.67943805
 H     -4.90718021    -60.28659677     30.27654477
 H     -3.80257220    -58.43436589     31.52107584
 H     -5.40177285    -57.74980369     31.89816809
 H     -5.60908519    -57.45885221     29.35528256
 H     -3.98799951    -58.17521018     29.19042158
 H     -3.35104508    -56.00750252     30.55325275
 H     -5.08189010    -55.59264219     30.53500221
 H     -4.90073027    -55.43464031     28.03247332
 H     -3.17626141    -55.85873835     28.15336453
 H     -2.78648803    -53.77202579     29.43186678
 H     -4.51594197    -53.37349849     29.29610334
 H     -3.55894418    -53.38059466     26.71570009
 H     -1.99945532    -53.80437885     27.46180205
 H     -2.45722594    -51.35805647     28.48183156
 H     -3.96925309    -51.37735199     27.54285966
 H     -2.80878509    -51.47463235     25.43975023
 H     -1.23853345    -51.45716528     26.27776656
 H     -1.97347742    -49.12999657     27.08377171
 H     -3.48929999    -49.34979020     26.17699756
 H     -2.70375953    -49.48809259     24.07540927
 H     -1.01864341    -49.27926879     24.60930342
 H     -1.10785654    -47.21637446     25.49234604
 H     -2.83597610    -47.04045191     25.10386092
 H     -1.99622564    -47.23562265     22.65896223
 H     -0.34531478    -47.39845976     23.30413202
 H     -0.40777219    -45.17348755     24.26144746
 H     -2.06097200    -44.93680543     23.64567262
 H     -1.48520013    -45.09028904     21.37212242
 H      0.23030591    -45.33695284     21.77766236
 H     -0.55689624    -42.79032058     22.66456629
 H     -2.09329233    -43.22642788     22.20475229
 H     -3.17897063    -43.55497886     22.18981792
 H     -2.66268098    -43.65366511     20.48923782
 H     -2.12549904    -41.51629961     20.07892675
 H     -2.55955007    -41.00804058     21.72863555
 H     -4.92990954    -41.77786196     21.02463726
 H     -4.25092401    -42.21635850     19.43877279
 H     -3.53561229    -40.46310849     18.52834050
 H     -4.03029682    -39.42263545     19.88516390
 H     -6.17466163    -39.58948397     19.98416773
 H     -6.25384411    -40.70053391     18.59580004
 H     -5.87919989    -40.68093429     17.05757948
 H     -5.34825851    -38.98292510     17.11355022
 H     -7.22730974    -37.93594741     17.68579965
 H     -8.15646300    -39.45338311     17.73406750
 H     -7.76540464    -39.79599476     15.33728204
 H     -6.83326569    -38.28119645     15.26821888
 H     -8.32791536    -36.75425167     15.80003206
 H     -9.62635318    -37.95857532     15.97872300
 H     -9.35671151    -38.48304633     13.54735339
 H     -8.06474913    -37.26294921     13.44506519
 H    -10.07602944    -35.68112985     14.07858551
 H    -11.10137873    -37.13590791     14.10195800
 H    -10.65313067    -37.44562959     11.68261254
 H     -9.63313330    -35.98693925     11.69233493
 H    -12.27397535    -35.43055731     12.78026756
 H    -12.63710554    -36.23587784     12.26399334
 H    -11.29509043    -33.71886135     12.52927991
 H    -12.08840850    -34.84532488     13.78855059
 H    -12.12649820    -32.96744612     11.24155397
 H    -10.51344053    -33.19947528     11.95742693
 H    -11.37961702    -32.06566454     14.02149169
 H    -12.96233162    -31.87758146     13.22908656
 H    -12.10794737    -30.46425201     11.50443593
 H    -10.46977344    -30.56221715     12.19367874
 H    -10.72115172    -29.62644298     14.17807045
 H    -12.45106568    -29.30750659     13.90614411
 H    -11.50083735    -27.79638583     11.99365991
 H     -9.87287433    -28.30944704     12.49840862
 H     -9.39454054    -27.76162333     14.34927758
 H    -10.93971708    -26.92716077     14.63973994
 H    -10.35669472    -25.34771480     12.80130078
 H     -8.82568474    -26.22128691     12.55402186
 H     -8.16544736    -25.54226646     14.87027635
 H     -9.71903934    -24.69131019     15.04489609
 H     -9.37038944    -23.12769865     13.35854040
 H     -7.76352984    -23.80104668     12.99402521
 H     -6.70172670    -23.41335349     14.94067405
 H     -8.13918319    -22.64915394     15.66038550
 H     -7.91337136    -20.88459932     13.86013772
 H     -6.48774131    -21.74819462     13.23559885
 H     -5.49980212    -21.15118701     15.56318944
 H     -7.04449056    -20.35197590     15.94195835
 H     -5.95337043    -19.32032596     13.46424877
 H     -4.94055883    -19.70625156     13.78465326
 H     -7.38647045    -18.06919914     14.53933028
 H     -7.16034600    -18.96651230     13.01881606
 H     -5.21193074    -17.34754289     12.62356971
 H     -5.59381530    -16.58109917     14.18401672
 H     -7.61267444    -15.77782251     13.87471902
 H     -7.68807828    -16.36453834     12.19592616
 H     -6.00733856    -15.18704519     11.27080537
 H     -5.63289971    -14.36943306     12.80689540
 H     -8.16865018    -13.55046015     12.21170294
 H     -8.00904631    -14.57865171     10.76753695
 H     -6.11218835    -12.87019142     10.20131768
 H     -6.49961899    -12.04554656     11.73041055
 H     -8.75732871    -11.53496770     10.83678567
 H     -8.33706653    -12.36793726      9.32093341
 H     -6.61457685    -10.22762068      9.48534415
 H     -7.44507264     -9.87808275     11.02039028
 H     -9.50840135     -9.54030173      9.50123627
 H     -8.47360674     -9.93024592      8.10645660
 H     -6.97997225     -8.13781290      8.38622606
 H     -7.88290436     -7.52092521      9.72750856
 H     -6.68734624     -8.57632099      7.15871997
 H     -5.89023869     -8.51033960      8.74885603
 H     -6.36729186     -5.89039942      8.07069366
 H     -7.09207646     -6.56602085      6.59201531
 H     -4.82261853     -7.46581119      6.01350354
 H     -4.18165287     -6.75825714      7.51576748
 H     -5.03176446     -4.62733676      5.98633719
 H     -5.50429855     -5.87106552      4.80391722
 H     -2.86602538     -6.23143396      4.85733592
 H     -2.81229882     -4.91694538      6.05629376
 H     -3.72850458     -3.52164659      4.04695278
 H     -3.67956798     -5.01569876      3.08068160
 H     -1.10269365     -4.80744584      3.62862396
 H     -1.47114560     -3.33627174      4.46458577
 H     -1.14219902     -5.55984814      2.34531857
 H     -0.73438096     -5.77742106      4.06421738
 H      1.02279173     -3.94854925      3.60585234
 H      0.44814329     -3.89394357      1.92208749
 H      1.22557938     -6.27880879      1.70797996
 H      1.76441321     -6.22970350      3.40371385
 H      3.39640198     -4.44396974      2.70353418
 H      2.78237630     -4.57092317      1.03766445
 H      3.26813290     -6.60798867      0.44143754
 H      4.03576294     -6.98396552      2.00273579
 H      5.75203872     -5.31161967      1.66678779
 H      5.04599668     -4.87748423      0.09157424
 H      5.39394088     -6.95419584     -0.92472389
 H      6.14570745     -7.60513696      0.55155161
 H      7.94687133     -6.28053609      0.73306454
 H      7.52734209     -5.37557984     -0.74115256
 H      7.85510162     -7.62918872     -1.92751306
 H      8.24393152     -8.34921006     -0.34680207
 H     10.06414737     -7.29126597      0.26394238
 H     10.10343448     -6.31109683     -1.22131573
 H     10.40438952     -8.44651581     -2.50222960
 H     10.35197252     -9.34981247     -0.96939749
 H     12.25882175     -8.42338599     -0.02469640
 H     12.54233502     -7.40842499     -1.45917925
 H     13.98449137     -9.42240059     -1.42663392
 H     12.47881749    -10.47900559     -0.98702494
 H     13.98535352     -9.70684650      0.35218596
 H     14.86237957     -8.99949399     -0.84984492
 H     13.68756585    -11.77090698      0.12735129
 H     13.28671752    -10.38147911      1.16517473
 H     15.64779441    -10.04265191      1.69576108
 H     16.08625524    -11.42744689      0.66699403
 H     14.68539370    -12.75653214      2.40571711
 H     14.39097005    -11.21685505      3.24891094
 H     16.89681359    -11.14331903      3.63774064
 H     17.04336915    -12.68868567      2.76674690
 H     15.98149609    -14.14522470      3.85840196
 H     15.50113979    -12.99967772      5.13325356
 H     18.05160163    -12.84165004      5.54588865
 H     18.27828773    -14.00528624      4.21817224
 H     16.92084625    -15.51118921      5.93776126
 H     16.89620272    -14.09117403      7.01070872
 H     19.47585859    -14.43863539      6.98646434
 H     19.21118239    -15.82593959      5.90313602
 H     18.03966460    -17.21271520      7.14755183
 H     18.05509697    -16.11249677      8.54667581
 H     20.45824927    -16.23690336      8.74838378
 H     20.18290288    -17.91056545      7.62267025
 H     19.91744465    -18.85754135      7.08649837
 H     19.20448763    -18.98085049      8.71276827
 H     21.61851157    -18.82292247      9.54495222
 H     22.14866264    -18.70678479      7.84974765
 H     21.31171235    -20.92372787      7.34567853
 H     20.75530809    -21.11400126      9.02570145
 H     22.89895117    -20.98862122      9.98874608
 H     23.65344852    -20.79145203      8.38870710
 H     22.80948967    -23.07349087      7.80550018
 H     22.07951950    -23.19833172      9.42408752
 H     24.75539683    -23.02087759      9.91799161
 H     24.93272289    -22.91793121      8.14987844
 H     24.12931461    -24.93998880      7.54728062
 H     23.81806932    -25.40271652      9.23762854
 H     26.05272961    -25.33177975      9.93123477
 H     26.59358124    -24.86515159      8.30089605
 H     25.27065521    -27.49689167      8.81914089
 H     24.82242401    -26.96596025      9.95823259
 H     24.06732200    -26.52594194     10.72962112
 H     25.46643080    -26.05511538     11.47431490
 H     26.13663803    -25.24092375     11.78400232
 H     25.67817278    -26.83332577     12.93035080
 H     24.82108291    -27.17527102     13.63904565
 H     24.07801241    -26.21620643     13.13180212
 H     23.21826304    -25.70584877     12.52427629
 H     24.19287379    -24.28649693     12.97576374
 H     23.75338399    -24.81370753     15.36708583
 H     22.78832687    -26.22349557     14.86765708
 H     21.12575589    -25.16949613     13.74049561
 H     21.82371054    -23.56527187     14.06850554
 H     21.34499908    -24.20551946     16.53826732
 H     20.69928145    -25.75453117     15.94507415
 H     19.05108081    -23.78863916     14.91622725
 H     20.13348064    -22.66418654     15.77196295
 H     19.69365127    -23.38894613     17.92070762
 H     18.53989919    -24.61102777     17.33450009
 H     16.98442566    -23.25116713     16.39821013
 H     17.89176632    -21.78676693     16.84601773
 H     17.16883409    -23.02801531     19.21651130
 H     16.42117803    -24.24422078     18.15343965
 H     14.62657885    -23.57148367     17.72939387
 H     14.66290988    -23.53514124     17.58498775
 H     14.49233344    -24.49638906     17.07790844
 H     15.13731864    -23.33676710     15.96370286
 H     15.28059022    -22.21296672     15.25780209
 H     13.70520508    -21.68682506     15.89780463
 H     12.68217789    -23.66346855     14.74962270
 H     14.29292651    -24.12514127     14.14911137
 H     15.07260219    -22.30814885     13.14528830
 H     13.82147927    -21.70797403     12.97966032
 H     16.04470185    -23.64750634     13.00842118
 H     16.00061113    -21.97940289     13.62789965
 H     15.63190329    -20.90750730     11.61955366
 H     15.63546316    -22.44846333     10.72865047
 H     18.03029801    -22.72341413     11.44777216
 H     17.91580277    -21.11933818     12.27910581
 H     17.85760255    -20.46433538     13.15754176
 H     17.61762488    -19.59554779     11.62265235
 H     20.15971285    -20.66889819     11.50349057
 H     19.78370293    -21.31961270     13.11701275
 H     19.64234415    -18.86291782     13.82721326
 H     20.02628476    -18.40360927     12.15094003
 H     22.20375326    -19.44238346     12.25631848
 H     21.96449515    -20.16178336     13.57861281
 H     21.78186070    -21.07092059     14.20220269
 H     21.62139562    -19.66249270     15.27870095
 H     24.18549625    -19.47881332     14.45069296
 H     23.85424869    -20.94709089     13.50058629
 H     23.43219006    -22.32000576     15.37425017
 H     23.29610335    -21.28689414     16.34917667
 H     22.87280872    -20.50347446     17.11793684
 H     24.56504171    -19.96122492     17.01507961
 H     23.88296939    -22.45629292     18.34412642
 H     23.82185836    -22.28769056     18.51826143
 H     24.05755663    -23.60879766     17.22381499
 H     22.92503039    -22.98298921     18.44611395
 H     24.29500407    -23.30700240     20.29398672
 H     25.59338830    -23.98154455     19.28035072
 H     24.86388195    -25.74382576     18.38681776
 H     23.42916170    -25.60083022     18.70743802
 H     22.26499887    -25.40588581     18.70899629
 H     22.54957314    -25.56909322     20.45846692
 H     23.32692677    -27.89415742     20.07404345
 H     23.34164398    -27.75037237     18.51493058
 H     24.15656985    -27.71919333     17.77707776
 H     22.49551878    -27.46564040     17.18980702
 H     21.37073788    -29.17716762     17.61306962
 H     22.74232038    -30.03340051     18.35730974
 H     23.85150949    -29.91556165     16.08592511
 H     23.07295954    -28.95233592     15.57234635
 H     22.90671039    -28.79925214     14.28505775
 H     21.07045057    -28.94580510     15.18629178
 H     22.33652015    -30.38166202     13.46784787
 H     23.08082529    -28.47236366     13.17991239
 H     21.44945314    -28.82987842     11.90915389
 H     21.14205212    -28.08507222     12.70619195
 H     20.44999827    -27.09698003     12.35816623
 H     20.43577903    -27.89325196     11.38954584
 H     20.95733803    -26.84502285     10.74994742
 H     19.90370672    -27.31322386     10.60018758
 H     19.94407162    -27.99440495      9.71613024
 H     21.22996524    -26.37477384      9.74823513
 H     19.68363848    -25.67544126      8.70346375
 H     20.27479500    -24.99189315      9.94260327
 H     19.69354268    -23.85008889      9.32965864
 H     19.23653794    -24.31452370      8.53546901
 H     18.35734082    -23.36415982      8.32417568
 H     18.93217601    -22.81114320      9.09767215
 H     18.22678952    -21.83700553      8.38603307
 H     17.95157099    -22.45436940      7.47723126
 H     17.13507567    -21.60810165      7.00963476
 H     17.36551433    -20.91703759      8.00958283
 H     16.65984746    -20.02025459      7.43449926
 H     16.71536281    -20.61675064      6.26110494
 H     17.56784019    -19.80016198      5.78206966
 H     16.22055064    -19.97360976      5.46075375
 H     16.84307324    -19.18234822      4.37058513
 H     18.04596873    -19.16141917      4.88250629
 H     18.20899942    -18.08913580      4.36593157
 H     16.43454959    -18.02197127      4.48874596
 H     17.20081770    -18.88139838      3.13136433
1502
Final Conformation Chain 6 (Simulation Frame 7)
 C      0.00000000      0.00000000      0.00000000
 C      1.54000000      0.00000000      0.00000000
 C      2.16637443      0.67388791      1.23496160
 C      3.68914582      0.87909355      1.13172435
 C      4.39209413      1.04755913      2.49153427
 C      5.92845104      0.97351620      2.41586989
 C      6.61349049      0.76648758      3.77949011
 C      6.30633158      1.87007167      4.80874010
 C      7.06816416      1.71624625      6.13823205
 C      6.79237860      0.38858508      6.86820338
 C      7.55859179      0.23230668      8.19488889
 C      9.08929441      0.31530341      8.04771210
 C      9.69062678     -0.77008917      7.13561433
 C     10.90273757     -0.29568125      6.31261703
 C     11.50150947     -1.37988920      5.39743106
 C     10.57939999     -1.79993890      4.23774475
 C     11.33091803     -2.28300162      2.98336400
 C     10.41388120     -2.84657156      1.88198651
 C     11.16876540     -3.37582403      0.64843811
 C     10.27858525     -3.57692667     -0.59202029
 C     10.98417461     -4.29016808     -1.76036542
 C     10.25095084     -4.15989302     -3.10833104
 C     11.09213440     -4.59312395     -4.32337062
 C     10.29826553     -4.66573144     -5.64098224
 C     11.11581370     -5.18831901     -6.83685732
 C     10.44562204     -4.95499726     -8.20360679
 C     11.09068891     -5.74137426     -9.35993716
 C     10.27255706     -5.72087558    -10.66448309
 C     10.07297535     -4.31334877    -11.25662784
 C      8.82100590     -4.17852169    -12.14319095
 C      8.70816626     -2.82325953    -12.86577776
 C      7.88696661     -2.87395425    -14.16756929
 C      7.78638992     -1.52181124    -14.89777037
 C      7.15922872     -1.61302493    -16.30131905
 C      7.02534112     -0.25599080    -17.01695337
 C      6.65111436     -0.36765998    -18.50661250
 C      6.19659244      0.96064960    -19.13954495
 C      6.02334111      0.89901335    -20.66852662
 C      5.19422212      2.05810657    -21.25219144
 C      4.82285467      1.87760066    -22.73580319
 C      4.30843686      0.46889270    -23.08582636
 C      3.76642428      0.33876674    -24.52140624
 C      3.72506235     -1.10833676    -25.04655444
 C      2.68275484     -1.34260698    -26.15574898
 C      2.50352163     -2.82190295    -26.54454058
 C      3.80426379     -3.51374048    -26.99290503
 C      3.60667176     -4.95839926    -27.48840314
 C      4.70767152     -5.44772664    -28.44754767
 C      4.34447055     -6.73277647    -29.21457571
 C      5.56158108     -7.49774219    -29.76690661
 C      5.21015229     -8.84954370    -30.41554400
 C      6.21394678     -9.30883582    -31.48934444
 C      5.72147662    -10.49336993    -32.34137266
 C      6.73371168    -10.96614346    -33.40130916
 C      6.22687025    -12.12647893    -34.27785543
 C      7.19039143    -12.52165631    -35.41234288
 C      6.83352299    -13.85126248    -36.10255470
 C      7.75983258    -14.21533920    -37.27771370
 C      7.40617844    -15.54752814    -37.96459169
 C      8.32477661    -15.90548033    -39.14765874
 C      7.93411627    -17.20679855    -39.87261072
 C      8.86555126    -17.57620037    -41.04204269
 C      8.56865885    -18.95107727    -41.66907410
 C      9.61282895    -19.40530484    -42.70588948
 C      9.24193089    -20.70772489    -43.43919477
 C     10.08057738    -20.97579865    -44.70268537
 C      9.74841945    -22.30577004    -45.40443121
 C     10.80600638    -22.75394247    -46.43022425
 C     10.42639770    -24.02986886    -47.20450399
 C     11.52162175    -24.52861646    -48.16540727
 C     11.05412717    -25.63718134    -49.12672550
 C     11.87665794    -25.72794118    -50.42549637
 C     11.49166074    -26.91402110    -51.32915094
 C     12.25600501    -26.95735742    -52.66537690
 C     11.68009240    -27.95827471    -53.68424354
 C     11.69431459    -27.45035972    -55.13800422
 C     11.08324351    -28.43553967    -56.15171650
 C     10.92628558    -27.85748505    -57.57045435
 C     10.32334997    -28.84553982    -58.58623800
 C     10.32293436    -28.32977715    -60.03730268
 C     10.01906465    -29.41438308    -61.08748990
 C     10.12348478    -28.92333532    -62.54336370
 C      9.94944812    -30.03602608    -63.59371151
 C     10.32043207    -29.60890619    -65.02603113
 C      9.71452711    -30.50366436    -66.12324898
 C      9.71439758    -29.86387559    -67.52405957
 C      9.15895743    -30.77943549    -68.63078280
 C      8.83565613    -30.04680743    -69.94620379
 C      8.74252896    -30.97342036    -71.17270932
 C      8.39050648    -30.24476047    -72.48295164
 C      7.93145777    -31.18080875    -73.61639236
 C      7.64945617    -30.46055660    -74.94804996
 C      7.61572614    -31.39575994    -76.17110228
 C      6.98264539    -30.76450473    -77.42502637
 C      7.06844444    -31.64888913    -78.68284303
 C      6.19998439    -31.15629306    -79.85533024
 C      6.47430135    -31.88149650    -81.18590537
 C      5.57269480    -31.42245965    -82.34693542
 C      5.84016064    -32.15478103    -83.67500448
 C      4.75540143    -31.92867530    -84.74447802
 C      4.92400622    -32.80151907    -86.00198196
 C      3.78413200    -32.65086102    -87.02647643
 C      3.96532784    -33.50473897    -88.29520040
 C      2.79483964    -33.40345100    -89.29083996
 C      3.04636939    -34.12359753    -90.62864478
 C      1.79947411    -34.23165000    -91.52596123
 C      1.92713821    -35.27341520    -92.65291604
 C      0.83142938    -35.16851824    -93.72995773
 C      0.96587754    -36.20271558    -94.86307712
 C      0.45776126    -35.70495465    -96.22896580
 C      0.51155352    -36.76748038    -97.34240437
 C      0.04733524    -36.25634363    -98.71893647
 C      0.12419222    -37.31195539    -99.83758602
 C      1.53978094    -37.86915285   -100.07683392
 C      1.57320774    -39.14606524   -100.93705332
 C      2.99018727    -39.58762832   -101.34789520
 C      3.02089208    -40.83902283   -102.24492865
 C      4.42577493    -41.44155930   -102.43162083
 C      4.51735600    -42.47685025   -103.56801229
 C      5.95895935    -42.84658768   -103.96383297
 C      6.09135895    -44.23083159   -104.62560267
 C      7.43323662    -44.45424761   -105.34744032
 C      7.43049515    -45.64903863   -106.31907138
 C      8.73514467    -45.80640913   -107.12201856
 C      8.62456684    -46.77655951   -108.31289251
 C      9.94902742    -46.99549355   -109.06752625
 C      9.79993187    -47.79421184   -110.37573862
 C      9.59972501    -49.30677855   -110.16679088
 C      8.66674227    -49.96387390   -111.20089382
 C      8.41395651    -51.46266593   -110.95326141
 C      7.38482968    -52.09096915   -111.91124523
 C      7.24367075    -53.61752725   -111.76531877
 C      5.88196862    -54.16778357   -112.22855230
 C      5.48368787    -55.49719260   -111.56098652
 C      4.02532999    -55.91719686   -111.82249888
 C      3.65396914    -57.29094346   -111.23384670
 C      2.14680150    -57.60426160   -111.27717646
 C      1.77741434    -58.98528819   -110.70453462
 C      0.27081715    -59.17420657   -110.44748451
 C     -0.16535606    -60.64674497   -110.33353895
 C     -1.66855653    -60.83515938   -110.05697363
 C     -2.10161431    -62.30717804   -109.92574086
 C     -3.55167021    -62.57544989   -110.36955175
 C     -3.94794850    -64.06344656   -110.34882968
 C     -5.46365809    -64.30967692   -110.46542757
 C     -5.87361573    -65.78430493   -110.29511326
 C     -7.38900256    -66.03099282   -110.41489566
 C     -7.79208390    -67.51391102   -110.31450122
 C     -9.29878951    -67.76786239   -110.50671695
 C     -9.72780834    -69.22267509   -110.24014081
 C    -11.19461313    -69.51970877   -110.60325888
 C    -11.44450781    -70.96699957   -111.06640244
 C    -12.93161080    -71.36565678   -111.10100204
 C    -13.18106200    -72.81519579   -111.55730320
 C    -14.67073278    -73.19168819   -111.66091030
 C    -14.94195772    -74.44662355   -112.51130684
 C    -16.43417760    -74.80399991   -112.64231060
 C    -16.70324680    -76.07857328   -113.46369023
 C    -18.19790690    -76.39016423   -113.66494198
 C    -18.49414870    -77.87140876   -113.96453412
 C    -19.99111935    -78.23091041   -113.92662090
 C    -20.29651281    -79.68511237   -114.33113479
 C    -21.78707102    -80.06105985   -114.23894101
 C    -22.12925657    -81.42444746   -114.86797462
 C    -23.55598098    -81.91580488   -114.56036233
 C    -23.85101877    -83.33970369   -115.06737800
 C    -25.18085639    -83.92383636   -114.55559589
 C    -25.54293873    -85.28890245   -115.16967321
 C    -26.76367156    -85.96484730   -114.51812895
 C    -26.88632164    -87.46848561   -114.82736799
 C    -28.28100079    -88.05521542   -114.54063085
 C    -28.39107980    -89.56794616   -114.80732981
 C    -29.74168883    -90.18049819   -114.39231745
 C    -29.75043769    -91.72029990   -114.36920571
 C    -31.16069588    -92.33889818   -114.37959938
 C    -31.16941520    -93.87715792   -114.45226932
 C    -32.54446942    -94.50985237   -114.16850246
 C    -32.54049882    -96.04977530   -114.18338891
 C    -33.86689375    -96.68403105   -113.72513556
 C    -33.77107827    -98.19259850   -113.43078265
 C    -35.12224568    -98.85329830   -113.09999207
 C    -35.04793753   -100.38262503   -112.93495257
 C    -36.41824974   -101.05960923   -112.74644037
 C    -36.33640935   -102.57082471   -112.46160725
 C    -37.53060606   -103.12294039   -111.66119331
 C    -37.56845930   -104.65993078   -111.57271917
 C    -38.67979539   -105.20750800   -110.65801087
 C    -39.22855250   -106.57956066   -111.09152803
 C    -40.60679634   -106.91994360   -110.49471703
 C    -41.05991138   -108.36921843   -110.75140603
 C    -42.40797212   -108.72880303   -110.09946189
 C    -42.91131234   -110.14358698   -110.44098057
 C    -44.25467750   -110.50669892   -109.78134447
 C    -44.61750862   -112.00009223   -109.87998524
 C    -45.46398526   -112.51813822   -108.70240057
 C    -45.49506049   -114.05301667   -108.58081734
 C    -46.55537818   -114.58210243   -107.59725511
 C    -46.33144044   -116.04172622   -107.16027656
 C    -46.84980547   -116.35846506   -105.74515317
 C    -46.57465932   -117.80241410   -105.28590839
 C    -47.06186689   -118.10900383   -103.85754166
 C    -46.70967754   -119.52535173   -103.36609349
 C    -47.49856738   -119.97042433   -102.12063647
 C    -47.12094733   -121.37265182   -101.60803412
 C    -47.76549551   -121.74090014   -100.25875623
 C    -47.04688297   -122.87956098    -99.51132896
 C    -47.69790757   -123.25529964    -98.16723542
 C    -46.81275244   -124.13766381    -97.26749443
 C    -47.47573327   -124.53895426    -95.93669678
 C    -46.59989299   -125.44115905    -95.04757906
 C    -47.08878872   -125.54977883    -93.59128832
 C    -46.59696889   -124.41084555    -92.67884970
 C    -47.27620939   -124.37752028    -91.29713997
 C    -47.08156528   -123.05341739    -90.53525730
 C    -47.87232882   -122.96742716    -89.21658421
 C    -47.50335110   -121.75408645    -88.34293682
 C    -48.12379952   -121.78503120    -86.93379304
 C    -47.95724720   -120.47166201    -86.14707728
 C    -46.51922773   -119.92057477    -86.14538652
 C    -46.33821482   -118.64511457    -85.30156450
 C    -44.88482916   -118.14059616    -85.23277997
 C    -44.73521020   -116.74649203    -84.59584366
 C    -43.27704769   -116.34111601    -84.31118180
 C    -43.08724939   -114.83795101    -84.03537101
 C    -41.65175315   -114.33376991    -84.27359773
 C    -41.52676996   -112.79963914    -84.32281129
 C    -40.07656466   -112.29241320    -84.42876612
 C    -39.95914888   -110.77372521    -84.65548248
 C    -38.50869488   -110.26005486    -84.71813986
 C    -38.38850916   -108.72501753    -84.74670189
 C    -36.93738148   -108.20984853    -84.72598077
 C    -36.81797950   -106.67782244    -84.62479170
 C    -35.42059598   -106.13392308    -84.97563751
 C    -35.04504347   -104.84195753    -84.22638099
 C    -33.68222879   -104.25362913    -84.63651006
 C    -33.40578689   -102.85257971    -84.06010708
 C    -32.24178698   -102.11216131    -84.74456657
 C    -32.28605787   -100.58225642    -84.57418134
 C    -31.07882580    -99.84853824    -85.18724606
 C    -30.95243823    -98.37710229    -84.75078020
 C    -30.04017505    -97.53078247    -85.65803906
 C    -30.02740669    -96.03085645    -85.30924268
 C    -28.85705270    -95.25162132    -85.93746569
 C    -28.91503774    -93.73180559    -85.69580921
 C    -27.74472061    -92.95256252    -86.32409103
 C    -27.62528468    -91.49792865    -85.83279135
 C    -26.33259885    -90.79007487    -86.27945272
 C    -26.07518805    -89.44862814    -85.56821413
 C    -25.04798619    -88.54904773    -86.28040190
 C    -25.06805603    -87.08239423    -85.81122740
 C    -23.92011974    -86.22728483    -86.37923284
 C    -23.73005958    -84.87787650    -85.66189450
 C    -22.98292798    -83.82317937    -86.49915689
 C    -22.37542868    -82.67847193    -85.66717763
 C    -21.10522227    -82.06255836    -86.28266619
 C    -20.39758320    -81.04376642    -85.37002721
 C    -19.15006583    -80.39805703    -86.00118472
 C    -18.42657413    -79.39985668    -85.07827853
 C    -17.11529210    -78.84309455    -85.66321901
 C    -16.57532549    -77.60504873    -84.92343619
 C    -15.08777053    -77.31282223    -85.19433081
 C    -14.55760115    -76.05299658    -84.48485230
 C    -13.06140532    -75.78048145    -84.72720234
 C    -12.41296470    -74.86371973    -83.67331776
 C    -10.96501335    -74.45620330    -84.00341967
 C    -10.36233413    -73.43477273    -83.02104634
 C     -8.92293287    -73.00886176    -83.36502870
 C     -8.41921056    -71.79638398    -82.56019241
 C     -6.88631775    -71.64972616    -82.54199620
 C     -6.39510147    -70.26326554    -82.08588928
 C     -5.01461076    -70.28108275    -81.40359319
 C     -4.64459360    -68.96001617    -80.70397157
 C     -3.24887294    -68.96541674    -80.05317617
 C     -2.90919209    -67.67242233    -79.28872709
 C     -1.41591894    -67.52298037    -78.94318057
 C     -0.54493738    -67.04789210    -80.12101004
 C      0.68313544    -66.22048971    -79.69811237
 C      0.39336381    -64.71943063    -79.51249438
 C      1.60099760    -63.80811346    -79.80010808
 C      1.31035255    -62.30685208    -79.61751640
 C      2.47402424    -61.38832561    -80.03438247
 C      2.15305657    -59.88555379    -79.93310755
 C      2.94619226    -59.00781557    -80.91906464
 C      2.70438893    -57.49671675    -80.74669436
 C      3.74162544    -56.61084597    -81.46151837
 C      3.53444159    -55.10095064    -81.24040537
 C      4.47667536    -54.21099577    -82.07213600
 C      4.85126978    -52.88355224    -81.38717419
 C      5.89257392    -52.05227937    -82.15936012
 C      5.90904925    -50.55988838    -81.77975810
 C      6.66457333    -49.66705317    -82.78157077
 C      6.62680161    -48.16682585    -82.43589566
 C      7.16493044    -47.25300039    -83.55256050
 C      6.91659734    -45.75288688    -83.30844957
 C      7.44901560    -44.83950320    -84.42820894
 C      7.06276379    -43.35772959    -84.26463478
 C      7.65375890    -42.43338827    -85.34533729
 C      7.31983169    -40.94329729    -85.14603481
 C      8.13917431    -39.99291850    -86.03881576
 C      7.66554980    -38.52822121    -85.99475134
 C      8.57365817    -37.55278296    -86.76641151
 C      7.99151875    -36.13412263    -86.90824435
 C      8.91176558    -35.15128995    -87.65576405
 C      8.23711856    -33.81600834    -88.02110559
 C      9.16417616    -32.82405810    -88.74787856
 C      8.44142426    -31.58233925    -89.30228271
 C      9.37734455    -30.56126634    -89.97538249
 C      8.72798202    -29.18792051    -90.22806714
 C      9.73812987    -28.05849350    -90.50301430
 C      9.10487475    -26.65684377    -90.58025411
 C     10.12775744    -25.50571344    -90.56576428
 C      9.49562603    -24.10480910    -90.66311376
 C     10.51993718    -22.95492944    -90.67589726
 C      9.90442931    -21.57083673    -90.95345344
 C     10.92193020    -20.41526377    -90.92274372
 C     10.27974850    -19.01615828    -90.88143421
 C     11.27061092    -17.88133361    -90.56211523
 C     10.72274786    -16.47149807    -90.85161447
 C     11.68063141    -15.33329440    -90.45342918
 C     11.07607935    -13.92480767    -90.60270055
 C     12.04445469    -12.78530550    -90.23475489
 C     11.38945456    -11.39186787    -90.20464882
 C     12.39348702    -10.23021986    -90.08593611
 C     11.73857386     -8.83671117    -90.05726087
 C     12.74153076     -7.67590184    -89.92235668
 C     12.08999077     -6.32053092    -89.59059572
 C     13.09811788     -5.17501292    -89.38306688
 C     12.44522866     -3.81169406    -89.08862275
 C     13.44696394     -2.64650463    -88.98634846
 C     12.79328738     -1.28176878    -88.70033619
 C     13.77419467     -0.09547170    -88.74638118
 C     13.38557286      1.07480479    -87.82387046
 C     14.58795359      1.86074806    -87.26873646
 C     14.19808781      3.06408391    -86.39033591
 C     15.39769141      3.78689668    -85.74995095
 C     15.00389279      4.93141008    -84.79778936
 C     16.15810183      5.89548159    -84.46617570
 C     15.90990430      6.76422369    -83.21906498
 C     17.18097510      7.42279101    -82.65137834
 C     16.95773529      8.17719388    -81.32750512
 C     18.23094543      8.82686574    -80.75438869
 C     18.02632554      9.50741057    -79.38815686
 C     19.31302780      9.63127507    -78.55110555
 C     19.14711338     10.46511377    -77.26705515
 C     20.41066709     10.52035289    -76.38843085
 C     20.27404961     11.42694827    -75.15108673
 C     21.45564449     11.32785135    -74.16843046
 C     21.17241547     11.94090143    -72.78439617
 C     22.29084227     11.70247782    -71.75295268
 C     22.31695281     12.73209974    -70.60805228
 C     22.92332232     12.19651007    -69.29768602
 C     22.37040000     12.87263186    -68.02932636
 C     22.74940090     12.15452581    -66.72078441
 C     22.27741227     12.88158805    -65.44791079
 C     22.57430216     12.11807263    -64.14387835
 C     21.98514983     12.77828214    -62.88347249
 C     22.21191245     11.97316430    -61.59042804
 C     21.59990763     12.62031519    -60.33414550
 C     21.72240245     11.75940088    -59.06315314
 C     21.38483703     12.51137857    -57.76231527
 C     21.40498467     11.62498162    -56.50315106
 C     21.09513513     12.38267133    -55.19873565
 C     20.54911373     11.48887367    -54.06975984
 C     20.38492583     12.21366747    -52.72093951
 C     19.93921571     11.29629817    -51.56708680
 C     19.77611309     12.02087613    -50.21801886
 C     19.59342117     11.07461319    -49.01684855
 C     19.21456702     11.79079475    -47.70720986
 C     18.83327147     10.83732884    -46.55955292
 C     18.53701440     11.54888401    -45.22631589
 C     18.21767704     10.59173105    -44.06292350
 C     18.53048401     11.17149209    -42.67093609
 C     19.99987765     11.00784955    -42.24000287
 C     20.22861579     11.15798598    -40.72450364
 C     21.66446813     10.83296396    -40.27252052
 C     21.78345417     10.46301022    -38.78236061
 C     23.22416983     10.50397902    -38.23990329
 C     23.67591871      9.19670244    -37.56273944
 C     24.99365679      9.32188804    -36.77565945
 C     25.46087349      8.00747576    -36.12325704
 C     26.59611435      8.18596541    -35.09808894
 C     27.03234058      6.87782882    -34.41246125
 C     28.35211480      6.99214471    -33.62714102
 C     28.81490787      5.67145529    -32.98433311
 C     30.19337567      5.75576282    -32.30292372
 C     30.43303997      7.06870203    -31.53458026
 C     30.23479966      6.94863225    -30.01212040
 C     30.52109715      8.24918090    -29.23868201
 C     30.43205543      8.10046135    -27.70846827
 C     30.41439116      9.44000791    -26.94892697
 C     30.10071527      9.30454045    -25.44730918
 C     29.44003409     10.55137205    -24.83045316
 C     29.14688507     10.42436756    -23.32395607
 C     28.43946067     11.65069396    -22.71792448
 C     28.36436911     11.63387322    -21.17984831
 C     27.44243946     12.71500409    -20.58587714
 C     27.24002015     12.59834134    -19.06370231
 C     26.50886716     13.79916809    -18.43518784
 C     26.22307567     13.64076507    -16.93025206
 C     27.48802438     13.48999059    -16.06493603
 C     27.22581196     13.58463409    -14.55037759
 C     28.49055462     13.84337431    -13.71068747
 C     28.27297015     13.70721463    -12.19222853
 C     29.56291246     13.43394579    -11.39663254
 C     29.37853021     13.48271239     -9.86848824
 C     30.67483370     13.24066239     -9.07312099
 C     30.65790829     13.83408508     -7.65214842
 C     31.87111208     13.43438048     -6.79193170
 C     31.77098814     13.88140571     -5.32164477
 C     30.54920569     13.31318326     -4.57601022
 C     30.66835129     13.37264910     -3.04177812
 C     29.43131574     12.83826926     -2.29627076
 C     29.61985990     12.72288353     -0.77221787
 C     28.31225821     12.47963702      0.00406104
 C     28.52295785     12.07852777      1.47590241
 C     27.22912842     12.05788833      2.31087511
 C     26.25105210     10.93345815      1.92277268
 C     25.10580444     10.72385323      2.93077743
 C     24.11297983      9.61707950      2.52959019
 C     23.01177768      9.35487029      3.57371669
 C     22.28492151      8.00926879      3.39306036
 C     21.21005412      7.72978476      4.45990092
 C     20.63020996      6.30412099      4.40638850
 C     19.36138463      6.11161556      5.25763697
 C     18.76808118      4.69232424      5.18550395
 C     17.32303577      4.59019149      5.70801011
 C     16.70303930      3.18774655      5.56534768
 C     15.18499567      3.14503818      5.82092453
 C     14.54430082      1.76920847      5.55976800
 C     13.06617694      1.83742363      5.13304034
 C     12.83306489      1.56178934      3.63594832
 C     11.40936933      1.89430504      3.15208444
 C     11.19411403      1.67727606      1.64272577
 C      9.76154811      1.25349589      1.26887385
 C      9.55520326      1.00284337     -0.23651484
 C      8.07961191      0.84855391     -0.64934038
 C      7.84794463      0.88465161     -2.17138743
 C      6.37694836      1.09399658     -2.57628823
 C      6.06871197      0.71246016     -4.03608968
 C      4.56854633      0.72656272     -4.38380246
 C      4.21296987     -0.06507765     -5.65599384
 C      2.92141480      0.40874118     -6.34807851
 C      2.54100366     -0.41239788     -7.59411945
 C      1.13080701     -0.11245824     -8.13539722
 C      0.71720126     -0.99403060     -9.32844394
 C     -0.76241027     -0.85000615     -9.73044727
 C     -1.28657301     -1.99860723    -10.61224599
 C     -2.80912307     -1.96772687    -10.84134795
 C     -3.31479406     -3.03055024    -11.83447601
 C     -2.78241324     -2.85155385    -13.26839754
 C     -3.60074006     -1.86478125    -14.12175623
 C     -2.78625739     -1.16810750    -15.22758789
 C     -1.78820745     -0.11879307    -14.70372193
 C     -1.01638211      0.62005882    -15.81276815
 C      0.25019083      1.34366293    -15.31901710
 C      1.09444464      1.96775258    -16.44567038
 C      2.19353700      2.92483587    -15.94808868
 C      3.03586252      3.55122642    -17.07490835
 C      4.37185752      4.15121327    -16.59874329
 C      5.39954444      4.36488670    -17.72559877
 C      6.79292731      4.79383664    -17.22952810
 C      7.63280948      3.64156645    -16.64774521
 C      7.61332935      3.56679188    -15.10968497
 C      8.34634975      2.34143692    -14.53280863
 C      7.92200300      1.97570966    -13.09831450
 C      6.39745361      1.88776791    -12.89927824
 C      5.97596100      1.34573287    -11.52082186
 C      4.45877722      1.12872651    -11.37028404
 C      3.75114649      2.21108946    -10.53401304
 C      2.23855343      2.32032531    -10.80183717
 C      1.53326534      3.41156372     -9.97517675
 C     -0.00038831      3.41009625    -10.11483467
 C     -0.49944342      3.69093075    -11.54440663
 C     -2.00493107      3.43531436    -11.74382382
 C     -2.49458394      3.66979137    -13.18495552
 C     -2.46718890      5.14578688    -13.62346067
 C     -3.17056442      5.41319604    -14.96709575
 C     -2.43117146      4.83374367    -16.18739613
 C     -3.17834407      5.02328052    -17.52059112
 C     -2.45232185      4.41908886    -18.73691516
 C     -1.19774221      5.20054725    -19.16929547
 C     -0.58752079      4.71957772    -20.49891878
 C     -0.25982073      3.21516469    -20.52980738
 C      0.59483203      2.78491416    -21.73647764
 C      1.19704318      1.37355052    -21.60611498
 C      1.39155460      0.90745913    -20.15128711
 C      1.49716859     -0.62062764    -19.99192434
 C      1.85817861     -1.07827817    -18.56650238
 C      3.31222662     -0.77423426    -18.16042151
 C      3.54010785     -0.72451779    -16.63818683
 C      2.96797683     -1.93626144    -15.87927746
 C      2.93815947     -1.76024736    -14.34965987
 C      2.30153286     -2.94237362    -13.59541583
 C      2.29644510     -2.77862865    -12.06415436
 C      3.70097248     -2.73819586    -11.43386235
 C      3.70632066     -2.91475219     -9.90402600
 C      5.08981376     -3.25107529     -9.31714134
 C      5.08678403     -3.47221521     -7.79310461
 C      6.46689362     -3.82651193     -7.20883468
 C      6.47937172     -3.97242776     -5.67581385
 H     -0.36333333      0.00000000      1.02766186
 H     -0.36333333     -0.88998127     -0.51383093
 H     -0.36333333      0.88998127     -0.51383093
 H      1.88274777      0.80718745      0.64735801
 H      1.88274777      0.97585761      0.34398530
 H      3.25053431      0.59277699      1.15674152
 H      3.00763752      1.28259517      0.90352248
 H      4.04863496      1.26378745      2.08612372
 H      4.15881771      0.39747646      1.98936839
 H      5.34274473      0.51561257      2.45416730
 H      5.45079001      0.82397236      2.36011132
 H      6.34151270      1.68775215      3.12815289
 H      6.27254359      0.23972489      3.14473931
 H      6.94387121      1.73763097      4.14804010
 H      6.82561056      1.74572296      4.20867904
 H      6.30015764      1.42055279      5.80171273
 H      7.25082063      2.29883816      5.14370238
 H      6.34498921      1.50024503      6.92465526
 H      7.60816958      0.76966675      6.11629123
 H      7.74897993     -0.06839085      7.12155470
 H      7.15877123      0.47723260      7.89094385
 H      8.40207302     -0.43729085      8.02672657
 H      8.50038900      0.77486388      8.11273234
 H      9.50801030     -0.66807024      8.26161226
 H      9.36457911     -0.11196099      7.08346966
 H     10.76635172     -0.80519815      7.30790254
 H     10.77199299     -0.63561984      7.10982425
 H     11.61121272     -1.12076181      6.23909802
 H     10.58718518      0.54033028      5.68842843
 H     11.18281823     -1.17930204      4.37454266
 H     11.10741269     -1.23526998      4.39151208
 H     10.36741649     -0.91888070      3.63202250
 H      9.65026241     -2.18267752      4.66001777
 H     10.71949427     -3.03610922      2.48628260
 H     11.97246002     -1.47349644      2.63518985
 H      9.71607663     -2.06424360      1.58343711
 H      9.85976490     -3.68930429      2.29533464
 H     11.84211269     -4.16915551      0.97298177
 H     11.74986461     -2.55674406      0.22472628
 H      9.82921868     -2.61809608     -0.85050355
 H     10.37097878     -4.61362874     -0.91576748
 H     11.31590921     -5.26906113     -1.41421437
 H     11.84974983     -3.69553402     -2.05240972
 H     10.16863568     -3.10085162     -3.35278049
 H      9.25372094     -4.58604192     -2.99865130
 H     11.37786572     -5.63626400     -4.18803227
 H     11.98768482     -3.97278386     -4.35897424
 H      9.88311974     -3.67892278     -5.84583011
 H      9.48662740     -5.38196343     -5.51309441
 H     11.47315689     -6.18960766     -6.59638512
 H     11.96752071     -4.52465154     -6.98599031
 H     10.29551000     -3.88319218     -8.33322256
 H      9.47947919     -5.45964169     -8.20219849
 H     11.03178432     -6.80441682     -9.12633328
 H     12.13643525     -5.44341422     -9.43566307
 H      9.71556236     -4.78481492    -10.70507073
 H      9.29249465     -6.15246494    -10.46123865
 H     11.05430644     -3.88505470    -11.46071969
 H      9.55574397     -3.70095217    -10.51801961
 H      7.94640037     -4.42413016    -11.54082756
 H      8.90600228     -4.88782300    -12.96645717
 H      9.58905488     -2.69593240    -13.49500192
 H      8.68196957     -2.03489118    -12.11352177
 H      6.88145076     -3.21798978    -13.92533504
 H      8.36099818     -3.58481165    -14.84438227
 H      8.79499683     -1.18807202    -15.14155356
 H      7.31846822     -0.80299784    -14.22512146
 H      6.15474252     -2.02437119    -16.20181155
 H      7.76861723     -2.28463277    -16.90604092
 H      8.01960486      0.18014855    -17.11350432
 H      6.40118179      0.39449380    -16.40425856
 H      5.69772440     -0.89056385    -18.58223737
 H      7.42417725     -0.94672785    -19.01174037
 H      7.00832519      1.68169400    -19.04318666
 H      5.32461404      1.32002485    -18.59309908
 H      4.99769787      1.17904393    -20.90881566
 H      6.97916341      0.61800268    -21.11072198
 H      5.69094786      2.99527533    -21.00103761
 H      4.20539725      2.03685415    -20.79407169
 H      5.19071473      0.90594299    -23.06543988
 H      5.74425388      1.79130675    -23.31171713
 H      3.42220478      0.26824079    -22.48380351
 H      5.08733791     -0.25197843    -22.83731487
 H      4.56808782      0.59300427    -25.21480283
 H      2.94405630      1.04385245    -24.64250554
 H      3.08758514     -1.69493424    -24.38502121
 H      4.73817898     -1.50987081    -25.02498852
 H      2.91606287     -0.68161005    -26.99046475
 H      1.69843485     -1.09361209    -25.75924462
 H      2.19070094     -3.37377565    -25.65815481
 H      3.46827046     -3.32037702    -26.45028929
 H      4.52144198     -3.45907416    -26.17390135
 H      4.19751478     -2.97757478    -27.85660637
 H      2.91931091     -4.93967479    -28.33414806
 H      3.16982874     -5.54196739    -26.67802273
 H      5.66443357     -5.39128188    -27.92839415
 H      4.72524613     -4.78738387    -29.31457625
 H      3.44304473     -6.54128977    -29.79669626
 H      4.14730292     -7.52129570    -28.48830967
 H      6.20497211     -7.76852426    -28.92975367
 H      6.10390169     -6.83673971    -30.44297176
 H      4.51883036     -8.66566569    -31.23795683
 H      4.72459529     -9.47372607    -29.66539018
 H      7.19625721     -9.39648182    -31.02514147
 H      6.24846374     -8.55153779    -32.27254830
 H      4.79840862    -10.19689470    -32.83951712
 H      5.52189354    -11.33399603    -31.67683195
 H      7.64848177    -11.26782579    -32.89112935
 H      6.94792564    -10.13042539    -34.06748308
 H      5.32200641    -11.79926643    -34.78996228
 H      5.99196723    -12.96957085    -33.62815044
 H      8.14045422    -12.81773975    -34.96757855
 H      7.34354537    -11.65147286    -36.05064110
 H      5.83059058    -13.76232254    -36.52006669
 H      6.84576378    -14.64130665    -35.35170160
 H      8.77983665    -14.28802348    -36.90034294
 H      7.70260018    -13.41821578    -38.01894154
 H      6.38563485    -15.47863299    -38.34121382
 H      7.46636208    -16.34280029    -37.22161112
 H      9.34848290    -15.97105086    -38.77911304
 H      8.25564439    -15.10893754    -39.88849632
 H      6.91712799    -17.09729564    -40.24923250
 H      7.96876462    -18.02411134    -39.15226407
 H      9.87665694    -17.69163328    -40.65160632
 H      8.84641702    -16.76154826    -41.76597351
 H      7.54253552    -18.94575003    -42.03669148
 H      8.67316507    -19.71081498    -40.89449223
 H     10.58449813    -19.45531839    -42.21450607
 H      9.64736231    -18.66452581    -43.50473481
 H      8.29318738    -20.55342640    -43.95317699
 H      9.12894524    -21.49842431    -42.69748817
 H     11.12956612    -21.03288770    -44.41205936
 H      9.93911294    -20.14263702    -45.39111075
 H      8.69618922    -22.28999589    -45.68844303
 H      9.92219221    -23.11828862    -44.69894089
 H     11.75859631    -22.86796096    -45.91285377
 H     10.89614548    -21.97830805    -47.19072814
 H      9.49213330    -23.84406945    -47.73434228
 H     10.28233067    -24.83673411    -46.48595465
 H     12.41990954    -24.73524139    -47.58361248
 H     11.72990461    -23.73887237    -48.88722616
 H     10.22724939    -25.24893234    -49.72139839
 H     10.70849329    -26.48297775    -48.53236395
 H     12.91620178    -25.92033236    -50.16010189
 H     11.80502332    -24.77188836    -50.94408242
 H     10.43956108    -26.81420624    -51.59602786
 H     11.63774917    -27.83565734    -50.76581728
 H     13.32212849    -27.02370577    -52.44840079
 H     12.05223530    -26.03360572    -53.20691239
 H     10.64603256    -27.68149591    -53.88970335
 H     11.70855417    -28.95352890    -53.24066826
 H     12.72600562    -27.23419289    -55.41546686
 H     11.10540317    -26.53444594    -55.18684364
 H     10.04883611    -28.62483694    -55.86489275
 H     11.64849182    -29.36651524    -56.10837087
 H     11.91150811    -27.56180194    -57.93102066
 H     10.28178527    -26.98026938    -57.51377971
 H      9.33901221    -29.14717623    -58.22819521
 H     10.97306958    -29.71895916    -58.64194327
 H     11.35312759    -28.12483556    -60.32850852
 H      9.74481336    -27.40640079    -60.07268928
 H      9.03622636    -29.83381554    -60.87253570
 H     10.77422059    -30.19571115    -61.00166473
 H     11.13713305    -28.55900068    -62.71032912
 H      9.41617738    -28.10545307    -62.68078594
 H      8.96767852    -30.48853573    -63.45419996
 H     10.72229090    -30.78680542    -63.42895589
 H     11.36385504    -29.29370737    -65.03029743
 H      9.68593941    -28.76878125    -65.30835924
 H      8.62908936    -30.47586526    -66.02758239
 H     10.06700268    -31.52327185    -65.96748786
 H     10.74488362    -29.63678283    -67.79723972
 H      9.13842634    -28.93959395    -67.47866581
 H      8.13293536    -31.04337125    -68.37443028
 H      9.76832857    -31.68248170    -68.66648084
 H      9.75053200    -29.58163982    -70.31324771
 H      8.09495462    -29.27533551    -69.73574633
 H      7.95906953    -31.70845246    -70.98826657
 H      9.69868860    -31.48332090    -71.29043857
 H      9.15922069    -29.49654850    -72.67623206
 H      7.42754249    -29.75101711    -72.35249914
 H      7.04824538    -31.72215612    -73.27730695
 H      8.73436810    -31.88849608    -73.82282310
 H      8.56325676    -29.95900301    -75.26666018
 H      6.86849448    -29.71938386    -74.77816233
 H      6.83543364    -32.14003431    -76.01204482
 H      8.58229742    -31.89357795    -76.24867295
 H      7.55665524    -29.87615656    -77.68856046
 H      5.95894119    -30.47753516    -77.18465544
 H      6.55643760    -32.58878108    -78.47656137
 H      8.11982858    -31.84618534    -78.89204531
 H      6.52246018    -30.14967230    -80.12145807
 H      5.16152563    -31.12976195    -79.52517952
 H      6.28449273    -32.94515330    -81.04200648
 H      7.52153842    -31.73155770    -81.44841802
 H      5.72831281    -30.35456666    -82.50019204
 H      4.53477844    -31.60181420    -82.06646871
 H      5.67905023    -33.22114868    -83.51687962
 H      6.87842898    -31.98229242    -83.95845912
 H      4.69318537    -30.85983347    -84.94894391
 H      3.80303966    -32.27840690    -84.34598726
 H      4.89395444    -33.84820296    -85.69924489
 H      5.89446013    -32.57937973    -86.44579872
 H      3.73840716    -31.60712658    -87.33732632
 H      2.84810178    -32.92665949    -86.54079894
 H      4.02306345    -34.55191083    -87.99821944
 H      4.89879437    -33.21127297    -88.77542736
 H      2.68976809    -32.36099313    -89.59140869
 H      1.88573930    -33.72924551    -88.78537531
 H      3.22964720    -35.17786666    -90.42121803
 H      3.93003519    -33.68565275    -91.09279899
 H      1.44340431    -33.22408526    -91.74073459
 H      1.03127187    -34.77995904    -90.98068835
 H      2.10883238    -36.24798145    -92.19980695
 H      2.77677936    -34.99941594    -93.27832336
 H      0.88194472    -34.17462744    -94.17462533
 H     -0.13698571    -35.30206557    -93.24784018
 H      0.92098985    -37.19954339    -94.42442075
 H      1.93375508    -36.06055305    -95.34380873
 H      1.02865874    -34.81829326    -96.50466064
 H     -0.59525391    -35.44218394    -96.12791834
 H     -0.10147247    -37.61540696    -97.03692170
 H      1.54618089    -37.09024078    -97.45847310
 H      0.68759289    -35.42324190    -99.00895656
 H     -0.98158701    -35.90872248    -98.62631610
 H     -0.50459728    -38.15649901    -99.55568205
 H      0.99938231    -37.93683610    -99.65963544
 H      1.88970876    -38.32510842    -99.15068326
 H      2.19430687    -37.03923580   -100.34316733
 H      1.12608707    -38.91913860   -101.90487944
 H      0.98328889    -39.91299577   -100.43514365
 H      3.56869657    -39.76930987   -100.44212548
 H      3.44976102    -38.77918212   -101.91649587
 H      2.45234569    -40.62588060   -103.15014984
 H      2.54931311    -41.65978358   -101.70449821
 H      4.81524356    -41.71346065   -101.45055822
 H      5.06735550    -40.68281816   -102.87971262
 H      4.22654151    -41.99041299   -104.49909001
 H      3.82279689    -43.28798428   -103.34949630
 H      6.46115927    -43.25496413   -103.08683587
 H      6.46968450    -41.93884476   -104.28517797
 H      5.47564817    -44.24106453   -105.52498887
 H      5.72477090    -44.98178539   -103.92575869
 H      8.23669112    -44.34428129   -104.61910779
 H      7.53725653    -43.69324188   -106.12084199
 H      6.66095569    -45.47705922   -107.07162178
 H      7.19116353    -46.54984310   -105.75394160
 H      9.55688671    -45.93884406   -106.41824232
 H      8.89434133    -44.89559500   -107.69923087
 H      7.85063699    -46.40678469   -108.98549877
 H      8.33664810    -47.75616510   -107.93134869
 H     10.68101953    -47.39586077   -108.36610367
 H     10.29374819    -46.03148683   -109.44163671
 H      9.11718443    -47.25375224   -111.03137523
 H      9.02564872    -48.54762444   -110.23097999
 H      8.69916096    -49.45419392   -109.57067588
 H     10.46194014    -49.69496542   -109.62457686
 H      9.09076137    -49.80806774   -112.19287781
 H      7.69291961    -49.47781778   -111.14157385
 H      7.96562188    -51.57614365   -109.96623615
 H      9.37264464    -51.98071532   -110.97859744
 H      7.74730239    -51.96856588   -112.93189746
 H      6.43986632    -51.56024251   -111.79516987
 H      6.93839820    -53.83727011   -110.74227344
 H      8.21518783    -54.07174726   -111.96009747
 H      5.74754895    -53.91000888   -113.27906815
 H      5.10061170    -53.69303661   -111.63509069
 H      5.44125452    -55.34029547   -110.48317266
 H      6.24897867    -56.23868995   -111.79035884
 H      3.88562591    -56.01873223   -112.89872997
 H      3.36965556    -55.13333283   -111.44335745
 H      3.81262423    -57.25620755   -110.15601463
 H      4.31089061    -58.04127463   -111.67379820
 H      1.82091586    -57.57749336   -112.31697548
 H      1.62048849    -56.83538771   -110.71155506
 H      2.10597144    -59.02473488   -109.66598073
 H      2.30253674    -59.74694580   -111.28092349
 H     -0.25719341    -59.04237827   -111.39190293
 H     -0.05442380    -58.41159311   -109.73985534
 H      0.38285906    -61.10383397   -109.50974904
 H      0.08957058    -61.15275925   -111.26470056
 H     -2.22732549    -60.37422576   -110.87147804
 H     -1.91038076    -60.33261158   -109.12045521
 H     -1.54307361    -62.75688815   -109.10483093
 H     -1.85722429    -62.82055938   -110.85569415
 H     -3.65037467    -62.28098226   -111.41437051
 H     -4.21602196    -61.96674329   -109.75618968
 H     -3.82618074    -64.43643971   -109.33189865
 H     -3.27906431    -64.60561598   -111.01722047
 H     -5.81024896    -63.87570896   -111.40332233
 H     -5.95697929    -63.81194453   -109.63056431
 H     -5.54664710    -66.11946284   -109.31080604
 H     -5.37093592    -66.37081683   -111.06414954
 H     -7.71388908    -65.69652025   -111.40012499
 H     -7.89352231    -65.44413886   -109.64732660
 H     -7.45794034    -67.89535647   -109.34964503
 H     -7.29166187    -68.06001225   -111.11415817
 H     -9.58525376    -67.40077718   -111.49225573
 H     -9.84037731    -67.21285073   -109.74072432
 H     -9.46619118    -69.47431458   -109.21235970
 H     -9.18083443    -69.87204485   -110.92368924
 H    -11.33441117    -69.30998087   -111.66371666
 H    -11.83346847    -68.86075218   -110.01526221
 H    -11.14735205    -71.64030503   -110.26237619
 H    -10.82861291    -71.15673491   -111.94547808
 H    -13.45102552    -70.69289079   -111.78342001
 H    -13.34047655    -71.25163036   -110.09704648
 H    -12.66263337    -73.48463166   -110.87087230
 H    -12.77087740    -72.93423916   -112.56013782
 H    -15.14488022    -72.52052703   -112.37702963
 H    -15.12712518    -73.05773981   -110.68016374
 H    -14.40674742    -75.28500980   -112.06548353
 H    -14.56296509    -74.26733524   -113.51744812
 H    -16.94954343    -73.96060416   -113.10185565
 H    -16.83492730    -74.97395492   -111.64300335
 H    -16.19238881    -76.91166565   -112.98090539
 H    -16.29637181    -75.93365610   -114.46446581
 H    -18.65745238    -75.54683644   -114.18041865
 H    -18.65792532    -76.51096392   -112.68418182
 H    -18.12866895    -78.46965790   -113.12989497
 H    -17.96045220    -78.15075360   -114.87295832
 H    -20.50888576    -77.62124664   -114.66711265
 H    -20.37426279    -77.99892771   -112.93289804
 H    -19.76710638    -80.34929268   -113.64798520
 H    -19.93187589    -79.84228843   -115.34623853
 H    -22.34922943    -79.39730528   -114.89583353
 H    -22.11414469    -79.91579741   -113.20936748
 H    -21.54966706    -82.19299780   -114.35659768
 H    -21.84721920    -81.39677590   -115.92049028
 H    -24.26209008    -81.17676516   -114.93895213
 H    -23.66360410    -82.00055819   -113.47900479
 H    -23.14420396    -84.02397559   -114.59803293
 H    -23.70872630    -83.35511991   -116.14794044
 H    -25.99006727    -83.26980352   -114.88043247
 H    -25.14805840    -83.94779058   -113.46635281
 H    -24.74555864    -85.99344353   -114.93322687
 H    -25.61420961    -85.17029766   -116.25085467
 H    -27.62165101    -85.30148374   -114.62730794
 H    -26.54993972    -86.11116147   -113.45935095
 H    -25.98607403    -87.96689080   -114.46785928
 H    -26.96267503    -87.59110089   -115.90775480
 H    -29.00984326    -87.51962463   -115.14893272
 H    -28.50656490    -87.90284749   -113.48516657
 H    -27.66670320    -90.08109581   -114.17483003
 H    -28.15161772    -89.74957730   -115.85507407
 H    -30.53207157    -89.67606348   -114.94814184
 H    -29.88207885    -90.00952659   -113.32500337
 H    -28.99034916    -92.05682780   -113.66414231
 H    -29.50372521    -92.07948974   -115.36831312
 H    -31.67402677    -92.00673368   -115.28196191
 H    -31.69892091    -91.97988144   -113.50237603
 H    -30.63172777    -94.26423096   -113.58672516
 H    -30.65552453    -94.18010917   -115.36453952
 H    -33.25524683    -94.12806482   -114.90139654
 H    -32.85885647    -94.21219204   -113.16817297
 H    -31.83978472    -96.39806889   -113.42457976
 H    -32.20652717    -96.38217750   -115.16627839
 H    -34.65973763    -96.33690534   -114.38770806
 H    -34.07222642    -96.35163243   -112.70756510
 H    -33.03025015    -98.34218110   -112.64535363
 H    -33.44481838    -98.69901415   -114.33918657
 H    -35.79018245    -98.71161475   -113.94963096
 H    -35.53998377    -98.35882464   -112.22301392
 H    -34.35015250   -100.60679207   -112.12814083
 H    -34.67618471   -100.81019095   -113.86612776
 H    -37.03273131   -100.83850627   -113.61915217
 H    -36.88767042   -100.64119745   -111.85611694
 H    -35.75381812   -102.71711849   -111.55205483
 H    -35.82944686   -103.05045675   -113.29888985
 H    -38.44159199   -102.92976702   -112.22766369
 H    -37.57703396   -102.59649878   -110.70788135
 H    -36.64936812   -104.99845250   -111.09441545
 H    -37.61994309   -105.06036301   -112.58519310
 H    -39.64012769   -104.86249504   -111.04119219
 H    -38.52489994   -104.81016181   -109.65490399
 H    -38.40444730   -107.29296268   -111.09438841
 H    -39.63055330   -106.48476461   -112.10024458
 H    -41.31496447   -106.15294133   -110.80825397
 H    -40.52099416   -106.91288153   -109.40812230
 H    -40.32165594   -109.04163113   -110.31443915
 H    -41.10404039   -108.52881006   -111.82875609
 H    -43.16975159   -108.05651448   -110.49420249
 H    -42.31767263   -108.58349430   -109.02297159
 H    -42.16508156   -110.86336179   -110.10458223
 H    -43.02374723   -110.21553086   -111.52277651
 H    -45.00411187   -109.78731573   -110.11139893
 H    -44.13551592   -110.43700999   -108.70012111
 H    -43.83028913   -112.57686602   -109.39447781
 H    -44.66903099   -112.27137136   -110.93442968
 H    -46.38881298   -111.94242487   -108.66568772
 H    -44.90203797   -112.36204604   -107.78155830
 H    -44.47257092   -114.40723821   -108.44988924
 H    -45.90575237   -114.46172705   -109.50406596
 H    -47.53520849   -114.24517925   -107.93565626
 H    -46.34779104   -114.16437685   -106.61210897
 H    -45.35489400   -116.11001250   -106.68090820
 H    -46.34440685   -116.67162495   -108.04974801
 H    -47.91991167   -116.15293391   -105.71814094
 H    -46.33665088   -115.70648679   -105.03826089
 H    -45.49735108   -117.96755594   -105.30124238
 H    -47.05659415   -118.48302088   -105.98777251
 H    -48.13725621   -117.93567356   -103.81761142
 H    -46.55847346   -117.42897059   -103.17033729
 H    -45.62563591   -119.63667770   -103.38976365
 H    -47.16391757   -120.24668006   -104.04539565
 H    -48.56141076   -119.94549114   -102.36114071
 H    -47.29187856   -119.26660726   -101.31439751
 H    -46.05965528   -121.37242193   -101.35952030
 H    -47.30700412   -122.09103740   -102.40641061
 H    -48.84861580   -121.69802031   -100.37326283
 H    -47.44931058   -121.00798283    -99.51648989
 H    -46.01744416   -122.57239220    -99.32692978
 H    -47.05353892   -123.76477218   -100.14729816
 H    -48.72505136   -123.56573650    -98.35881989
 H    -47.69840594   -122.37244038    -97.52797078
 H    -45.88814723   -123.59839139    -97.06160499
 H    -46.58475817   -125.05705861    -97.80678269
 H    -48.39056086   -125.08739700    -96.16119855
 H    -47.72247595   -123.62956072    -95.38877213
 H    -45.67596255   -124.90814478    -94.82319472
 H    -46.36924213   -126.35001059    -95.60335694
 H    -48.10081224   -125.95456552    -93.59878012
 H    -47.49173901   -124.58224212    -93.29194939
 H    -46.95109123   -123.46536668    -93.08966242
 H    -45.50701323   -124.42028225    -92.67609057
 H    -47.08159058   -125.32602411    -90.79657630
 H    -48.34947769   -124.25855688    -91.44560837
 H    -47.49482928   -122.24612543    -91.13989980
 H    -46.01262348   -122.89223569    -90.39567257
 H    -47.55167175   -123.78482458    -88.57072006
 H    -48.93233970   -123.07898875    -89.44468713
 H    -47.69466067   -120.84750328    -88.91705143
 H    -46.44188477   -121.81481576    -88.10272608
 H    -47.78153872   -122.68807304    -86.42834970
 H    -49.20842922   -121.81557982    -87.03745212
 H    -48.43224440   -119.67042397    -86.71320029
 H    -47.38831188   -119.77387856    -86.76149641
 H    -46.21941632   -119.74194092    -87.17800603
 H    -45.86505417   -120.67115068    -85.70177321
 H    -46.61964752   -118.87169320    -84.27318823
 H    -46.99991726   -117.87503710    -85.69808760
 H    -44.54633722   -117.93115043    -86.24749948
 H    -44.26865668   -118.92848143    -84.79957301
 H    -45.13170819   -116.78880013    -83.58139831
 H    -45.31693159   -116.03672557    -85.18400332
 H    -42.72919149   -116.34801941    -85.25346940
 H    -42.84310042   -117.07605777    -83.63320659
 H    -43.69291987   -114.56912660    -83.16992506
 H    -43.43323573   -114.28310163    -84.90745794
 H    -41.38864838   -114.52732833    -85.31350687
 H    -40.98020767   -114.88975160    -83.61937221
 H    -41.87847492   -112.39646302    -83.37315207
 H    -42.15834621   -112.43004146    -85.13065348
 H    -39.63592358   -112.70153532    -85.33791657
 H    -39.52288830   -112.65378033    -83.56218879
 H    -40.44028519   -110.26432598    -83.82054519
 H    -40.47800787   -110.52422194    -85.58102744
 H    -37.99985413   -110.76914795    -85.53667839
 H    -38.01735372   -110.50502902    -83.77650748
 H    -38.85407831   -108.32792607    -83.84466878
 H    -38.92104363   -108.35577480    -85.62315317
 H    -36.41896666   -108.61050206    -85.59708513
 H    -36.91319771   -107.27597888    -84.16437359
 H    -37.30920464   -106.35564913    -83.70664018
 H    -37.32595146   -106.23704535    -85.48256792
 H    -35.18456385   -106.42932752    -85.99795109
 H    -34.69775539   -106.57991257    -84.29248683
 H    -35.07478489   -105.04553046    -83.15597289
 H    -35.78198439   -104.07710867    -84.47137958
 H    -33.71059269   -104.03488257    -85.70395816
 H    -32.91311964   -105.00031639    -84.43895186
 H    -33.43800092   -102.91693953    -82.97248579
 H    -34.18868106   -102.17843329    -84.40753091
 H    -32.47805312   -102.00666698    -85.80340993
 H    -31.33958386   -102.71332874    -84.63175146
 H    -32.25736816   -100.35510161    -83.50849959
 H    -33.22131618   -100.21705756    -84.99847097
 H    -31.04595961   -100.07388243    -86.25319156
 H    -30.17268621   -100.22057491    -84.70912500
 H    -30.85581036    -98.34862171    -83.66544527
 H    -31.86002642    -97.85207141    -85.04864973
 H    -30.44547103    -97.55463198    -86.66960535
 H    -29.04523464    -97.97595913    -85.65467276
 H    -29.68459571    -95.92112160    -84.28038948
 H    -31.04511087    -95.65018895    -85.39567450
 H    -28.92150377    -95.35100774    -87.02101006
 H    -27.92406226    -95.69297107    -85.58698141
 H    -28.90629199    -93.55519043    -84.62024862
 H    -29.84540932    -93.35276127    -86.11869706
 H    -27.75351768    -93.12917975    -87.39965086
 H    -26.81432536    -93.33159879    -85.90124805
 H    -27.48684026    -91.51156845    -84.75170528
 H    -28.55220788    -90.97754146    -86.07385265
 H    -26.30220452    -90.78743153    -87.36902567
 H    -25.48270086    -91.35302917    -85.89363429
 H    -26.01063635    -89.63583898    -84.49635352
 H    -26.91650919    -88.78603092    -85.77129952
 H    -25.41446540    -88.33939833    -87.28530992
 H    -24.10393083    -89.09023054    -86.34349423
 H    -24.85849433    -87.06175461    -84.74176122
 H    -26.06338830    -86.67755750    -85.99431452
 H    -23.98895119    -86.24015027    -87.46698130
 H    -22.97493039    -86.67326244    -86.06968307
 H    -23.52258338    -85.07504583    -84.61014458
 H    -24.65623263    -84.30983345    -85.74924777
 H    -23.54883051    -83.64821719    -87.41416649
 H    -21.99905334    -84.21926410    -86.75056810
 H    -21.67365824    -83.10898208    -84.95283930
 H    -23.18196560    -82.18042683    -85.12907980
 H    -21.35651857    -81.67323549    -87.26926534
 H    -20.35669519    -82.84863659    -86.38210575
 H    -20.12014729    -81.54773127    -84.44420394
 H    -21.09711477    -80.23752091    -85.14929260
 H    -19.45374127    -79.88686550    -86.91472971
 H    -18.44131836    -81.18917333    -86.24595407
 H    -18.11956696    -79.92814472    -84.17563887
 H    -19.12675907    -78.60709380    -84.81490034
 H    -17.34570611    -78.33773679    -86.60110116
 H    -16.44385756    -79.67966449    -85.85667797
 H    -16.39801220    -77.87769131    -83.88308720
 H    -17.33135867    -76.82123731    -84.96984199
 H    -14.95885306    -77.15551102    -86.26518723
 H    -14.50571009    -78.17978403    -84.88178818
 H    -14.69140819    -76.18252916    -83.41087977
 H    -15.14212289    -75.19747195    -84.82324843
 H    -12.90383984    -75.66204184    -85.79923088
 H    -12.49415875    -76.63970259    -84.36933314
 H    -12.52175935    -75.33430887    -82.69617418
 H    -12.94024288    -73.90975076    -83.67789329
 H    -10.96580796    -73.93247985    -84.95935540
 H    -10.36434386    -75.36201476    -84.08589244
 H    -10.37648490    -73.87049019    -82.02202179
 H    -10.98239312    -72.53843397    -83.03531746
 H     -8.92523660    -72.56625750    -84.36111914
 H     -8.29283452    -73.89828586    -83.36410624
 H     -8.45809659    -72.04836032    -81.50043027
 H     -9.08236679    -70.95424460    -82.75799306
 H     -6.53964696    -71.54654432    -83.57023395
 H     -6.46079935    -72.55259536    -82.10397646
 H     -6.76877325    -70.08168248    -81.07817058
 H     -6.80300217    -69.51462148    -82.76504249
 H     -4.28907186    -70.68692610    -82.10856445
 H     -5.07292486    -70.92887255    -80.52891162
 H     -5.39905456    -68.75076621    -79.94561604
 H     -4.64829346    -68.16469831    -81.44932773
 H     -2.50936128    -69.16084367    -80.82972676
 H     -3.21879671    -69.76524140    -79.31326000
 H     -3.65272364    -67.53280442    -78.50401843
 H     -2.95800985    -66.83785127    -79.98816112
 H     -0.83597889    -67.68508961    -79.85174544
 H     -1.11975181    -68.37268817    -78.32805319
 H     -0.91813090    -66.07960673    -80.45455171
 H     -0.63865079    -67.77184422    -80.93046116
 H      1.29995107    -66.83380066    -79.04123480
 H      0.37000919    -65.50772272    -78.93521318
 H     -0.37373034    -64.61068429    -78.74578661
 H      0.02161549    -64.32273068    -80.45723368
 H      1.91592081    -63.97151137    -80.83075084
 H      2.40958140    -64.08720037    -79.12453223
 H      0.99399268    -62.14177382    -78.58758164
 H      0.50255008    -62.02929373    -80.29465489
 H      2.69364254    -61.56942826    -81.08655624
 H      3.34558341    -61.64445041    -79.43198335
 H      1.89163955    -59.65982157    -78.89927676
 H      1.30054500    -59.67292527    -80.57817586
 H      2.71899435    -59.33929747    -81.93227778
 H      4.00930470    -59.14529793    -80.72160440
 H      2.99029192    -57.21733660    -79.73264002
 H      1.64196861    -57.30088488    -80.89165279
 H      3.71502154    -56.84296022    -82.52618508
 H      4.72789612    -56.84784186    -81.06251575
 H      3.59141702    -54.90022149    -80.17056351
 H      2.54377447    -54.83347263    -81.60801137
 H      4.31117904    -54.42877133    -83.12725911
 H      5.50458259    -54.45836308    -81.80696409
 H      5.34225660    -53.11252611    -80.44133968
 H      3.93438173    -52.32632954    -81.19503058
 H      5.48773370    -51.82660734    -83.14590790
 H      6.79764810    -52.65022950    -82.26611392
 H      6.12759046    -50.47946863    -80.71492365
 H      4.92157644    -50.14426956    -81.98040318
 H      6.18845041    -49.76738619    -83.75693750
 H      7.69520637    -50.01656834    -82.84268293
 H      7.07335553    -48.03069967    -81.45092903
 H      5.58503587    -47.84722423    -82.40983885
 H      6.56306070    -47.41390343    -84.44696703
 H      8.19889980    -47.53207611    -83.75535129
 H      7.40129723    -45.47299026    -82.37312936
 H      5.84181312    -45.59289013    -83.22277634
 H      6.96031078    -45.12045386    -85.36112605
 H      8.52352009    -44.99877738    -84.51860711
 H      7.46107496    -43.00260610    -83.31419513
 H      5.97517218    -43.28638869    -84.25218608
 H      7.30045987    -42.77426810    -86.31851802
 H      8.74028872    -42.51075129    -85.30574044
 H      7.71001877    -40.63119943    -84.17729905
 H      6.23567310    -40.83091176    -85.15437964
 H      7.94754711    -40.25077636    -87.08039549
 H      9.19610273    -40.14000803    -85.81662894
 H      7.73485218    -38.17640931    -84.96541876
 H      6.62613097    -38.49413865    -86.32116652
 H      8.61007731    -37.87002233    -87.80858848
 H      9.57395664    -37.60263586    -86.33627473
 H      7.82530992    -35.73041098    -85.90949937
 H      7.03959095    -36.20528364    -87.43442833
 H      9.09702701    -35.54716203    -88.65429471
 H      9.85374828    -35.08242043    -87.11168173
 H      7.90131329    -33.33851941    -87.10059533
 H      7.37627102    -34.02905397    -88.65486664
 H      9.51528454    -33.29339912    -89.66686817
 H     10.01483073    -32.61231946    -88.10007183
 H      7.96729872    -31.06173880    -88.47024897
 H      7.67769362    -31.91553769    -90.00498771
 H      9.88880454    -31.05702462    -90.80044758
 H     10.11039044    -30.23105926    -89.23937501
 H      8.40700058    -28.77907234    -89.26998881
 H      7.85952180    -29.33245744    -90.87070696
 H     10.32281979    -28.32819188    -91.38250306
 H     10.39857473    -27.97180801    -89.64022914
 H      8.61082120    -26.45114694    -89.63067530
 H      8.36587895    -26.65829122    -91.38149260
 H     10.79392612    -25.62838148    -91.41973842
 H     10.70419308    -25.57101072    -89.64296515
 H      8.82037426    -23.97396432    -89.81752835
 H      8.92911660    -24.04824783    -91.59261249
 H     11.17998002    -23.09338251    -91.53221158
 H     11.10272732    -23.00482080    -89.75613289
 H      9.16541434    -21.36295291    -90.17966975
 H      9.41308398    -21.60298992    -91.92589673
 H     11.68376780    -20.60923852    -91.67777833
 H     11.38534312    -20.39274796    -89.93641644
 H      9.65907593    -18.95016392    -89.98784017
 H      9.65515709    -18.89942957    -91.76707521
 H     12.04751294    -17.87942995    -91.32665407
 H     11.71898598    -18.08152782    -89.58898519
 H      9.82561126    -16.32235667    -90.25077940
 H     10.46537489    -16.41429813    -91.90924735
 H     12.61147178    -15.45949735    -91.00633877
 H     11.87955647    -15.41089752    -89.38454819
 H     10.18975637    -13.86355993    -89.97121001
 H     10.79010300    -13.78326136    -91.64494916
 H     12.91729731    -12.85421909    -90.88398265
 H     12.35178341    -12.91821170    -89.19745792
 H     10.58392469    -11.40757933    -89.47049980
 H     10.97696176    -11.18562799    -91.19227973
 H     13.06945982    -10.27281823    -90.93995376
 H     12.96229052    -10.36153382    -89.16543666
 H     11.06194746     -8.79349177    -89.20379218
 H     11.17048922     -8.70596492    -90.97828490
 H     13.42703195     -7.71509262    -90.76890980
 H     13.29993360     -7.81130596    -88.99609970
 H     11.55239103     -6.42033033    -88.64766062
 H     11.38621738     -6.07475148    -90.38582869
 H     13.68017560     -5.06080824    -90.29754274
 H     13.76131253     -5.44667076    -88.56180268
 H     11.84442758     -3.90757849    -88.18422006
 H     11.79976506     -3.55239310    -89.92781269
 H     13.98404274     -2.57224216    -89.93193371
 H     14.15135401     -2.86942410    -88.18494873
 H     12.25181789     -1.35206309    -87.75695425
 H     13.04009506     -0.60530012    -89.51861251
 H     14.22222192     -0.05953215    -89.73939675
 H     14.55259974     -0.26529430    -88.00250899
 H     13.34347335      0.70443142    -86.79958964
 H     12.40011128      1.43315788    -88.12144153
 H     15.15385524      2.26082638    -88.11004060
 H     15.21578510      1.17230357    -86.70307598
 H     13.60993974      2.69791080    -85.54884966
 H     13.59156937      3.74342770    -86.98927446
 H     16.04971706      4.14203709    -86.54797216
 H     15.93824859      3.07121861    -85.13051344
 H     14.38776631      4.51682033    -83.99991499
 H     14.42448561      5.66240287    -85.36173694
 H     16.51766849      6.33287647    -85.39757118
 H     16.96000917      5.32270071    -84.00037888
 H     15.75933184      6.10336365    -82.36543043
 H     15.00824763      7.35355784    -83.38579980
 H     17.61613999      8.05297639    -83.42700577
 H     17.88572099      6.63491098    -82.38552449
 H     16.57936285      7.46985396    -80.58953186
 H     16.21492279      8.95643945    -81.49810971
 H     18.61664064      9.53252985    -81.49017219
 H     18.96804031      8.04262168    -80.58189988
 H     17.67630796      8.75626817    -78.68008004
 H     17.26752359     10.28171705    -79.50115721
 H     20.03698503     10.21491697    -79.11974257
 H     19.70801327      8.62995454    -78.37951400
 H     18.38078591      9.99572602    -76.65019427
 H     18.82353895     11.46719693    -77.54853150
 H     21.21874741     10.95461913    -76.97708951
 H     20.67512025      9.50190143    -76.10396439
 H     19.44964081     11.05479322    -74.54285095
 H     20.04790648     12.43787805    -75.49017414
 H     22.36649433     11.60628757    -74.69845484
 H     21.53385267     10.29484169    -73.82949902
 H     20.31908399     11.42196094    -72.34778862
 H     20.92668593     12.99416757    -72.91984879
 H     23.21197409     12.13891269    -72.13914017
 H     22.42137630     10.62718012    -71.63131495
 H     21.35879084     12.69287300    -70.08989506
 H     22.45554718     13.72274420    -71.04108249
 H     23.94711305     11.88044131    -69.49781868
 H     22.33490134     11.33819669    -68.97340392
 H     21.29250146     12.71365552    -67.99832193
 H     22.57847899     13.94075831    -68.09184844
 H     23.83658923     12.12615370    -66.64786965
 H     22.36143688     11.13680532    -66.76355030
 H     21.19187313     12.97187148    -65.48732731
 H     22.72445186     13.87561796    -65.43525631
 H     23.65143368     11.96694603    -64.07282597
 H     22.07406211     11.15081512    -64.19155219
 H     20.90378557     12.84308825    -63.00410215
 H     22.40171440     13.78170038    -62.79557597
 H     23.28552806     11.85378340    -61.44483367
 H     21.75047986     10.99310643    -61.71153358
 H     20.52601875     12.72304297    -60.49006104
 H     22.04446723     13.60722826    -60.20581250
 H     22.78010698     11.57638912    -58.87376507
 H     21.21579484     10.81090758    -59.24150439
 H     20.35960208     12.87475859    -57.83265915
 H     22.06488763     13.35815541    -57.66957824
 H     22.40178712     11.19571155    -56.40209619
 H     20.67657522     10.82497513    -56.63547376
 H     20.10447320     12.82839042    -55.28830937
 H     21.83819934     13.17051455    -55.07520984
 H     21.29082181     10.72043875    -53.85186792
 H     19.63020531     11.01819351    -54.41928453
 H     19.69681527     13.04727337    -52.86131421
 H     21.35952701     12.59449476    -52.41561491
 H     20.68542508     10.51110648    -51.44565546
 H     18.98177951     10.84937082    -51.83480284
 H     19.03031986     12.80654659    -50.33890881
 H     20.73394743     12.46716277    -49.95065842
 H     20.46798172     10.42703031    -48.95455678
 H     18.70416273     10.46855999    -49.19010829
 H     18.27853632     12.32581329    -47.86752734
 H     20.00341671     12.50311246    -47.46550829
 H     19.68292752     10.18443658    -46.35976228
 H     17.98178364     10.23748044    -46.88087887
 H     17.71128315     12.24267596    -45.38417861
 H     19.42655023     12.10436153    -44.92921198
 H     19.07327061      9.93240332    -43.91681883
 H     17.34476627      9.99902293    -44.33646302
 H     17.94326634     12.08015448    -42.53824071
 H     19.53308019     11.59848985    -42.69489045
 H     20.62997204     11.51378818    -42.97151307
 H     20.23757312      9.94413337    -42.22957402
 H     19.63473188     10.40143997    -40.21162936
 H     19.89163279     12.14996114    -40.42362535
 H     22.34753185     11.50610969    -40.79059269
 H     21.88710520      9.80330565    -40.55240712
 H     21.15916279      9.58932045    -38.59520705
 H     21.41969748     11.30298763    -38.19056754
 H     23.61250319     11.51352557    -38.37448770
 H     23.82753350      9.80274867    -38.81638250
 H     23.60760392      8.39081281    -38.29347537
 H     23.00220927      8.99100021    -36.73093287
 H     24.86104707     10.07976912    -36.00356429
 H     25.77602036      9.63878689    -37.46528424
 H     25.60031975      7.26532208    -36.90929944
 H     24.68327892      7.66949556    -35.43826355
 H     26.24536695      8.85351339    -34.31103369
 H     27.44808194      8.63854547    -35.60545716
 H     27.37125513      6.18409043    -35.18185320
 H     26.16895361      6.45614783    -33.89782731
 H     28.22938597      7.75675966    -32.86006761
 H     29.13777189      7.29479940    -34.31941486
 H     28.94964199      4.93391560    -33.77552331
 H     28.03717866      5.33230691    -32.30007026
 H     30.58717621      6.76153055    -32.44939012
 H     30.92882711      6.04840124    -33.05230609
 H     29.83099230      7.04899996    -30.62614731
 H     30.34671120      7.89761260    -32.23711467
 H     30.92952260      6.19858342    -29.63411671
 H     29.21151581      6.62349087    -29.82430868
 H     29.85136642      9.02416050    -29.61146527
 H     31.55437780      8.54009483    -29.42789141
 H     31.15599697      7.34851566    -27.39448368
 H     29.42649595      7.76501750    -27.45464245
 H     29.55275362     10.01501076    -27.28812082
 H     31.32958338      9.98165481    -27.18797057
 H     30.85821113      8.66421479    -24.99533234
 H     29.12112114      8.83815942    -25.34250418
 H     28.50643947     10.74189529    -25.35979425
 H     30.11326978     11.39799122    -24.96495104
 H     30.08853497     10.24354477    -22.80559463
 H     28.48099545      9.57439771    -23.17481759
 H     27.49352912     11.79359421    -23.24031613
 H     29.07456037     12.52320125    -22.87115436
 H     29.38058339     11.59576975    -20.78747519
 H     27.82259573     10.73924031    -20.87290605
 H     26.43757271     12.56273850    -20.97977817
 H     27.81192147     13.69106550    -20.90034044
 H     28.21441844     12.67606219    -18.58140836
 H     26.80547227     11.62191296    -18.84956274
 H     25.52954026     13.88851219    -18.90533298
 H     27.09148386     14.69833963    -18.63555830
 H     26.71613473     12.73341321    -16.58138909
 H     25.60690885     12.75263737    -16.79001071
 H     28.10668983     14.37642642    -16.20488096
 H     28.03288315     12.60927847    -16.40489939
 H     26.52544973     12.79651018    -14.27387542
 H     26.78034142     14.55689572    -14.33975157
 H     28.93506359     14.78223977    -14.04090470
 H     29.19172383     13.02763104    -13.88682560
 H     27.92522842     12.69513006    -11.98520071
 H     27.50851814     14.42300481    -11.88997443
 H     30.25441612     14.25822373    -11.57124225
 H     30.00250989     12.50679450    -11.76438869
 H     28.63795852     12.73352864     -9.58852879
 H     29.01291252     14.47352013     -9.59881487
 H     31.39819017     14.00553372     -9.35565821
 H     31.06243942     12.25759066     -9.34038821
 H     29.83007893     13.38532229     -7.10313977
 H     30.50041875     14.90970510     -7.73176384
 H     32.77559870     13.77594394     -7.29525898
 H     31.88959445     12.34767115     -6.70934092
 H     30.83395703     13.50440767     -4.91183363
 H     31.67765972     14.96716916     -5.29911618
 H     30.60852038     12.22506583     -4.60013939
 H     29.64830782     13.63955784     -5.09558954
 H     30.79507636     14.41462664     -2.74796941
 H     31.54772789     12.80162764     -2.74390013
 H     29.27753666     11.79938105     -2.58809825
 H     28.56754872     13.43159358     -2.59622541
 H     29.85545486     13.71225597     -0.38012454
 H     30.45388096     12.04788340     -0.58016654
 H     27.86646762     11.55292238     -0.35728469
 H     27.63548683     13.31041740     -0.19564992
 H     29.07338858     12.87707309      1.97334727
 H     29.11171240     11.16153764      1.50033981
 H     26.50364265     11.42229445      1.80314404
 H     26.78980028     13.05514304      2.28692063
 H     26.75846608      9.97763085      2.05325341
 H     25.98054846     11.06110852      0.87461565
 H     24.54408296     11.65462210      3.00976029
 H     25.54209685     10.47948002      3.89929727
 H     24.66298413      8.68067198      2.43612232
 H     23.67733893      9.88033902      1.56573780
 H     22.45320553     10.27901617      3.72221429
 H     23.48903389      9.06440326      4.50964159
 H     23.02195332      7.20935945      3.46397692
 H     21.82876242      7.99630620      2.40318620
 H     20.46906476      8.52804104      4.41721988
 H     21.68992980      7.73143906      5.43858196
 H     21.44684034      5.59639368      4.54899587
 H     20.18499673      6.15186681      3.42317752
 H     18.60016072      6.80488503      4.89984429
 H     19.60566427      6.34358785      6.29427399
 H     19.52349999      3.98703381      5.53192540
 H     18.51950809      4.47715418      4.14626709
 H     16.69584776      5.25448674      5.11349599
 H     17.31115968      4.91416358      6.74868346
 H     17.31955657      2.48217603      6.12228279
 H     16.70555830      2.91768960      4.50933495
 H     14.69835245      3.80919760      5.10666223
 H     14.99783187      3.50109248      6.83398674
 H     13.50564706      1.80689645      5.88821586
 H     14.72441499      1.49920273      4.51921248
 H     12.99314176      2.47328068      4.25074125
 H     12.50352561      2.33289703      5.92426066
 H     13.20986571      0.56464642      3.40829258
 H     13.39039953      2.30094115      3.06050702
 H     11.22199495      2.95165733      3.33915927
 H     10.70344595      1.29324922      3.72523719
 H     11.39816037      0.63118655      1.41433614
 H     11.89676342      2.31104083      1.10168413
 H      9.07545208      2.03108736      1.60461743
 H      9.53429296      0.32077850      1.78510380
 H     10.23878736      0.21360582     -0.54943153
 H      9.79165587      1.92197903     -0.77259301
 H      7.55054821      1.76219396     -0.37831739
 H      7.65635680      0.00721530     -0.10061053
 H      8.41719162      0.07278310     -2.62407649
 H      8.21201698      1.83936809     -2.55095003
 H      6.03689660      2.04016419     -2.15529933
 H      5.78712849      0.27781682     -2.15907950
 H      6.31592847     -0.34003578     -4.17478467
 H      6.69391710      1.32161632     -4.68888928
 H      4.18434546      1.73054584     -4.20350388
 H      4.31328065     -0.23023243     -4.83930490
 H      4.52192133     -1.10053758     -5.51291438
 H      4.76280652      0.36583135     -6.49271189
 H      3.04295361      1.45734606     -6.61965930
 H      2.09760889      0.30961348     -5.64124222
 H      2.40685157     -1.45113488     -7.29224420
 H      3.35878931     -0.34527101     -8.31162945
 H      1.08058245      0.94534017     -8.39354448
 H      0.40838095     -0.32910852     -7.34846442
 H      0.74806509     -2.03642143     -9.01131812
 H      1.43408205     -0.83813116    -10.13459361
 H     -0.94616183      0.19157458     -9.99397133
 H     -1.37848550     -1.12207906     -8.87340138
 H     -1.16997865     -2.93293240    -10.06311738
 H     -0.68629177     -2.03414221    -11.52136628
 H     -3.06438825     -1.02306608    -11.32151008
 H     -3.30295038     -2.02741982     -9.87146583
 H     -3.04593131     -4.01440074    -11.44996201
 H     -2.48896222     -3.30796452    -12.48956614
 H     -1.69393310     -2.90072566    -13.23851250
 H     -3.05826761     -1.85548030    -13.61457936
 H     -3.58897061     -0.89310483    -13.62798865
 H     -3.28612829     -1.96712791    -15.16033439
 H     -2.37773794     -1.93417719    -15.88663955
 H     -1.75895352     -1.05946846    -14.87981742
 H     -1.09276744     -0.61513866    -14.02688794
 H     -2.34591648      0.64213970    -14.15778973
 H     -1.73828712      1.12436591    -16.45512904
 H     -0.46421396     -0.11718908    -16.39558534
 H      0.91530739      0.60438107    -14.87271867
 H     -0.04371539      2.07150434    -14.56273276
 H      0.47454257      2.68783205    -16.97981173
 H      1.39747962      1.17300715    -17.12732243
 H      2.85964627      2.36852904    -15.28860316
 H      1.71863372      3.73098867    -15.38890664
 H      2.36849414      4.10807743    -17.73265936
 H      3.51057812      2.74625582    -17.63594974
 H      4.95729853      3.35815117    -16.13354298
 H      4.15681793      4.92446461    -15.86122017
 H      4.96436024      5.03939362    -18.46299631
 H      5.60340431      3.40052786    -18.19095152
 H      7.49838165      3.99426550    -17.45562581
 H      7.46529842      3.94029450    -17.31603185
 H      7.76248039      2.88652021    -17.42311005
 H      6.99372746      3.04750018    -15.99447694
 H      6.58079918      3.43571905    -14.78595459
 H      8.00107786      4.50631237    -14.71591809
 H      9.38511657      2.37753692    -14.86107723
 H      7.87218594      1.44205359    -14.92571868
 H      6.91546805      2.35885468    -12.93042374
 H      8.12320361      2.83069787    -12.45285847
 H      6.00663002      1.12831593    -13.57647068
 H      5.96279245      2.85564305    -13.14905291
 H      6.38429462      2.00418224    -10.75413543
 H      6.39525361      0.34657618    -11.40258644
 H      4.13708718      0.41763205    -12.13117838
 H      3.98833216      2.09840659    -11.20748978
 H      3.91337349      3.17597916    -11.01439858
 H      4.19632915      2.22111979     -9.53912019
 H      1.77996765      1.35779313    -10.57527399
 H      2.09317398      2.55271781    -11.85680568
 H      1.99327517      4.37119634    -10.21096518
 H      1.67897843      3.18873005     -8.91819385
 H     -0.37325526      2.43891356     -9.78945117
 H     -0.25406110      3.03046622    -11.10459785
 H     -0.09433964      2.92484477    -12.20554443
 H     -0.12828536      4.66882861    -11.85109453
 H     -2.55560854      4.07726511    -11.05625304
 H     -2.20938243      2.39086318    -11.50840641
 H     -1.94296286      3.00253052    -13.84720709
 H     -1.84121043      4.40579642    -13.65346338
 H     -1.44168217      5.50712580    -13.54684387
 H     -3.10475329      5.71596237    -12.94780429
 H     -2.42844477      5.34315170    -15.76236440
 H     -2.40689665      5.58931796    -15.72465275
 H     -2.34378260      3.75535863    -16.05492390
 H     -1.43604756      5.27672641    -16.22733003
 H     -3.32368394      6.09123510    -17.68322364
 H     -4.14837803      4.53230045    -17.44266371
 H     -2.32523690      3.35039621    -18.56415683
 H     -1.37895143      4.46459108    -18.55278072
 H     -0.50169176      5.22248657    -18.33076554
 H     -1.49721472      6.21826460    -19.41963046
 H     -1.34149810      4.82282256    -21.27927685
 H     -0.74309821      3.64364727    -20.57809795
 H     -1.18139049      2.65997725    -20.35494718
 H      0.44977255      3.00245992    -19.73022370
 H      1.53276120      3.33947641    -21.70733008
 H      0.05227679      3.03629870    -22.64781711
 H      0.37972025      0.66121615    -21.49358506
 H      0.61981803      0.82179969    -20.86417014
 H      0.83776145     -0.02096846    -20.01187643
 H      2.05709707      1.61155293    -19.65188232
 H      2.34651314     -0.96865342    -20.57979499
 H      0.91801958     -0.91479103    -19.11662193
 H      2.76768197     -1.67675880    -18.61869972
 H      2.79217861     -0.59611537    -18.27794904
 H      3.29654284     -0.20236740    -17.23261640
 H      3.57693657     -1.42117563    -17.32406303
 H      2.67104222     -1.16224131    -16.14704221
 H      3.66863661     -1.74499700    -16.27735095
 H      3.44105767     -2.83829609    -16.26738571
 H      2.32467625     -1.56770030    -15.08026116
 H      1.92287916     -1.95175415    -14.00234007
 H      3.25967372     -2.69518886    -13.89073397
 H      2.84211321     -3.08278331    -12.65938271
 H      1.94588104     -2.58157203    -12.63030755
 H      3.28381003     -3.04585993    -11.68759370
 H      2.99087111     -1.98024331    -11.80251840
 H      3.62115853     -2.28027477    -10.44794247
 H      3.70826528     -3.40291028    -10.57003276
 H      4.52122277     -3.58864042     -9.63962250
 H      4.55216395     -2.36000898     -9.49793599
 H      5.23273946     -2.65721382     -8.41436740
 H      4.95067132     -3.94215743     -8.48579012
 H      5.83545589     -4.22776375     -7.55490963
 H      5.86417372     -2.84663809     -7.35444923
 H      6.50993952     -3.45828426     -6.18381983
 H      6.35298823     -4.69893635     -6.56540543
 H      6.26512569     -5.00694854     -5.40755020
 H      5.72106240     -3.32022233     -5.24257597
 H      7.46075897     -3.69339048     -5.29225517
1502
Final Conformation Chain 7 (Simulation Frame 8)
 C      0.00000000      0.00000000      0.00000000
 C      1.54000000      0.00000000      0.00000000
 C      2.16637443      0.75679252      1.18596802
 C      3.63015057      0.37269617      1.47132641
 C      4.37723233      1.37585944      2.36973183
 C      5.89911199      1.14859706      2.43165194
 C      6.63122681      2.07588824      3.41944694
 C      6.75850807      1.50016911      4.84210183
 C      7.51828390      2.41365746      5.82183636
 C      8.98779698      2.66283358      5.43448308
 C      9.83899274      3.27098532      6.56462345
 C     11.30863000      3.51968320      6.17743399
 C     11.48825367      4.21981464      4.81759896
 C     12.86971170      3.99530978      4.17512619
 C     13.25692358      2.51241591      4.02448512
 C     12.93701186      1.91904232      2.63986810
 C     12.98024744      0.38037513      2.59260324
 C     11.98525756     -0.24390759      1.59667843
 C     11.80948708     -1.76537493      1.75743254
 C     10.54234633     -2.32415917      1.08384921
 C     10.41717336     -3.85722093      1.15903799
 C      9.13280726     -4.41308248      0.51637037
 C      9.19363406     -5.91806674      0.19555504
 C      7.94376074     -6.45576948     -0.52575795
 C      7.91048258     -7.98935304     -0.66219119
 C      6.65303433     -8.52814741     -1.36938601
 C      6.75372850    -10.00747878     -1.78536604
 C      5.69090061    -10.44348674     -2.81098484
 C      5.98169858     -9.97917866     -4.25023970
 C      5.13160528    -10.68810873     -5.32092151
 C      5.27144216    -10.08612619     -6.73147554
 C      4.28650535    -10.66916485     -7.76179850
 C      4.28425555     -9.93120833     -9.11346972
 C      3.61279461    -10.71705652    -10.25504005
 C      3.41854692     -9.90177561    -11.54700944
 C      3.04630182    -10.75328521    -12.77500169
 C      2.60227281     -9.92885187    -13.99760053
 C      2.35009770    -10.77036361    -15.26245850
 C      1.22887802    -10.22343779    -16.16541950
 C      0.71204536    -11.23537446    -17.20487522
 C      0.34193671    -12.60792053    -16.61264479
 C     -0.44664433    -13.51393033    -17.57643220
 C     -0.41107748    -15.00740668    -17.20244905
 C     -1.62419969    -15.80916088    -17.70952372
 C     -1.62410269    -17.28680001    -17.27572353
 C     -0.40232135    -18.08423313    -17.76862389
 C     -0.47539758    -19.59255102    -17.46656925
 C      0.36529697    -20.46346402    -18.41858985
 C      0.03318291    -21.96569938    -18.35084636
 C      1.06679765    -22.86787626    -19.05035865
 C      0.79635757    -24.37492910    -18.88527112
 C      1.33306853    -25.23804764    -20.04223600
 C      0.77369829    -26.67268253    -20.06520713
 C      1.40044328    -27.57211277    -21.14678743
 C      0.79428608    -28.98620697    -21.21395168
 C      1.38995257    -29.87092358    -22.32483329
 C      0.96932918    -31.34998078    -22.24077520
 C      1.56752932    -32.23531261    -23.34980367
 C      1.17284779    -33.72032367    -23.24699982
 C      1.72130149    -34.59477620    -24.38986085
 C      1.30106694    -36.07383314    -24.30387553
 C      1.81275245    -36.93921736    -25.47044662
 C      1.55491186    -38.44695085    -25.29195870
 C      2.18579949    -39.32448941    -26.38900331
 C      1.79708686    -40.81207613    -26.30189282
 C      2.04667439    -41.60176705    -27.60023573
 C      1.80826959    -43.11737307    -27.46718858
 C      2.42714709    -43.95102266    -28.60456231
 C      2.10631706    -45.45511915    -28.52480110
 C      2.83924408    -46.30855266    -29.57649936
 C      2.30552745    -47.74803064    -29.69753523
 C      2.64233086    -48.43045003    -31.03636578
 C      2.17426912    -49.89471620    -31.12825029
 C      2.56599395    -50.59626438    -32.44201657
 C      1.84365625    -51.93603568    -32.67619835
 C      1.54341550    -52.23536828    -34.15668998
 C      0.78337714    -53.55473829    -34.38735098
 C      0.28075250    -53.74398502    -35.83066458
 C     -0.48727569    -55.05910858    -36.05909996
 C     -0.85558645    -55.32180227    -37.53115268
 C     -1.31236176    -56.76492432    -37.81462236
 C     -1.70887993    -57.01986380    -39.28069848
 C     -2.01433387    -58.49521796    -39.59948995
 C     -2.19570265    -58.78711935    -41.10065581
 C     -2.95773958    -60.09204412    -41.39742352
 C     -3.55581081    -60.15962822    -42.81493655
 C     -4.26234658    -61.49029479    -43.13389376
 C     -5.16737061    -61.43628847    -44.37872901
 C     -5.50227128    -62.81821642    -44.97009748
 C     -6.45225139    -62.76778151    -46.18112767
 C     -7.07280066    -64.12875678    -46.54754943
 C     -7.99876518    -64.08424042    -47.77726811
 C     -8.27091033    -65.46314343    -48.40668331
 C     -9.44526871    -65.47621890    -49.40283160
 C     -9.63033433    -66.81812363    -50.13539042
 C    -10.97646305    -66.94929129    -50.87182270
 C    -11.06636768    -68.17568589    -51.79890061
 C    -12.40039263    -68.28918151    -52.55988432
 C    -12.48473705    -69.50763285    -53.49789410
 C    -13.87432058    -69.71856888    -54.12730940
 C    -14.01283980    -71.03609186    -54.91251359
 C    -15.44375986    -71.32571783    -55.40259989
 C    -15.57435284    -72.62219863    -56.22338184
 C    -17.00917053    -72.92321571    -56.69485498
 C    -17.11490245    -74.12540283    -57.65149853
 C    -18.56024142    -74.57517225    -57.93487592
 C    -18.66932436    -75.98499860    -58.54486819
 C    -20.05891360    -76.31166363    -59.12273644
 C    -20.16520840    -77.71788984    -59.74146843
 C    -21.11486501    -77.79986847    -60.95102696
 C    -21.26691834    -79.21751397    -61.53305877
 C    -22.15688122    -79.28729230    -62.78792810
 C    -22.28788398    -80.70072648    -63.38512331
 C    -20.94641693    -81.33062105    -63.80381051
 C    -21.02628181    -82.84161172    -64.09039176
 C    -19.74969019    -83.42778615    -64.72151249
 C    -19.84465516    -84.93005431    -65.04673857
 C    -18.49555538    -85.57943788    -65.40705896
 C    -18.62262404    -86.97729184    -66.04066598
 C    -17.31494688    -87.50610730    -66.65867461
 C    -17.24345148    -89.04146095    -66.75447420
 C    -16.14729829    -89.55943603    -67.70407937
 C    -16.31334545    -91.03684594    -68.10568653
 C    -15.30251554    -91.51560607    -69.16427599
 C    -15.65818843    -92.87153293    -69.80189589
 C    -14.59601243    -93.39977252    -70.78390662
 C    -15.04311044    -94.63724628    -71.58413287
 C    -15.02569092    -95.94687149    -70.77408449
 C    -16.15257481    -96.92842785    -71.14594443
 C    -16.18142361    -98.20448474    -70.28429104
 C    -17.37942086    -99.12815311    -70.57280329
 C    -17.33042190   -100.47101457    -69.82052527
 C    -18.71072554   -101.11909151    -69.60521589
 C    -18.77417654   -102.07065957    -68.39604584
 C    -20.20128826   -102.50898525    -68.01812691
 C    -20.25851623   -103.53245312    -66.86884954
 C    -21.67920770   -103.79899715    -66.33763392
 C    -21.73875870   -104.83766893    -65.20219806
 C    -23.08606416   -104.87474271    -64.45721917
 C    -23.32659162   -106.17137079    -63.66191912
 C    -24.66212836   -106.19753359    -62.89559208
 C    -24.89593166   -107.48800538    -62.08836313
 C    -26.37988276   -107.86887745    -61.93207626
 C    -26.60911782   -109.22056494    -61.23065469
 C    -28.06148038   -109.45043240    -60.77304793
 C    -28.26115851   -110.73180383    -59.94249638
 C    -29.71464002   -110.96486636    -59.49008799
 C    -29.92658520   -112.27913622    -58.71589552
 C    -31.39194174   -112.54647173    -58.32491992
 C    -31.58285458   -113.77065525    -57.41030142
 C    -33.05633245   -114.14243135    -57.16081094
 C    -33.29416666   -115.64829080    -56.94304459
 C    -34.67700842   -115.98543685    -56.35509800
 C    -34.91328542   -117.49098069    -56.13348814
 C    -36.32016112   -117.83373310    -55.60925388
 C    -36.71618677   -119.31002186    -55.79723044
 C    -38.13649203   -119.64506889    -55.30521778
 C    -38.51736674   -121.12967751    -55.45512337
 C    -39.96765163   -121.44856517    -55.04697586
 C    -40.20037554   -122.92115030    -54.66105796
 C    -41.57575754   -123.19170390    -54.02330794
 C    -41.84857750   -124.67868822    -53.72997042
 C    -43.20335125   -124.94421255    -53.04755932
 C    -43.58455924   -126.43429951    -52.97060908
 C    -44.81879962   -126.72069648    -52.09526488
 C    -45.12372024   -128.21922541    -51.91351110
 C    -46.20041519   -128.51521936    -50.85298501
 C    -46.60279851   -129.99918064    -50.76611399
 C    -47.52338103   -130.32995996    -49.57669696
 C    -47.59522279   -131.83068198    -49.23865527
 C    -48.79619168   -132.21701808    -48.35546891
 C    -48.84271679   -133.70968932    -47.97947959
 C    -49.96132031   -134.07040439    -46.98438623
 C    -49.82389729   -135.47583535    -46.36999325
 C    -51.11939318   -136.00943192    -45.73080228
 C    -51.00584932   -137.44771072    -45.19222836
 C    -52.18426329   -137.87672170    -44.29842184
 C    -52.04405352   -139.29506727    -43.71512340
 C    -53.12698755   -139.65728365    -42.68185035
 C    -52.81484780   -140.92536991    -41.86568491
 C    -53.95513007   -141.36303552    -40.92770561
 C    -53.69725127   -142.70100276    -40.21011089
 C    -54.89328460   -143.20933261    -39.38385121
 C    -54.59695043   -144.48357092    -38.57138411
 C    -55.46516373   -144.63745728    -37.30879762
 C    -55.33074832   -146.00795782    -36.61940602
 C    -56.09327155   -146.11574744    -35.28578699
 C    -56.60900623   -147.53245904    -34.97186665
 C    -57.72701404   -147.57183411    -33.91351504
 C    -58.09524187   -148.99150107    -33.44388326
 C    -59.17062512   -149.02757611    -32.34213490
 C    -59.60727530   -150.44837907    -31.93932531
 C    -60.67322621   -150.48476784    -30.82845875
 C    -60.89893105   -151.88242326    -30.22247472
 C    -61.33140909   -151.86198143    -28.74458945
 C    -61.17820306   -153.21663404    -28.02831839
 C    -61.86550004   -153.27849496    -26.65158454
 C    -61.38473225   -154.44088171    -25.76314808
 C    -61.45455950   -154.14563492    -24.25332905
 C    -60.91600712   -155.28398513    -23.36692049
 C    -60.95258410   -154.97434171    -21.85881470
 C    -60.33437161   -156.07597712    -20.97801236
 C    -60.69470299   -155.96027557    -19.48523828
 C    -60.04894185   -157.04183928    -18.59934185
 C    -60.25491294   -156.81991300    -17.08939992
 C    -59.24603949   -157.57277302    -16.20228315
 C    -59.45710724   -157.35738950    -14.69209762
 C    -58.27275116   -157.81791867    -13.82214730
 C    -58.49639146   -157.63110293    -12.30996844
 C    -57.32020669   -158.11015919    -11.43893775
 C    -57.37315967   -157.60829444     -9.98397116
 C    -56.76753077   -156.20680633     -9.78236584
 C    -57.13853132   -155.55143936     -8.43906665
 C    -56.87072086   -154.03581786     -8.38644533
 C    -57.37623713   -153.35466953     -7.10110869
 C    -56.90623762   -151.89722638     -6.93813655
 C    -57.15954799   -151.31035195     -5.53706116
 C    -56.91122076   -149.79367352     -5.43897886
 C    -55.57318858   -149.33725165     -6.04967433
 C    -55.29333424   -147.83127991     -5.89051819
 C    -53.90092221   -147.39725599     -6.38489860
 C    -53.70304482   -145.87097310     -6.43879734
 C    -52.24646769   -145.43654994     -6.68630408
 C    -52.09527268   -143.96300205     -7.10748894
 C    -50.78518925   -143.65701412     -7.85692393
 C    -50.77237721   -142.28840601     -8.56286138
 C    -49.41858107   -141.92533758     -9.20084047
 C    -49.45165412   -140.64329625    -10.05341082
 C    -48.08865143   -140.25747717    -10.65753606
 C    -48.07519907   -138.87867845    -11.34334445
 C    -46.69171076   -138.45475351    -11.87045709
 C    -46.65191136   -137.02789443    -12.44846157
 C    -45.40859599   -136.73499765    -13.30868152
 C    -44.95681197   -135.26312250    -13.27589818
 C    -43.74445340   -134.95984006    -14.17579065
 C    -43.43163973   -133.45889856    -14.32043582
 C    -42.47936620   -133.12684765    -15.48427313
 C    -42.57287794   -131.66975114    -15.97389066
 C    -41.56159484   -131.31438517    -17.07961283
 C    -41.43099661   -129.80339899    -17.34694198
 C    -40.77987522   -129.46062232    -18.69977054
 C    -40.78175261   -127.95705049    -19.03273933
 C    -39.82162214   -127.56652750    -20.17170432
 C    -39.92027599   -126.08920841    -20.59525564
 C    -38.96527383   -125.70043234    -21.73911929
 C    -38.83479847   -124.18155231    -21.95724683
 C    -37.70242371   -123.78222498    -22.92154196
 C    -37.38417629   -122.27546967    -22.92418918
 C    -36.54829647   -121.81394718    -24.13245319
 C    -36.54770692   -120.28909880    -24.34794583
 C    -35.57043342   -119.81090257    -25.43783797
 C    -35.31670567   -118.29197427    -25.42894666
 C    -34.79467207   -117.73628055    -26.76696214
 C    -34.10205785   -116.36592935    -26.64854286
 C    -33.08322185   -116.08026725    -27.76745767
 C    -32.25959221   -114.79699020    -27.55197163
 C    -31.28086061   -114.48100219    -28.69819850
 C    -30.43179668   -113.21729527    -28.46638984
 C    -29.38762697   -112.95360556    -29.56719743
 C    -28.78429925   -111.53714900    -29.53189160
 C    -27.48280366   -111.39031285    -30.34192146
 C    -26.90276682   -109.96372349    -30.34220088
 C    -25.55823798   -109.83437044    -31.08186970
 C    -24.73974258   -108.59298662    -30.68108111
 C    -23.46197628   -108.38883407    -31.51608710
 C    -22.71279764   -107.07984317    -31.20484092
 C    -21.46237460   -106.85183596    -32.07435512
 C    -20.86974501   -105.43504170    -31.95996897
 C    -19.39897478   -105.33346844    -32.40507323
 C    -18.91832777   -103.89191259    -32.65506361
 C    -17.41791532   -103.67594823    -32.38354591
 C    -16.99153544   -102.19628038    -32.36396919
 C    -15.47485871   -101.98354522    -32.20261414
 C    -15.05628055   -100.50448816    -32.10889891
 C    -13.54222750   -100.27083860    -32.26590605
 C    -13.05119240   -100.30484168    -33.72512787
 C    -11.83002938    -99.40657053    -33.99618105
 C    -12.18624675    -97.93806718    -34.29317782
 C    -11.18405919    -97.22560670    -35.22033485
 C    -11.55108309    -95.76317384    -35.53367745
 C    -10.62839389    -95.09388200    -36.56919329
 C    -11.05128333    -93.66373638    -36.95318292
 C    -10.62868399    -93.24573003    -38.37384492
 C    -10.95796200    -91.78171615    -38.72002310
 C    -10.23737679    -91.25778234    -39.97614823
 C    -10.50770386    -89.77236980    -40.27958334
 C     -9.91913758    -89.28930892    -41.61818033
 C     -9.48785215    -87.81093598    -41.61566458
 C     -8.80131382    -87.35651967    -42.91711414
 C     -8.82287230    -85.83253107    -43.13755454
 C     -8.45572500    -85.40153804    -44.56970253
 C     -8.54502570    -83.88288502    -44.80911512
 C     -8.45175888    -83.47590621    -46.29143410
 C     -8.77551519    -81.99367864    -46.55559934
 C     -8.71052322    -81.59347276    -48.04126797
 C     -9.17109862    -80.15105102    -48.32214129
 C     -9.02582479    -79.72255582    -49.79417640
 C     -9.40137576    -78.25265444    -50.05865967
 C     -8.98661601    -77.74090794    -51.45066897
 C     -9.54575561    -76.34878239    -51.79844671
 C     -9.00822757    -75.77026522    -53.12055922
 C     -9.72636739    -74.48817737    -53.58113052
 C     -9.17899079    -73.90137183    -54.89552700
 C    -10.05910829    -72.79194075    -55.50063516
 C     -9.49731659    -72.18546500    -56.79993392
 C    -10.47198250    -71.23535084    -57.52028760
 C     -9.88971509    -70.58446599    -58.78871717
 C    -10.71851221    -69.40137349    -59.32255934
 C     -9.95756871    -68.49946191    -60.31206452
 C    -10.72317164    -67.22520702    -60.71421700
 C     -9.86561374    -66.19015713    -61.46579281
 C    -10.63600956    -64.92431542    -61.88500044
 C     -9.78344210    -63.89814806    -62.65422685
 C    -10.59045307    -62.72045255    -63.23160592
 C     -9.73162736    -61.66993708    -63.95991605
 C    -10.46197481    -60.34107898    -64.22885614
 C     -9.53665183    -59.20018237    -64.69116805
 C    -10.28249400    -57.98867075    -65.28070944
 C     -9.36384753    -56.81396308    -65.66509279
 C    -10.11914374    -55.54684769    -66.10729887
 C     -9.20034651    -54.38324904    -66.52377196
 C     -9.94685244    -53.06672502    -66.80854100
 C     -9.07330645    -51.98021066    -67.46276110
 C     -9.82025628    -50.66428134    -67.74911051
 C     -8.94018028    -49.56880811    -68.37919356
 C     -9.59316935    -48.17422275    -68.39754939
 C     -8.67763507    -47.06099171    -68.93987185
 C     -9.34233345    -45.67277135    -68.99106054
 C     -8.46126667    -44.57936077    -69.62333788
 C     -9.13095423    -43.19403359    -69.68648216
 C     -8.31166636    -42.13643696    -70.44927750
 C     -8.53127437    -40.69557125    -69.95200661
 C     -7.30066046    -39.78354266    -70.11135923
 C     -7.53968967    -38.32675168    -69.67292443
 C     -6.28373035    -37.43816312    -69.74057468
 C     -6.49671677    -36.01066880    -69.20345573
 C     -5.39974668    -35.01394417    -69.62154262
 C     -5.36711174    -33.72734172    -68.77585410
 C     -4.07034099    -32.91068515    -68.92770167
 C     -3.99162787    -31.68239464    -68.00211719
 C     -2.69183310    -30.86965191    -68.14902810
 C     -2.56563558    -29.70410582    -67.15044085
 C     -1.11463269    -29.26329342    -66.88234562
 C     -0.99501532    -27.99515854    -66.01682520
 C      0.45161840    -27.63369948    -65.63185998
 C      0.58135553    -26.30877159    -64.85769309
 C      1.99354593    -26.04242410    -64.30417952
 C      2.04981215    -24.93072768    -63.23995906
 C      3.41902791    -24.79435256    -62.54840282
 C      3.67173300    -23.40801308    -61.92727241
 C      4.64531295    -23.42422879    -60.73417596
 C      4.40660906    -22.29418957    -59.71553382
 C      5.22670389    -22.43540746    -58.41973214
 C      5.04706825    -21.26580019    -57.43416130
 C      5.76845937    -21.46447904    -56.08815923
 C      5.45995501    -20.37419348    -55.04522948
 C      6.11718991    -20.61554806    -53.67359168
 C      5.84041686    -19.50572813    -52.64242904
 C      6.42607305    -19.78766887    -51.24632150
 C      6.30464977    -18.60631668    -50.26588110
 C      6.85478821    -18.90157371    -48.85812722
 C      6.83698274    -17.68719628    -47.91125320
 C      6.86109190    -18.05783403    -46.41671434
 C      7.17502924    -16.87423965    -45.48282587
 C      7.29634223    -17.26322581    -43.99770873
 C      7.65661344    -16.08813088    -43.06983127
 C      8.06992397    -16.51566440    -41.64927170
 C      8.11101144    -15.35851631    -40.63392933
 C      8.28438296    -15.81312147    -39.17280768
 C      8.26528693    -14.66046442    -38.15172146
 C      8.65922149    -15.08194584    -36.72386679
 C      9.24111228    -13.93897416    -35.87144737
 C     10.73281429    -13.65950828    -36.13283586
 C     11.40589861    -12.79121167    -35.05366094
 C     12.92990219    -12.64987172    -35.22406084
 C     13.67019666    -12.25167692    -33.93371012
 C     15.08919280    -11.70189488    -34.16990848
 C     16.17739123    -12.39462976    -33.32875299
 C     17.51213519    -11.62818725    -33.27752369
 C     18.61111168    -12.33778345    -32.46492053
 C     19.80299299    -11.43341563    -32.10004001
 C     20.85971070    -12.11740994    -31.21285375
 C     22.16167325    -11.31037765    -31.05413260
 C     23.21946080    -11.99565228    -30.16921216
 C     24.54460050    -11.21849911    -30.06133388
 C     24.36822138     -9.69355556    -29.93870603
 C     24.33365083     -9.18176195    -28.48664811
 C     24.24254120     -7.64930892    -28.36463697
 C     24.45615500     -7.12105996    -26.93393009
 C     24.05686323     -5.64580016    -26.74478834
 C     23.92621308     -5.21616078    -25.27171653
 C     22.97801694     -4.02331904    -25.04888771
 C     22.87205949     -3.57328301    -23.57992869
 C     22.06293372     -2.27858184    -23.37827464
 C     22.14594998     -1.70380235    -21.95197283
 C     21.18031293     -0.53280951    -21.69135651
 C     21.21051638     -0.00614990    -20.24452638
 C     20.45671906      1.32192492    -20.04551164
 C     20.50675702      1.86058829    -18.60365937
 C     21.92984410      2.15507842    -18.09405293
 C     21.97180150      2.85676444    -16.72384262
 C     23.35299099      3.42972287    -16.35555712
 C     23.45199934      3.94366677    -14.90722738
 C     24.89613062      4.10757265    -14.39809115
 C     25.00268309      4.81037130    -13.03195769
 C     26.44842875      5.00262527    -12.53753087
 C     26.60745378      6.11443063    -11.48387064
 C     27.97521998      6.11573580    -10.77618856
 C     28.06349100      7.08842422     -9.58552258
 C     27.04881969      6.79907646     -8.46377395
 C     27.43435656      7.40119521     -7.09980389
 C     26.41837602      7.11407433     -5.97866825
 C     26.96516612      7.35911739     -4.56001590
 C     25.87916363      7.40265189     -3.46900568
 C     26.43490673      7.46892654     -2.03430805
 C     25.36757642      7.75532551     -0.96174959
 C     24.35534356      6.61164823     -0.76429853
 C     23.51651252      6.73262793      0.52151888
 C     22.44818228      5.63455766      0.67808253
 C     21.59804322      5.76533946      1.95548603
 C     20.90115631      4.45947255      2.38052750
 C     19.96616216      4.61482791      3.59430287
 C     19.48176163      3.27850625      4.18692464
 C     18.33824917      3.42403456      5.20810080
 C     17.73303606      2.08400567      5.66596502
 C     16.36885265      2.21997392      6.36747500
 C     15.72852281      0.87496249      6.75801561
 C     14.27532386      0.99355819      7.25374524
 C     13.57676214     -0.36080308      7.47581971
 C     12.04293900     -0.30236864      7.35103202
 C     11.48726848     -1.02763930      6.11134951
 C      9.95171729     -1.14238948      6.08865728
 C      9.38668738     -1.72911514      4.78171650
 C      7.85359602     -1.87447894      4.77170420
 C      7.27864305     -2.35387276      3.42589194
 C      5.75927591     -2.60419405      3.44740349
 C      5.13603832     -2.79476891      2.05210562
 C      3.64425213     -3.17613495      2.07919617
 C      3.02665771     -3.38873627      0.68457156
 C      1.60645222     -3.98357745      0.71250624
 C      1.08483782     -4.42465751     -0.66769911
 C     -0.45078062     -4.48468581     -0.76706015
 C     -0.96933960     -5.25580322     -1.99509701
 C     -2.38036406     -4.83676740     -2.44788719
 C     -3.11049195     -5.90109138     -3.28796322
 C     -4.46561289     -5.43360338     -3.85072624
 C     -5.23656286     -6.52557508     -4.61547061
 C     -6.60090354     -6.06397169     -5.16053648
 C     -7.26480968     -7.06926534     -6.11981398
 C     -6.47764274     -7.30598663     -7.42209322
 C     -6.53775661     -6.12877348     -8.41313082
 C     -5.34322483     -6.06483570     -9.38297915
 C     -4.07784683     -5.42967284     -8.77718493
 C     -2.86191829     -5.43201727     -9.72223111
 C     -1.55322935     -4.96214229     -9.06030153
 C     -0.31178849     -5.09731830     -9.96149631
 C      0.99735597     -4.63018462     -9.29852805
 C      2.26824505     -5.03263208    -10.06955139
 C      3.57624753     -4.77766660     -9.29772103
 C      4.79033957     -5.54637071     -9.85150302
 C      6.11479367     -5.22639819     -9.13384090
 C      6.32768720     -6.01757504     -7.82987942
 C      6.67430302     -5.13890134     -6.61357765
 C      6.73376297     -5.90887459     -5.28120920
 C      5.98877449     -5.21733100     -4.12433426
 C      4.64088170     -4.59355986     -4.53139028
 C      4.04890820     -3.63886929     -3.47795148
 C      2.52581743     -3.44370802     -3.59502651
 C      2.10038725     -1.99092675     -3.87793242
 C      0.77943199     -1.86599945     -4.65964230
 C      0.45126271     -0.43023363     -5.10962168
 C     -1.03033128     -0.20894250     -5.46670638
 C     -1.42347282     -0.73176096     -6.86087301
 C     -2.84906082     -1.30963865     -6.93405913
 C     -3.41446499     -1.40303332     -8.36346305
 C     -3.31244402     -0.09162711     -9.16434098
 C     -3.88614207     -0.18245717    -10.59060198
 C     -3.40522588     -1.41290064    -11.38201115
 C     -4.22487529     -1.69911120    -12.65396177
 C     -3.99034350     -3.10036714    -13.24816427
 C     -2.52814774     -3.37554896    -13.64547843
 C     -2.30660430     -4.74839120    -14.30716014
 C     -2.40844830     -5.93691006    -13.33317312
 C     -1.83679063     -7.25394693    -13.89014833
 C     -1.86129128     -8.42153094    -12.88628216
 C     -1.06437797     -8.15486219    -11.59577181
 C     -1.03607581     -9.34570078    -10.61970704
 C     -0.78836150     -8.94753418     -9.15283929
 C      0.69939559     -8.78092094     -8.79170375
 C      0.94531220     -8.34216518     -7.33615630
 C      0.46832579     -9.36200255     -6.28543478
 C      0.50423177     -8.83446735     -4.83905400
 C      1.88476197     -8.31572785     -4.39560647
 C      1.93393247     -7.83782376     -2.93246261
 C      3.33921838     -7.88666044     -2.30446063
 C      3.36087327     -7.58861784     -0.79373177
 C      2.71362260     -8.68656436      0.07066398
 C      3.47590025    -10.02461064      0.05782042
 C      2.76783834    -11.15627422      0.82566538
 C      1.91738617    -10.67025824      2.01399176
 H     -0.36333333      0.00000000      1.02766186
 H     -0.36333333     -0.88998127     -0.51383093
 H     -0.36333333      0.88998127     -0.51383093
 H      1.88274777      0.84958201      0.59062202
 H      1.88274777      0.99710341      0.27642135
 H      3.11524011      0.28091769      1.43355048
 H      3.22743310      0.89819562      0.98039649
 H      4.14543874      1.25102643      1.86006031
 H      3.87744652      0.69287051      2.48346924
 H      5.27691921      0.89177562      2.74963494
 H      5.40907475      1.04035437      2.47383548
 H      6.39520309      2.10779753      2.28357057
 H      6.22401331      1.28287037      3.46340278
 H      6.13177004      2.00979220      4.38602557
 H      6.21743707      1.91190128      4.41442750
 H      7.73495659      1.77865037      5.23845583
 H      6.39611621      2.24750760      5.54797529
 H      8.41563111      1.89059246      6.15239797
 H      7.97373281      3.22366992      5.25214687
 H      9.24282520      3.68893354      5.69939718
 H      9.55734232      2.84037673      6.34673115
 H     10.79355452      2.74566233      6.59540610
 H     10.64105035      3.85502892      6.11329578
 H     11.46863693      3.13087316      5.17178766
 H     11.34765744      4.38852318      5.52039977
 H     11.86624028      3.48871542      4.10295215
 H     12.09817221      3.57950761      4.18033428
 H     13.33434251      3.13330551      4.65383993
 H     13.63076336      4.37269874      4.85811810
 H     13.83100757      2.39980162      3.10478648
 H     13.51625558      2.33012830      2.98159579
 H     13.47844531      2.49277884      1.88768713
 H     11.86502180      2.01271508      2.46619385
 H     12.01083132      0.02068512      2.24770401
 H     13.98011425      0.05654953      2.88157269
 H     12.21312319      0.13613099      0.60081302
 H     10.97840880      0.06211876      1.88076193
 H     11.45315264     -1.96434237      2.76814404
 H     12.78048386     -2.23956733      1.61458011
 H     10.59079821     -2.09531723      0.01924422
 H      9.67503664     -1.83069758      1.52244875
 H     10.40413552     -4.14895071      2.20919215
 H     11.28703244     -4.29649400      0.67068941
 H      9.11982351     -4.11919863     -0.53318368
 H      8.27604553     -3.97377058      1.02731498
 H      9.37423049     -6.45944884      1.12420479
 H     10.02233921     -6.08881378     -0.49160813
 H      7.82711731     -5.91015563     -1.46213386
 H      7.07698261     -6.27562960      0.11012355
 H      7.94262257     -8.42314657      0.33725375
 H      8.79115698     -8.30277136     -1.22279939
 H      6.60909746     -8.09414588     -2.36829152
 H      5.77847333     -8.21575614     -0.79872433
 H      6.92555656    -10.60444227     -0.88970444
 H      7.60091809    -10.11620253     -2.46252846
 H      5.62938654     -9.67997864     -3.58646624
 H      4.70565954    -10.27611756     -2.37579798
 H      6.94290306    -10.39230022     -4.55604442
 H      6.03612295     -8.89054772     -4.25478713
 H      4.08025745    -10.49776361     -5.10519840
 H      5.32693957    -11.75873736     -5.26010334
 H      6.31834990    -10.14840530     -7.02846961
 H      4.96728148     -9.04026608     -6.68948843
 H      3.27193585    -10.48384370     -7.40908784
 H      4.45715436    -11.74361036     -7.82922083
 H      5.28896768     -9.98155894     -9.53313429
 H      4.01685593     -8.88971174     -8.93491356
 H      2.57935220    -10.91694713     -9.97194902
 H      4.14412622    -11.66048037    -10.38049187
 H      4.39694874     -9.56637515    -11.89101005
 H      2.79819941     -9.03584493    -11.31585361
 H      2.11636089    -11.27901288    -12.55839075
 H      3.84269083    -11.47815460    -12.94361043
 H      3.41886012     -9.26308480    -14.27695581
 H      1.73182587     -9.33715479    -13.71419855
 H      1.27378740    -10.83538168    -15.42192259
 H      3.27305291    -11.29128430    -15.51720412
 H      1.49915777     -9.21353863    -16.47388755
 H      0.30655196    -10.19158880    -15.58541926
 H      1.15832896    -12.20620815    -16.98943871
 H      1.54765828    -11.53313946    -17.83826852
 H     -0.43526005    -12.45943860    -15.86296598
 H      1.22922086    -13.02696858    -16.13806542
 H      0.16017330    -13.67727954    -18.46704402
 H     -1.36744283    -13.00053781    -17.85330444
 H     -0.83235705    -15.12073097    -16.20355911
 H      0.62856230    -15.33486000    -17.19760642
 H     -1.65839229    -15.72861766    -18.79600596
 H     -2.52690158    -15.37070325    -17.28410135
 H     -1.61961823    -17.32420524    -16.18637476
 H     -0.59711031    -17.65118735    -17.30039169
 H      0.49727770    -17.61131629    -17.37470611
 H     -0.38528759    -18.04678972    -18.85784740
 H     -1.36550347    -19.99604050    -17.94927802
 H     -0.55682656    -19.72244015    -16.38740377
 H      1.40601974    -20.14860708    -18.34203121
 H      0.01017869    -20.30007448    -19.43608426
 H     -1.01851386    -22.09605514    -18.60587829
 H      0.20491846    -22.30902635    -17.33068290
 H      2.03591877    -22.70943201    -18.57728394
 H      1.12238625    -22.57609514    -20.09910728
 H     -0.18708609    -24.59423351    -19.30101640
 H      0.80136565    -24.60946463    -17.82081445
 H      2.41064325    -25.08860684    -20.11006047
 H      0.86110124    -24.90434294    -20.96635074
 H     -0.31117519    -26.61617797    -20.15440782
 H      1.03617932    -27.15799723    -19.12516811
 H      2.47432492    -27.62576756    -20.96790371
 H      1.21650685    -27.11689260    -22.11994826
 H     -0.27169376    -28.89268156    -21.42141251
 H      0.93521633    -29.46588603    -20.24537197
 H      2.46169980    -29.96536765    -22.15008147
 H      1.21993665    -29.37928619    -23.28268885
 H     -0.11741705    -31.40157419    -22.30726402
 H      1.29355058    -31.74432259    -21.27772015
 H      2.65412138    -32.18354232    -23.28097398
 H      1.24536309    -31.84160927    -24.31380917
 H      0.08645808    -33.79075218    -23.30082560
 H      1.51427592    -34.09983599    -22.28393325
 H      2.80920763    -34.52785227    -24.38083719
 H      1.34103206    -34.20359654    -25.33350995
 H      0.21241115    -36.12273803    -24.32704610
 H      1.66291353    -36.47856446    -23.35869851
 H      2.90169976    -36.89230210    -25.48007546
 H      1.42302708    -36.52569244    -26.40061396
 H      0.48026186    -38.60188713    -25.19592671
 H      2.05218450    -38.77397083    -24.37878958
 H      3.26299846    -39.15800909    -26.38383757
 H      1.77541552    -39.01813291    -27.35120427
 H      0.71280941    -40.88834066    -26.38329389
 H      2.11635569    -41.19353225    -25.33201724
 H      3.10777069    -41.53833291    -27.84138044
 H      1.46449631    -41.14156825    -28.39860015
 H      0.77371649    -43.27619255    -27.16292513
 H      2.47668083    -43.50320950    -26.69747651
 H      3.50242597    -43.77274747    -28.61422026
 H      1.99508924    -43.61762424    -29.54810432
 H      1.02374121    -45.57702012    -28.56043370
 H      2.48382802    -45.83625615    -27.57594914
 H      3.91231913    -46.17904568    -29.43565236
 H      2.55680557    -45.94986558    -30.56628321
 H      1.25089811    -47.70087104    -29.96888908
 H      2.40979091    -48.23490087    -28.72790308
 H      3.72664045    -48.45670947    -31.14445448
 H      2.21117463    -47.83616764    -31.84199147
 H      1.09278558    -49.91789711    -30.99425028
 H      2.65186032    -50.45815689    -30.32666360
 H      3.65228338    -50.57751351    -32.52990103
 H      2.12480453    -50.04274603    -33.27091302
 H      0.77016840    -51.74795988    -32.69494181
 H      2.08126022    -52.60297188    -31.84743997
 H      2.48776112    -52.25545833    -34.70066401
 H      0.91577026    -51.43463450    -34.54782534
 H     -0.16313767    -53.50363254    -33.84920794
 H      1.38490466    -54.37118062    -33.98774298
 H      1.14162407    -53.72300856    -36.49891613
 H     -0.38698091    -52.91702719    -36.07226929
 H     -1.34880002    -55.07329543    -35.39151134
 H      0.17511570    -55.88966992    -35.81516243
 H      0.06495951    -55.35683962    -38.11379109
 H     -1.47622344    -54.49712415    -37.88160345
 H     -2.18760149    -56.97444358    -37.19967756
 H     -0.50349721    -57.44108339    -37.53777034
 H     -0.84686227    -56.80302955    -39.91157761
 H     -2.52568649    -56.34520171    -39.53713191
 H     -2.83529538    -58.82102837    -38.96076483
 H     -1.12504665    -59.08508770    -39.37740454
 H     -1.27760188    -58.50775260    -41.61751671
 H     -3.02070202    -58.17853856    -41.47093336
 H     -3.94467374    -60.02428187    -40.93974543
 H     -2.40648216    -60.91988033    -40.95143867
 H     -2.74269842    -60.06625314    -43.53481802
 H     -4.24589933    -59.32462354    -42.93595308
 H     -5.06901070    -61.63109591    -42.41447174
 H     -3.53706368    -62.29718758    -43.02906661
 H     -4.55431689    -61.15953881    -45.23644386
 H     -5.92935057    -60.67411461    -44.21570277
 H     -6.00816169    -63.40550690    -44.20376545
 H     -4.56861589    -63.30831101    -45.24613176
 H     -5.98328396    -62.16625944    -46.95980651
 H     -7.38271446    -62.29459817    -45.86738255
 H     -7.63384589    -64.49253611    -45.68674001
 H     -6.26458266    -64.82396203    -46.77464706
 H     -7.41915331    -63.73106011    -48.63015365
 H     -8.80753086    -63.38287686    -47.57211637
 H     -8.73368325    -66.09907775    -47.65201201
 H     -7.31757510    -65.89520421    -48.71094542
 H     -9.22287176    -64.77155647    -50.20413707
 H    -10.34459849    -65.15609754    -48.87668688
 H     -9.80436966    -67.59429564    -49.39015978
 H     -8.71403018    -67.03897551    -50.68284923
 H    -11.04556657    -66.14598856    -51.60532759
 H    -11.77850807    -66.84417500    -50.14122407
 H    -10.91614035    -69.07200396    -51.19711522
 H    -10.27404695    -68.10111930    -52.54372790
 H    -12.52698078    -67.39174988    -53.16543523
 H    -13.20727104    -68.35160228    -51.82971250
 H    -12.35307029    -70.40981323    -52.90053789
 H    -11.67876542    -69.43450350    -54.22807341
 H    -14.13022753    -68.82697735    -54.69973947
 H    -14.59773776    -69.85421916    -53.32334013
 H    -13.81611201    -71.86361985    -54.23090109
 H    -13.27089092    -71.03883881    -55.71101489
 H    -15.75678277    -70.50644959    -56.04983725
 H    -16.10042850    -71.37375240    -54.53393484
 H    -15.24988745    -73.45608094    -55.60091697
 H    -14.92317959    -72.54376201    -57.09396848
 H    -17.34885153    -72.09129416    -57.31180179
 H    -17.64805257    -73.00823834    -55.81582092
 H    -16.73083325    -75.00684094    -57.13802243
 H    -16.50175530    -73.92011485    -58.52899920
 H    -19.09960106    -73.73723474    -58.37652275
 H    -19.02599227    -74.84856888    -56.98807582
 H    -18.21943826    -76.69462962    -57.85051503
 H    -18.11661425    -75.99570068    -59.48428130
 H    -20.28649050    -75.58301507    -59.90079815
 H    -20.79210375    -76.22761357    -58.32057200
 H    -19.93455818    -78.45083841    -58.96836633
 H    -19.43299963    -77.79493870    -60.54523070
 H    -20.75338820    -77.11452195    -61.71766550
 H    -22.10911829    -77.49162875    -60.62768704
 H    -21.65247122    -79.87009203    -60.74973837
 H    -20.28292172    -79.56709007    -61.84554431
 H    -21.71963091    -78.64723941    -63.55424688
 H    -23.14778691    -78.91603711    -62.52644100
 H    -22.71463167    -81.35559395    -62.62542929
 H    -21.33804535    -81.21853709    -63.25178638
 H    -20.30544700    -81.38828925    -62.92407650
 H    -20.48258910    -80.68506115    -64.54960951
 H    -21.74521664    -83.00050022    -64.89412501
 H    -21.37377586    -83.34381180    -63.18753908
 H    -18.91809239    -83.25182801    -64.03917545
 H    -19.56353531    -82.90985236    -65.66235837
 H    -20.67035122    -85.07856019    -65.74263514
 H    -20.04804142    -85.46889585    -64.12132848
 H    -17.81821366    -85.45376797    -64.56236063
 H    -18.08941174    -85.06518634    -66.27808863
 H    -19.21429312    -86.88813935    -66.95175299
 H    -19.13852780    -87.62802353    -65.33462662
 H    -16.55946965    -87.55269794    -65.87433829
 H    -16.99393077    -86.80747491    -67.43130741
 H    -18.07616980    -89.38575480    -67.36777833
 H    -17.33824341    -89.45237522    -65.74935532
 H    -15.18437138    -89.19301278    -67.34826231
 H    -16.34142189    -89.16251761    -68.70050889
 H    -17.27771627    -91.15117285    -68.60067974
 H    -16.29600669    -91.64238536    -67.19952906
 H    -14.29754296    -91.37992534    -68.76462507
 H    -15.42447433    -90.90199738    -70.05686236
 H    -16.63505730    -92.78118163    -70.27693680
 H    -15.70661002    -93.62002461    -69.01100047
 H    -13.65549415    -93.51094634    -70.24430886
 H    -14.47271516    -92.66758288    -71.58190168
 H    -15.93486014    -94.37380612    -72.15288744
 H    -15.66424542    -95.25734204    -70.93777957
 H    -15.69369399    -95.83089268    -69.92060877
 H    -14.00915918    -96.11698570    -70.41936716
 H    -16.05519847    -97.17766401    -72.20258968
 H    -17.10852483    -96.43304081    -70.97608793
 H    -16.31183724    -97.91169974    -69.24248049
 H    -15.22715152    -98.71823421    -70.40059348
 H    -17.33986402    -99.42340422    -71.62130796
 H    -18.29619268    -98.56850403    -70.38727075
 H    -17.30719170   -100.26387649    -68.75064015
 H    -16.41802773   -100.99267426    -70.10950288
 H    -19.16543006   -101.28931840    -70.58110861
 H    -19.32843031   -100.42756608    -69.03221206
 H    -18.51789805   -101.50452582    -67.50054938
 H    -18.04241720   -102.86450348    -68.54584618
 H    -20.64287256   -103.01544195    -68.87638383
 H    -20.78286201   -101.61744151    -67.78355978
 H    -19.79265153   -103.08711447    -65.98979120
 H    -19.69655374   -104.41682542    -67.16915572
 H    -22.28821099   -104.17325698    -67.16052187
 H    -22.09321447   -102.85681547    -65.97847924
 H    -21.12579369   -104.47769757    -64.37588424
 H    -21.33045663   -105.77696967    -65.57516393
 H    -23.86973194   -105.10917059    -65.17764153
 H    -23.26860174   -103.88881337    -64.02975765
 H    -22.52669700   -106.27734523    -62.92909035
 H    -23.29606798   -107.01044307    -64.35699180
 H    -25.47254313   -106.08151183    -63.61522175
 H    -24.67330177   -105.36032209    -62.19770093
 H    -24.08506046   -107.59305654    -61.36756346
 H    -24.88016952   -108.33156839    -62.77847399
 H    -26.80543023   -108.00469846    -62.92634081
 H    -26.89232430   -107.05058153    -61.42621516
 H    -26.16137250   -109.17191360    -60.23805347
 H    -26.11544657   -109.99762151    -61.81423999
 H    -28.70819088   -109.40495872    -61.64928858
 H    -28.33248549   -108.65420170    -60.07974214
 H    -27.62877049   -110.66830323    -59.05697220
 H    -27.95365428   -111.58425050    -60.54819915
 H    -30.34362152   -111.03037375    -60.37788923
 H    -30.02639032   -110.11281019    -58.88600849
 H    -29.29069617   -112.26190024    -57.83076950
 H    -29.63094643   -113.10760474    -59.35958614
 H    -31.98822003   -112.58569031    -59.23651967
 H    -31.73610112   -111.72173572    -57.70084875
 H    -31.00857534   -113.60973484    -56.49793747
 H    -31.20091555   -114.64950108    -57.92977478
 H    -33.52327074   -114.35667971    -58.12214661
 H    -33.55170590   -113.28861958    -56.69852249
 H    -32.70954123   -115.96630962    -56.07980815
 H    -32.95168557   -116.18117756    -57.83008371
 H    -35.44009054   -115.61325244    -57.03868008
 H    -34.77302833   -115.48073269    -55.39376877
 H    -34.15022765   -117.86048733    -55.44842779
 H    -34.81607280   -117.99812582    -57.09341185
 H    -37.05232218   -117.47470135    -56.33253556
 H    -36.46630318   -117.32031954    -54.65891235
 H    -35.99258749   -119.92918628    -55.26700455
 H    -36.68134274   -119.54135258    -56.86182989
 H    -38.84499429   -119.02721858    -55.85692924
 H    -38.19650930   -119.40664269    -54.24330871
 H    -37.80673879   -121.72537502    -54.88219022
 H    -38.44810737   -121.39649892    -56.50968938
 H    -40.63738646   -120.85808054    -55.67218236
 H    -40.10029792   -121.16440646    -54.00306073
 H    -39.54726655   -123.16306974    -53.82259292
 H    -39.93994550   -123.54485294    -55.51620193
 H    -42.34731740   -122.89782810    -54.73494858
 H    -41.66153690   -122.58369244    -53.12271703
 H    -41.07799830   -125.04077606    -53.04938237
 H    -41.79190166   -125.22929137    -54.66897202
 H    -43.99408529   -124.57274962    -53.69936832
 H    -43.22440984   -124.39921102    -52.10382743
 H    -42.81001557   -126.95773235    -52.41007349
 H    -43.62863411   -126.82965903    -53.98542348
 H    -45.66555921   -126.17107211    -52.50637466
 H    -44.61207234   -126.36718926    -51.08511812
 H    -44.25763557   -128.69145032    -51.44982912
 H    -45.29253400   -128.65646613    -52.89759568
 H    -47.12067159   -128.01163728    -51.14901413
 H    -45.85922297   -128.11653644    -49.89761084
 H    -45.71391501   -130.58172177    -50.52397363
 H    -46.98574433   -130.30797436    -51.73879016
 H    -48.43102699   -129.73359324    -49.66957075
 H    -47.00454121   -130.06109139    -48.65658016
 H    -46.58951309   -132.17685573    -49.00030314
 H    -47.96412020   -132.36231915    -50.11579644
 H    -49.71059305   -131.93965841    -48.87991314
 H    -48.72897720   -131.65825122    -47.42200128
 H    -47.92776087   -133.95612312    -47.44075326
 H    -48.89149065   -134.29334154    -48.89875713
 H    -50.91795073   -133.79949888    -47.43111707
 H    -49.80907299   -133.49200036    -46.07314009
 H    -48.86924458   -135.52927464    -45.84665545
 H    -49.83615016   -136.20624899    -47.17897148
 H    -51.89130479   -136.04540258    -46.49954059
 H    -51.42260420   -135.31932175    -44.94345799
 H    -50.21765242   -137.47068100    -44.43968733
 H    -50.73684020   -138.10352577    -46.02026260
 H    -53.10210578   -137.80048901    -44.88139161
 H    -52.23577998   -137.19569824    -43.44892017
 H    -51.13140769   -139.33238165    -43.12032493
 H    -51.96733269   -140.00005310    -44.54289686
 H    -54.10107553   -139.58006613    -43.16485144
 H    -53.07062739   -138.94208482    -41.86123219
 H    -51.87468589   -140.76965182    -41.33658430
 H    -52.70828240   -141.76076442    -42.55768190
 H    -54.84187187   -141.55406667    -41.53210291
 H    -54.15814412   -140.54893770    -40.23191108
 H    -52.78621871   -142.60326549    -39.61971518
 H    -53.55924011   -143.47423859    -40.96586170
 H    -55.74300006   -143.33817897    -40.05428559
 H    -55.13444302   -142.45800724    -38.63188525
 H    -53.77424915   -144.27115297    -37.88863875
 H    -54.29992467   -145.27065189    -39.26447808
 H    -56.51156397   -144.66061020    -37.61311733
 H    -55.29252635   -143.77370151    -36.66675221
 H    -54.28738614   -146.14879041    -36.33716227
 H    -55.62183570   -146.77995387    -37.33171933
 H    -57.15002751   -145.93161348    -35.47933677
 H    -55.70949087   -145.35246626    -34.60887176
 H    -55.75421430   -148.20770554    -34.93348794
 H    -57.27863210   -147.83929996    -35.77532782
 H    -58.56379493   -146.97507869    -34.27653117
 H    -57.34212019   -147.13517052    -32.99195027
 H    -57.20435732   -149.45372536    -33.01870868
 H    -58.42356464   -149.56491321    -34.31077581
 H    -60.07146335   -148.54932666    -32.72667090
 H    -58.80036735   -148.46771311    -31.48332024
 H    -58.73060144   -150.98753945    -31.58036985
 H    -60.00470616   -150.94818349    -32.82269627
 H    -61.55163133   -149.94252891    -31.17843217
 H    -60.26698699   -149.98827734    -29.94722842
 H    -59.95498925   -152.23075516    -29.80326263
 H    -61.21243413   -152.55545312    -31.02050143
 H    -62.26256540   -151.30061338    -28.66768800
 H    -60.55539522   -151.35934758    -28.16730122
 H    -60.13007817   -153.51224531    -28.07466687
 H    -61.78688775   -153.95275954    -28.55341096
 H    -62.92871751   -153.08236913    -26.79016040
 H    -61.43291406   -152.50463597    -26.01746181
 H    -60.31173752   -154.33102414    -25.60594241
 H    -61.58132508   -155.37646656    -26.28672448
 H    -62.48978304   -153.92245930    -23.99524987
 H    -60.83244879   -153.27514446    -24.04518336
 H    -59.87425912   -155.46236338    -23.63345810
 H    -61.50128638   -156.18123827    -23.56812930
 H    -61.98629917   -154.77807648    -21.57418668
 H    -60.35039000   -154.08417373    -21.67698174
 H    -59.29422984   -156.20920356    -21.27542759
 H    -60.88322322   -157.00163668    -21.15126447
 H    -61.77919230   -156.01305269    -19.38933467
 H    -60.34441757   -154.99412751    -19.12197798
 H    -58.96618351   -156.96388536    -18.69761469
 H    -60.37682648   -158.01810432    -18.95641083
 H    -61.32604632   -156.80639761    -16.88792884
 H    -59.82283635   -155.85541661    -16.82264811
 H    -58.24245257   -157.23764973    -16.46421001
 H    -59.33812553   -158.63928089    -16.40766356
 H    -60.46029726   -157.69692555    -14.43436706
 H    -59.36924213   -156.29137792    -14.48233814
 H    -57.38659601   -157.26134136    -14.12718953
 H    -58.11191633   -158.88163494    -13.99747514
 H    -59.37743138   -158.20386015    -12.02045534
 H    -58.67177474   -156.57264121    -12.11761588
 H    -56.43064081   -157.54932897    -11.72571645
 H    -57.15948032   -159.17059482    -11.63321411
 H    -58.30015851   -157.96221908     -9.53284980
 H    -57.77454051   -156.59488855     -9.98535637
 H    -57.31652981   -155.50295927    -10.40790510
 H    -55.72439611   -156.23566374    -10.09722665
 H    -56.78584785   -156.19625848     -7.63413021
 H    -58.22398229   -155.46643679     -8.38738734
 H    -57.45322442   -153.55729491     -9.17372253
 H    -55.80891582   -153.86888968     -8.56756694
 H    -56.88084134   -153.82005170     -6.24899225
 H    -58.45186189   -153.51539466     -7.02831578
 H    -57.26418793   -151.32400097     -7.79334659
 H    -55.81635540   -151.88799585     -6.92503939
 H    -56.63137964   -151.92440549     -4.80762546
 H    -58.23041755   -151.34948828     -5.33754491
 H    -57.57228504   -149.29172976     -6.14548186
 H    -56.57998131   -149.43682344     -6.41419086
 H    -55.56324994   -149.61880283     -7.10263689
 H    -54.76551889   -149.85121359     -5.52850949
 H    -55.28268067   -147.59522272     -4.82643947
 H    -56.09794127   -147.27985723     -6.37697532
 H    -53.81775561   -147.65153196     -7.44155704
 H    -53.14933402   -147.94726514     -5.81859027
 H    -53.85082556   -145.47056731     -5.43583371
 H    -54.45152639   -145.45185427     -7.11126649
 H    -51.91982498   -145.85829350     -7.63684966
 H    -51.62870486   -145.83403145     -5.88102305
 H    -52.51033302   -143.33653655     -6.31795370
 H    -52.65964378   -143.80980968     -8.02733531
 H    -50.75112650   -144.27514305     -8.75406180
 H    -49.94973514   -143.91490834     -7.20607294
 H    -50.92645213   -141.51380245     -7.81162890
 H    -51.59164824   -142.26572301     -9.28145755
 H    -49.16889464   -142.69178994     -9.93453487
 H    -48.66212380   -141.91334415     -8.41615674
 H    -49.76310989   -139.81575010     -9.41602342
 H    -50.18076976   -140.78133474    -10.85180656
 H    -47.74794543   -141.07925275    -11.28738073
 H    -47.38187834   -140.10813937     -9.84128242
 H    -48.34800988   -138.12551914    -10.60413858
 H    -48.81495922   -138.88680268    -12.14383737
 H    -46.35686107   -139.19981407    -12.59216371
 H    -46.60420979   -137.37274463    -11.77196665
 H    -46.94769758   -136.33177478    -11.66358709
 H    -47.36429826   -136.97151010    -13.27152031
 H    -45.39174875   -137.44154514    -14.13850488
 H    -44.52244220   -136.87926489    -12.69060512
 H    -44.72970812   -134.99721361    -12.24351438
 H    -45.77780378   -134.64444099    -13.63825939
 H    -44.00729728   -135.21490707    -15.20241323
 H    -42.91094855   -135.58157108    -13.84895705
 H    -43.23229061   -133.05319417    -13.32858710
 H    -44.30591963   -132.96599638    -14.74562060
 H    -42.93731416   -133.47238967    -16.41108723
 H    -41.54162990   -133.65832714    -15.32216144
 H    -42.33537911   -131.01145661    -15.13822170
 H    -43.59503207   -131.48392117    -16.30369084
 H    -41.73748232   -131.97356897    -17.92969536
 H    -40.55677703   -131.48183253    -16.69179514
 H    -41.11410780   -129.31813296    -16.42379608
 H    -42.40866547   -129.42160031    -17.64103953
 H    -41.38663631   -129.89780409    -19.49274789
 H    -39.78256430   -129.89995106    -18.72124608
 H    -40.23805261   -127.43147507    -18.24771653
 H    -41.81539922   -127.61167841    -19.05255881
 H    -40.11077631   -128.11629120    -21.06738827
 H    -38.81067106   -127.85188711    -19.88076133
 H    -39.69424150   -125.46828927    -19.72838320
 H    -40.94071900   -125.89470173    -20.92535142
 H    -39.19650891   -126.32131310    -22.60464653
 H    -37.94347801   -125.89628811    -21.41404417
 H    -38.46527031   -123.73332916    -21.03494268
 H    -39.82297115   -123.78185563    -22.18496888
 H    -37.89242753   -124.25200710    -23.88658253
 H    -36.76069228   -124.15244605    -22.51635278
 H    -37.09318584   -121.98484729    -21.91475212
 H    -38.28600849   -121.73518608    -23.21209944
 H    -37.10145302   -122.04902057    -25.04177070
 H    -35.60675905   -122.36311456    -24.12771295
 H    -36.14509211   -119.81649125    -23.45204215
 H    -37.57704211   -119.96389030    -24.49897070
 H    -35.84438282   -120.28979979    -26.37789604
 H    -34.56367562   -120.11731106    -25.15384401
 H    -34.90636510   -118.01870711    -24.45681206
 H    -36.26992441   -117.78437758    -25.57666131
 H    -35.53089491   -117.95627616    -27.54005843
 H    -33.85713870   -118.23900223    -27.00445336
 H    -33.25784692   -116.46638506    -25.96640170
 H    -34.81828171   -115.65423411    -26.23791740
 H    -33.60458667   -116.11928443    -28.72388665
 H    -32.31709201   -116.85509499    -27.73940355
 H    -31.71770826   -114.89148146    -26.61094390
 H    -32.94793997   -113.95398597    -27.49179507
 H    -31.85487155   -114.36944356    -29.61807138
 H    -30.59047629   -115.31832019    -28.80002220
 H    -29.85533987   -113.35473371    -27.55156296
 H    -31.10554345   -112.36878097    -28.34727323
 H    -29.91097722   -112.84539698    -30.51719502
 H    -28.71788836   -113.81212953    -29.61706513
 H    -28.30535031   -111.39264920    -28.56347654
 H    -29.59401303   -110.81672498    -29.64787793
 H    -27.69433215   -111.64698331    -31.37993686
 H    -26.74743808   -112.08624172    -29.93816353
 H    -26.69875071   -109.67647690    -29.31071321
 H    -27.64809523   -109.29076807    -30.76613079
 H    -25.70487953   -110.14494553    -32.11634511
 H    -24.83799616   -110.49711498    -30.60216000
 H    -24.53860506   -108.64585722    -29.61110522
 H    -25.33556432   -107.70575656    -30.89536896
 H    -23.74909036   -108.28683946    -32.56263504
 H    -22.83027008   -109.26906590    -31.39675890
 H    -22.43600753   -107.08569990    -30.15058624
 H    -23.38618840   -106.24502347    -31.39905976
 H    -21.77102780   -106.82990624    -33.11951171
 H    -20.77763649   -107.68483043    -31.91512598
 H    -20.59975435   -105.25949593    -30.91862910
 H    -21.63327972   -104.71863760    -32.26308596
 H    -19.33335846   -105.64941100    -33.44621434
 H    -18.80572000   -106.00433945    -31.78371919
 H    -19.03663044   -103.32606299    -31.73098638
 H    -19.54291702   -103.45236992    -33.43274639
 H    -16.85238890   -104.34341782    -33.03374913
 H    -17.21830918   -103.92804299    -31.34205390
 H    -17.55775669   -101.68671048    -31.58433336
 H    -17.23116350   -101.75769040    -33.33263694
 H    -14.96946876   -102.47490096    -33.03402892
 H    -15.16219622   -102.44277223    -31.26482273
 H    -15.55807807   -100.06006848    -31.24936974
 H    -15.37838911    -99.99878338    -33.01917840
 H    -13.20816403   -100.78288721    -33.16829611
 H    -13.02687171   -100.82333663    -31.48025069
 H    -13.57722592    -99.52936908    -34.28193214
 H    -13.29273181   -101.28113472    -34.14537852
 H    -11.01389408    -99.73414172    -33.35219324
 H    -11.98523107    -98.45470981    -33.48827004
 H    -12.72408445    -97.53549918    -33.43482497
 H    -12.83192149    -97.91278853    -35.17099621
 H    -11.14682206    -97.76717241    -36.16554381
 H    -10.20208172    -97.25130185    -34.74793670
 H    -11.59947014    -95.21304051    -34.59393705
 H    -12.53001880    -95.75060102    -36.01287135
 H    -10.68048246    -95.66631430    -37.49531857
 H     -9.60863037    -95.11654537    -36.18491640
 H    -11.05330988    -93.05287640    -36.05043934
 H    -12.05884777    -93.70372588    -37.36708477
 H    -11.08016715    -93.93888375    -39.08363423
 H     -9.54282850    -93.31198692    -38.44187345
 H    -10.44510302    -91.13705030    -38.00624329
 H    -12.03495642    -91.64155993    -38.62761504
 H    -10.52443236    -91.88282848    -40.82173466
 H     -9.16260624    -91.33808062    -39.81329724
 H    -10.17829203    -89.18236612    -39.42431525
 H    -11.58059964    -89.64097361    -40.42004575
 H    -10.35349358    -89.88734871    -42.41929411
 H     -8.84035176    -89.44333607    -41.59375109
 H     -8.73344585    -87.67530207    -40.84069712
 H    -10.36026668    -87.19978477    -41.38439182
 H     -9.49637708    -87.50937955    -43.74271751
 H     -7.91473368    -87.97193701    -43.06987917
 H     -8.31492557    -85.35758657    -42.29819893
 H     -9.86210581    -85.50497282    -43.16582631
 H     -9.16743306    -85.85750559    -45.25793594
 H     -7.45237003    -85.76564777    -44.79061633
 H     -7.86522903    -83.38620519    -44.11681054
 H     -9.56729644    -83.56349085    -44.60650737
 H     -9.26796214    -83.95650040    -46.83082400
 H     -7.49857477    -83.82940395    -46.68459996
 H     -8.07358607    -81.38303952    -45.98769496
 H     -9.79033780    -81.79755593    -46.20951992
 H     -9.42583414    -82.20403002    -48.59231254
 H     -7.70353349    -81.79475908    -48.40672045
 H     -8.53415512    -79.47148255    -47.75593490
 H    -10.20237663    -80.04864234    -47.98438675
 H     -9.62130840    -80.39819481    -50.40818880
 H     -7.97577099    -79.80766843    -50.07389566
 H     -8.75449375    -77.61909731    -49.45182443
 H    -10.43903393    -78.10484193    -49.75946577
 H     -9.47503519    -78.36016591    -52.20304273
 H     -7.90522473    -77.84055597    -51.54428078
 H     -9.18819267    -75.63953311    -51.05197890
 H    -10.63403767    -76.39748109    -51.76142499
 H     -9.27022399    -76.45594998    -53.92634721
 H     -7.92339869    -75.69503286    -53.04581702
 H     -9.61058591    -73.73251533    -52.80416879
 H    -10.78427959    -74.71594857    -53.71167574
 H     -9.28544578    -74.65351155    -55.67722590
 H     -8.12301569    -73.67090416    -54.75445526
 H    -10.14148193    -71.98461788    -54.77293717
 H    -11.04778701    -73.20713638    -55.69615237
 H     -9.39776523    -72.98353332    -57.53564887
 H     -8.51499989    -71.76476532    -56.58507190
 H    -10.72074628    -70.41999199    -56.84101849
 H    -11.37602669    -71.79287694    -57.76517279
 H     -9.60808099    -71.37686442    -59.48217731
 H     -9.00317824    -70.01658005    -58.50647973
 H    -10.77416348    -68.64218775    -58.54240555
 H    -11.72158618    -69.76124251    -59.55155039
 H     -9.64428415    -69.10869612    -61.15987727
 H     -9.07806691    -68.10119845    -59.80613684
 H    -10.92690479    -66.64862321    -59.81191776
 H    -11.66481007    -67.52242071    -61.17582405
 H     -9.47910029    -66.65792683    -62.37127547
 H     -9.03426560    -65.90186355    -60.82248334
 H    -11.03416997    -64.45221424    -60.98684189
 H    -11.45930687    -65.22325291    -62.53378231
 H     -9.39786145    -64.37830793    -63.55360111
 H     -8.95130936    -63.59781645    -62.01747255
 H    -11.08429647    -62.20639665    -62.40700588
 H    -11.34179548    -63.12081651    -63.91226242
 H     -9.20986717    -62.16277915    -64.78026537
 H     -9.00350616    -61.27251850    -63.25281069
 H    -10.77664960    -59.92327760    -63.27254981
 H    -11.33966060    -60.55003921    -64.84049598
 H     -9.04184564    -59.51162077    -65.61109900
 H     -8.78920439    -59.02977194    -63.91632445
 H    -10.95565034    -57.59645056    -64.51839463
 H    -10.86321702    -58.32790831    -66.13848484
 H     -8.64622551    -57.16800663    -66.40520887
 H     -8.83259958    -56.48753364    -64.77104613
 H    -10.76043666    -55.22605024    -65.28636502
 H    -10.73381417    -55.79831139    -66.97161725
 H     -8.57771786    -54.71819762    -67.35337610
 H     -8.56689868    -54.12596933    -65.67486030
 H    -10.48247840    -52.77416501    -65.90542779
 H    -10.66070758    -53.24454475    -67.61283633
 H     -8.69224766    -52.36930061    -68.40695558
 H     -8.23883626    -51.76369752    -66.79576668
 H    -10.20234677    -50.27472810    -66.80552419
 H    -10.65402783    -50.88170397    -68.41668253
 H     -8.54153878    -49.94836250    -69.32000354
 H     -8.11806025    -49.35466248    -67.69628777
 H     -9.81560646    -47.88636428    -67.37004794
 H    -10.52099477    -48.23765664    -68.96607040
 H     -8.39148663    -47.31891523    -69.95952597
 H     -7.78691655    -47.01416904    -68.31335118
 H     -9.64930685    -45.40227924    -67.98076288
 H    -10.22101254    -45.73693828    -69.63285931
 H     -8.21893762    -44.88112550    -70.64231515
 H     -7.54380428    -44.49879255    -69.04035287
 H     -9.38127629    -42.88773140    -68.67079626
 H     -9.18111846    -42.88485546    -70.73050918
 H     -8.15972288    -42.49047710    -71.46891898
 H     -7.34642787    -42.02829385    -69.95458595
 H     -8.25350095    -40.65033023    -68.89896569
 H     -9.58853396    -40.45324454    -70.05961670
 H     -7.03722444    -39.74493568    -71.16834124
 H     -6.47599137    -40.21893745    -69.54704348
 H     -7.83141166    -38.32837067    -68.62268843
 H     -8.35064456    -37.91639612    -70.27463904
 H     -5.92340186    -37.43176886    -70.76927410
 H     -5.52236524    -37.87088106    -69.09159213
 H     -6.81206827    -36.07969087    -68.16235564
 H     -7.28351889    -35.53730441    -69.79079597
 H     -5.37339025    -34.97009364    -70.71034126
 H     -4.44323950    -35.38100227    -69.24943731
 H     -5.19918100    -34.00527700    -67.73534882
 H     -6.33361579    -33.23191037    -68.86814554
 H     -3.96005180    -32.63446264    -69.97633765
 H     -3.23214595    -33.53950924    -68.62751951
 H     -4.06146565    -32.02592670    -66.97002784
 H     -4.83570176    -31.03001259    -68.22580657
 H     -2.61688195    -30.52659798    -69.18091779
 H     -1.85060366    -31.52449238    -67.92183438
 H     -2.60218681    -30.11254233    -66.14051827
 H     -3.40963727    -29.03096007    -67.30089331
 H     -0.67009196    -28.95387520    -67.82825465
 H     -0.56516866    -30.11648114    -66.48452656
 H     -1.47741785    -28.18750157    -65.05849751
 H     -1.51155466    -27.18207339    -66.52690328
 H      1.02147542    -27.47842193    -66.54796688
 H      0.87742505    -28.46925815    -65.07631483
 H     -0.00725026    -26.38685620    -63.94361102
 H      0.18189052    -25.50779392    -65.47975617
 H      2.69120999    -26.01995662    -65.14135338
 H      2.25810976    -26.85914708    -63.63256240
 H      1.40480313    -25.21815440    -62.40962825
 H      1.67746787    -24.00903356    -63.68710522
 H      4.16777264    -24.57766253    -63.31032589
 H      3.65539248    -25.74282857    -62.06609065
 H      2.89384067    -23.21665215    -61.18810766
 H      3.61190459    -22.66152264    -62.71927783
 H      5.59933261    -23.82584299    -61.07572028
 H      4.23216749    -24.07495522    -59.96348411
 H      3.39120164    -22.38854206    -59.33063723
 H      4.51243691    -21.33979916    -60.23132390
 H      6.28451232    -22.44210293    -58.68259426
 H      4.96331476    -23.38253936    -57.94891653
 H      3.99227615    -21.20167830    -57.16694977
 H      5.35176011    -20.34640671    -57.93413979
 H      6.83360472    -21.58641362    -56.28487561
 H      5.37935663    -22.36917292    -55.62101040
 H      4.38564097    -20.37026677    -54.86101787
 H      5.76153592    -19.41100699    -55.45683700
 H      7.19719999    -20.65972134    -53.81404434
 H      5.76177640    -21.57050769    -53.28650855
 H      4.76247097    -19.43317090    -52.49797100
 H      6.21757425    -18.56449576    -53.04234643
 H      7.50551317    -19.90298939    -51.34435319
 H      5.99371574    -20.71658985    -50.87447076
 H      5.24834049    -18.36286619    -50.15167706
 H      6.83043556    -17.75185484    -50.69196122
 H      7.90878772    -19.16374353    -48.95006202
 H      6.30466312    -19.74730746    -48.44557806
 H      5.80682895    -17.34513166    -47.81188028
 H      7.44100680    -16.89657840    -48.35642543
 H      7.76651698    -18.63214577    -46.22057296
 H      5.98711546    -18.67276312    -46.20194143
 H      6.41493347    -16.10768185    -45.63363562
 H      8.15258381    -16.47465320    -45.75267349
 H      8.09536219    -17.99816242    -43.90005994
 H      6.35279575    -17.70820030    -43.68176927
 H      6.88112132    -15.32781704    -43.16275507
 H      8.61139650    -15.67491080    -43.39500579
 H      8.93848949    -17.16958943    -41.72722027
 H      7.24115399    -17.06419546    -41.20166251
 H      7.11781561    -14.91242948    -40.58227095
 H      8.82492737    -14.61561260    -40.98962318
 H      9.21813697    -16.37012319    -39.09565507
 H      7.44988199    -16.46542222    -38.91549100
 H      7.31057790    -14.14167868    -38.23827794
 H      9.07558709    -13.97331732    -38.39532467
 H      9.66703002    -15.49605276    -36.75448434
 H      7.96131084    -15.84891891    -36.38804985
 H      8.49364782    -13.14870772    -35.80162014
 H      9.96719945    -13.39575158    -36.47626688
 H     10.85354973    -13.39864446    -37.18425063
 H     11.29471246    -14.56826264    -35.91711393
 H     11.31591311    -13.30385892    -34.09595775
 H     10.88167324    -11.83676327    -35.00553608
 H     13.12569107    -12.19988059    -36.19734122
 H     13.37256013    -13.64530024    -35.18833955
 H     13.47897688    -13.01493426    -33.17940697
 H     13.27339756    -11.29570076    -33.59200844
 H     15.01376140    -10.82106001    -34.80751340
 H     15.67385575    -12.46899346    -34.67767713
 H     16.17604517    -13.45665008    -33.57413233
 H     15.93053895    -12.26487298    -32.27503238
 H     17.32522040    -10.64248119    -32.85144101
 H     17.88403369    -11.51906887    -34.29628994
 H     18.79343530    -13.31393339    -32.91435282
 H     18.25189114    -12.46910903    -31.44422753
 H     19.42960911    -10.59480448    -31.51231915
 H     20.24608358    -11.06106556    -33.02368830
 H     21.24111113    -12.98926645    -31.74436098
 H     20.37689668    -12.43730548    -30.28945921
 H     21.91496757    -10.34542952    -30.61128791
 H     22.59238674    -11.15660482    -32.04354647
 H     23.46590015    -12.95979916    -30.61394627
 H     22.78981633    -12.15118698    -29.17960891
 H     24.46838003    -10.32361317    -30.67896613
 H     24.95776649    -11.10469080    -31.06355218
 H     23.87719418     -9.48057440    -28.98916334
 H     23.83335385     -9.33845362    -30.81956886
 H     25.27066258     -9.45838187    -28.00333621
 H     23.50303840     -9.66531095    -27.97248534
 H     23.33290951     -7.31901933    -28.86621347
 H     25.10975147     -7.21379519    -28.86099787
 H     25.44462812     -7.43353645    -26.59721162
 H     23.69631663     -7.56204029    -26.28873090
 H     23.00095494     -5.54179079    -26.99446759
 H     24.65290695     -5.03926494    -27.42665849
 H     24.88630530     -5.37696272    -24.78134355
 H     23.16768333     -5.83989043    -24.79875360
 H     21.98884145     -4.29880530    -25.41459137
 H     23.35378565     -3.17520017    -25.62124446
 H     23.86661625     -3.28948665    -23.23581175
 H     22.50943650     -4.41440834    -22.98907105
 H     21.05517096     -2.44116945    -23.76047812
 H     22.54310753     -1.48223987    -23.94693321
 H     23.19158658     -1.49294145    -21.72773684
 H     21.76968976     -2.45482229    -21.25735257
 H     20.16236264     -0.88378981    -21.86073781
 H     21.41145605      0.26551115    -22.39659192
 H     22.22367994      0.32926710    -20.02295238
 H     20.94453441     -0.82501171    -19.57608123
 H     19.41634212      1.17210417    -20.33407631
 H     20.90885827      2.07304949    -20.69318595
 H     21.17694450      1.22602021    -18.02376964
 H     20.06575572      1.11388680    -17.94331495
 H     22.38328508      2.89587355    -18.75262250
 H     22.50660530      1.23107952    -18.13494975
 H     21.47253598      2.21731605    -15.99587304
 H     21.43480197      3.80173290    -16.80609896
 H     23.63906716      4.15249242    -17.11966745
 H     24.07174399      2.61036870    -16.34319347
 H     23.23411451      3.11477422    -14.23375627
 H     22.70786046      4.72828056    -14.77033863
 H     25.41072796      4.81472702    -15.04864651
 H     25.39078237      3.13778388    -14.45221501
 H     24.44588408      4.22440430    -12.30071385
 H     24.55589338      5.80067087    -13.12019438
 H     26.98567846      5.60077687    -13.27351824
 H     26.91597903      4.02141073    -12.45558716
 H     25.98214241      5.86594827    -10.62634967
 H     26.26733546      7.05285467    -11.92179738
 H     28.75131945      6.24490146    -11.53056634
 H     28.10604201      5.15335909    -10.28139904
 H     27.25266826      6.85851624     -8.89428543
 H     27.86561055      8.09615615     -9.95078918
 H     27.22477691      5.78866994     -8.09469711
 H     26.04532208      6.86257409     -8.88455965
 H     27.52007586      8.48179405     -7.21407708
 H     28.39921695      6.98946592     -6.80379136
 H     26.33076624      6.03367445     -5.86394853
 H     25.45442379      7.52727551     -6.27558724
 H     27.27126850      8.40264481     -4.48617916
 H     27.83161446      6.71487389     -4.41062512
 H     25.35106931      6.44913115     -3.47282703
 H     25.18216959      8.20498025     -3.71101501
 H     27.04676448      8.36655243     -1.94487736
 H     27.05485478      6.58836264     -1.86586923
 H     24.56140227      7.03106134     -1.07847425
 H     24.89826658      8.71178363     -1.19204535
 H     24.90313061      5.71574822     -0.47207856
 H     23.84889624      6.43455849     -1.71311376
 H     22.96767524      7.67367816      0.48543433
 H     24.19545363      6.74045296      1.37420742
 H     22.94985355      4.66689821      0.68590091
 H     21.77431719      5.68756089     -0.17701775
 H     21.09529455      6.73225649      1.93510886
 H     22.26450127      5.72043318      2.81683212
 H     21.66671321      3.70326632      2.55423634
 H     20.25058487      4.13775769      1.56728931
 H     19.19861291      5.34722273      3.34417096
 H     20.55505897      4.97879179      4.43622380
 H     20.35490444      2.70499458      4.49806125
 H     18.94670033      2.73280895      3.40973492
 H     17.49499701      3.90477472      4.71220292
 H     18.68696800      4.05513013      6.02554411
 H     18.52446451      1.48789650      6.12027204
 H     17.34549495      1.56549757      4.78900366
 H     15.67239978      2.69152047      5.67415166
 H     16.49584820      2.85587169      7.24360635
 H     16.40947716      0.35370053      7.43083590
 H     15.59067760      0.28504173      5.85187424
 H     13.67745665      1.43989503      6.45911436
 H     14.26329335      1.64536942      8.12729970
 H     12.63093346     -0.17900244      7.98616922
 H     13.57325005     -0.90369879      6.53064676
 H     11.79328322      0.01591242      6.33887138
 H     11.66549530      0.40337300      8.09100838
 H     11.78728911     -2.07424254      6.16340029
 H     11.92115820     -0.56905195      5.22279036
 H      9.53243945     -0.13657256      6.11392374
 H      9.63578823     -1.69013138      6.97650166
 H      9.80691585     -2.72529424      4.64338630
 H      9.69464345     -1.08706042      3.95647181
 H      7.41479893     -0.88816213      4.92248965
 H      7.56605420     -2.52964085      5.59400741
 H      7.71648004     -3.32436292      3.19233762
 H      7.55969966     -1.63400616      2.65719222
 H      5.26235579     -1.67322074      3.72027544
 H      5.54759973     -3.36329366      4.20043800
 H      5.61738071     -3.64870332      1.57544482
 H      5.32706417     -1.89600660      1.46573079
 H      3.09771035     -2.38574214      2.59365832
 H      3.53911973     -4.10967885      2.63195558
 H      3.57545617     -4.18691696      0.18474375
 H      3.13376750     -2.46393100      0.11768295
 H      0.96213717     -3.30627550      1.27305970
 H      1.54473017     -4.75940091     -0.05063749
 H      1.76425836     -5.17816009     -1.06609790
 H      1.07963240     -3.55578758     -1.32583128
 H     -0.84721627     -3.49238841     -0.55192151
 H     -0.81515472     -5.19107914     -0.02117813
 H     -0.58898059     -6.27605118     -1.94488613
 H     -0.58659637     -4.76908719     -2.89215617
 H     -2.36036411     -3.77493497     -2.69326831
 H     -3.06998308     -5.00562491     -1.62083656
 H     -3.19761754     -6.80869932     -2.69067187
 H     -2.51248798     -6.10645198     -4.17583611
 H     -4.29271439     -4.56009335     -4.47936472
 H     -5.10744523     -5.15779107     -3.01401911
 H     -5.41670089     -7.35808641     -3.93534182
 H     -4.61811989     -6.86313023     -5.44714651
 H     -6.43401114     -5.22516714     -5.83629817
 H     -7.21301848     -5.73712498     -4.31994946
 H     -7.40902393     -8.00854473     -5.58590718
 H     -6.48480479     -7.69356164     -6.55564249
 H     -5.48876929     -7.68299720     -7.16114814
 H     -6.15831948     -6.33877343     -7.81020568
 H     -6.12949575     -5.24572188     -7.92155891
 H     -6.19162463     -6.48081843     -9.38491114
 H     -5.31550897     -6.99272334     -9.95425523
 H     -4.43835227     -6.31514666     -8.82921922
 H     -3.78231273     -6.01675340     -7.90764711
 H     -4.32022482     -4.41400068     -8.46451422
 H     -3.12645997     -4.87736998    -10.62250000
 H     -2.63447866     -6.46498786     -9.98556163
 H     -1.33665933     -5.62364955     -8.22148953
 H     -1.70020101     -3.94632765     -8.69339563
 H     -0.47420565     -4.50227976    -10.86018970
 H     -0.19982772     -6.14632808    -10.23561902
 H      1.15887154     -5.22694987     -8.40081765
 H      0.88663858     -3.58150492     -9.02264303
 H      2.21554264     -4.59811664    -11.06780927
 H      2.29224435     -6.11959642    -10.14722099
 H      3.54332662     -5.34824761     -8.36957582
 H      3.63701472     -3.71382702     -9.06825926
 H      4.94082828     -5.24792302    -10.88899140
 H      4.56938963     -6.61288025     -9.80862490
 H      6.49831275     -6.14768429     -8.69538334
 H      6.42045634     -6.10749062     -8.56961891
 H      6.31531427     -7.08109510     -8.06835792
 H      5.66751044     -5.60498606     -7.06696595
 H      5.85851761     -4.43316161     -6.45697117
 H      7.59042059     -4.59174805     -6.83595543
 H      7.49164683     -6.68736483     -5.36875918
 H      5.76042534     -6.36736827     -5.10657409
 H      5.32865344     -4.45946163     -4.54620417
 H      6.43138109     -4.23304466     -3.97142969
 H      4.00263890     -5.38410168     -4.92609238
 H      4.82676391     -3.85386788     -5.31010947
 H      4.76205197     -2.83246454     -3.30696217
 H      3.90293255     -4.19698438     -2.55312790
 H      2.04614213     -4.41620507     -3.48429666
 H      2.33907236     -2.57641703     -4.22829786
 H      2.55936317     -1.67567078     -4.81497819
 H      2.46498882     -1.36258732     -3.06530996
 H     -0.00851101     -2.34724476     -4.08029027
 H      0.89546028     -2.38104626     -5.61324821
 H      1.26165559     -0.07726093     -5.74740977
 H      0.38575962      0.20031907     -4.22293535
 H     -1.63273878     -0.43882956     -4.58786786
 H     -1.35989622     -1.03886385     -6.09178038
 H     -1.21855972     -1.80174988     -6.89600615
 H     -0.81171733     -0.22007932     -7.60386502
 H     -3.55161479     -0.52568519     -6.65133154
 H     -2.92115401     -2.13490319     -6.22565175
 H     -2.75526098     -2.04134417     -8.95177361
 H     -2.74320773     -0.86567391     -9.03335748
 H     -2.26131419      0.18947271     -9.22921757
 H     -3.86280310      0.68129867     -8.62787978
 H     -3.22109031     -0.80560624    -11.18850783
 H     -3.11427732     -0.58688620    -11.24540117
 H     -3.70094920     -2.30869334    -10.83593133
 H     -2.31822289     -1.37216273    -11.45176007
 H     -4.16293305     -0.82714230    -13.30506345
 H     -5.26263514     -1.86261978    -12.36341152
 H     -4.25715078     -3.84128410    -12.49453575
 H     -3.06211046     -3.49636220    -12.83625245
 H     -1.90605908     -3.27172545    -12.75647541
 H     -2.22911709     -2.63447625    -14.38675565
 H     -2.92130040     -4.79890470    -15.20587984
 H     -2.75863844     -5.51130662    -13.67334219
 H     -3.40208002     -5.92871743    -12.88514535
 H     -1.65745498     -5.80680440    -12.55395457
 H     -0.78526031     -7.09674493    -14.13029729
 H     -2.38299097     -7.50757631    -14.79868414
 H     -2.89518137     -8.59559130    -12.58816425
 H     -2.06567231     -8.01700739    -11.89497540
 H     -1.57397476     -8.65071899    -10.76961374
 H     -0.02730307     -7.95841032    -11.86776870
 H     -0.58621861    -10.19700374    -11.13060016
 H     -1.68292668     -9.11135791     -9.77426788
 H     -0.06165984     -9.63987872     -8.72779372
 H      0.24056879     -8.59968130     -9.06118317
 H      0.78685236     -7.97627378     -8.06163919
 H      0.86002700     -9.20014228     -7.79845101
 H      0.11536754     -8.69839953     -6.72591950
 H      1.14845803     -9.23160902     -6.73973243
 H      0.99627225    -10.30053179     -6.45435903
 H     -0.15225514     -8.83937322     -5.55753514
 H      1.33825285     -9.30879237     -4.32182619
 H      1.05049622     -7.89125952     -4.83169628
 H      1.73349129     -7.49248839     -3.69739878
 H      1.95786156     -8.41829330     -3.31290763
 H      2.87458371     -8.17147813     -2.49434161
 H      2.74890165     -7.12082282     -2.83329162
 H      3.38412816     -7.14516210     -1.50679947
 H      3.24441035     -8.24594984     -1.27975454
 H      2.51804500     -8.10203301     -0.33097335
 H      3.69252411     -8.48633450     -0.27199188
 H      2.70763662     -9.61427138     -0.50154565
 H      3.50758663     -9.29977988      0.49691256
 H      3.28380954    -10.53756860      1.00019789
 H      2.79326275    -10.80475118     -0.27905756
 H      2.60508434    -10.82498253      1.85126616
 H      1.70924240    -10.90816358      0.90257918
 H      0.90185705    -10.46623198      1.67461897
 H      2.35327669     -9.75932759      2.42424145
 H      1.89508135    -11.44121682      2.78420300
1502
Final Conformation Chain 8 (Simulation Frame 9)
 C      0.00000000      0.00000000      0.00000000
 C      1.54000000      0.00000000      0.00000000
 C      2.16637443      1.23114389      0.68083757
 C      3.69642033      1.31959419      0.53005264
 C      4.46606244      0.23465975      1.30604766
 C      3.83860162     -0.12759368      2.66496833
 C      4.58575580     -1.24050065      3.42312313
 C      6.02477385     -0.86733312      3.82508461
 C      6.11271377      0.04724770      5.06096830
 C      7.54813559      0.46610430      5.42937476
 C      7.62622804      1.72765474      6.30914296
 C      9.03190197      2.01506873      6.86867313
 C      9.47471507      1.04409609      7.97895629
 C      8.51083467      0.98264181      9.17843865
 C      9.00772192      0.09752800     10.33657362
 C      8.18060400      0.23373316     11.62844208
 C      8.35362439     -0.94048639     12.60970270
 C      7.51436288     -0.81197312     13.89450792
 C      7.61202988     -2.03060561     14.83098856
 C      6.60035081     -2.01111578     15.99190442
 C      6.71411865     -3.21758686     16.94221195
 C      5.75359973     -3.16059991     18.14460785
 C      5.86055936     -4.37178136     19.08969998
 C      4.72760056     -4.45706729     20.12928195
 C      4.89683848     -5.59961856     21.14787663
 C      3.76565941     -5.68276011     22.18956824
 C      3.94415076     -6.81403456     23.21911132
 C      2.77157672     -6.95186708     24.20788445
 C      1.44864862     -7.39125207     23.55336013
 C      0.34258992     -7.75687701     24.56061013
 C     -0.87360778     -8.45856102     23.92807341
 C     -1.78145488     -9.17588985     24.94436716
 C     -3.06623934     -9.76326518     24.33124474
 C     -3.72505016    -10.85966616     25.18884209
 C     -5.04858216    -11.39543010     24.61193652
 C     -5.45946211    -12.77370768     25.16250766
 C     -6.97025098    -13.05869676     25.07363579
 C     -7.38426058    -14.42715605     25.64592526
 C     -8.52082675    -14.35468403     26.68253760
 C     -8.62802716    -15.59968071     27.58258833
 C     -7.31584588    -15.96975372     28.29870722
 C     -7.47676203    -17.05435034     29.38007494
 C     -6.20334912    -17.30665531     30.20854447
 C     -6.47577399    -17.80818026     31.63887919
 C     -5.20421520    -18.01775164     32.48197946
 C     -4.22023939    -19.04237604     31.88739014
 C     -3.04416829    -19.39404023     32.81733049
 C     -2.41972359    -20.77472583     32.54278338
 C     -1.52748233    -21.29681801     33.68424090
 C     -0.65226973    -22.50229353     33.29381592
 C      0.30040756    -22.97196577     34.40890066
 C      0.65667855    -24.46856683     34.33921392
 C      1.33972893    -25.00962698     35.60897614
 C      1.64865065    -26.51752729     35.55994552
 C      2.34541509    -27.05557668     36.82352067
 C      2.44952203    -28.59116958     36.87563772
 C      3.33119572    -29.12066485     38.02188649
 C      3.39175876    -30.65711219     38.10710201
 C      4.30868674    -31.18677525     39.22527021
 C      4.32470985    -32.72181938     39.34767436
 C      5.23102477    -33.25088347     40.47474332
 C      5.31754751    -34.78706892     40.53992052
 C      6.30602709    -35.31449662     41.59648484
 C      6.50841194    -36.84066170     41.55826814
 C      7.37916575    -37.38597017     42.70545012
 C      7.24399229    -38.90388935     42.92737240
 C      8.17487952    -39.46259124     44.01957255
 C      8.38021120    -40.98715650     43.94788101
 C      9.30926526    -41.54617112     45.04148112
 C      9.62999384    -43.04428125     44.88527866
 C     10.32950791    -43.66593407     46.10831906
 C     10.09900246    -45.18114094     46.25870314
 C     10.86729238    -45.81824411     47.43149048
 C     10.71979159    -47.34865035     47.51924154
 C     11.24531256    -47.95421212     48.83405052
 C     10.39751317    -49.12375514     49.36790940
 C     10.90123264    -49.70459235     50.70226124
 C      9.93396894    -50.71147323     51.35202413
 C     10.43576787    -51.28910033     52.68849140
 C      9.56536803    -52.43210898     53.24305010
 C     10.22254306    -53.21891175     54.39225086
 C      9.32636732    -54.31889277     54.99100858
 C     10.03020181    -55.19704253     56.04223169
 C      9.21145713    -56.42486654     56.48235139
 C      9.63401003    -57.00365518     57.84545548
 C      8.55757765    -57.87748341     58.51576701
 C      8.99910792    -58.49879989     59.85390634
 C      7.84630728    -59.11184256     60.67050254
 C      8.30588001    -60.09921651     61.75930261
 C      7.15238018    -60.72100227     62.56826529
 C      7.60092816    -61.41097354     63.86993512
 C      6.44438432    -62.00804155     64.69304881
 C      6.89280983    -63.03210414     65.75220431
 C      5.74868506    -63.55825835     66.63862421
 C      6.17210828    -64.67561482     67.61013196
 C      5.11975371    -65.00229948     68.68596977
 C      5.41777687    -66.28482705     69.48465946
 C      4.34983848    -66.62802092     70.53980191
 C      4.64448407    -67.91417994     71.33389191
 C      3.76009997    -68.09657422     72.58136820
 C      4.18874125    -69.26561316     73.48757712
 C      3.45348634    -69.31203362     74.83992521
 C      3.85226020    -70.50449432     75.72909162
 C      3.15787714    -70.52075134     77.10356165
 C      3.43132425    -71.79210366     77.92847979
 C      2.90796672    -71.72466282     79.37525159
 C      3.50297720    -72.79659604     80.30719671
 C      2.76687567    -72.93523935     81.65275703
 C      3.34875011    -74.02180721     82.57600803
 C      2.29608748    -74.73517617     83.44468871
 C      2.88486991    -75.78061554     84.41008592
 C      1.82620300    -76.54980435     85.22198058
 C      2.41427617    -77.60456325     86.17762362
 C      3.24300878    -78.69499091     85.47351442
 C      4.09175373    -79.55252171     86.43052691
 C      4.77003781    -80.75921083     85.75566983
 C      5.58280896    -81.64171114     86.72117295
 C      6.47641546    -82.68057901     86.01844900
 C      7.04283066    -83.75913522     86.96051604
 C      7.68477413    -84.95372703     86.23081816
 C      8.73033616    -85.71178307     87.06971689
 C      9.08004975    -87.10798258     86.52206068
 C      9.80375079    -88.01481903     87.53473261
 C     10.02461408    -89.45598549     87.03889124
 C     10.44479777    -90.44152736     88.14512489
 C     10.73817357    -91.86542045     87.63712971
 C     10.94879548    -92.89958369     88.75862192
 C     12.32824809    -92.81468361     89.43796165
 C     12.30552284    -93.13511366     90.94408520
 C     13.66828641    -92.96590427     91.64111005
 C     13.62015133    -93.16491817     93.16743782
 C     15.00311904    -93.15140737     93.84479871
 C     14.96791826    -92.75643585     95.33287075
 C     16.28740376    -92.15647909     95.85307252
 C     16.17977086    -91.52701735     97.25442654
 C     17.51788487    -91.00740434     97.81214800
 C     17.37863249    -90.17500504     99.10029402
 C     18.71859815    -89.67307231     99.66964063
 C     18.57172439    -88.59176296    100.75628601
 C     19.82261429    -88.41477121    101.63693826
 C     19.68757089    -87.31092655    102.70225053
 C     20.94740864    -87.11692300    103.56640993
 C     20.65643400    -86.62500938    104.99642907
 C     21.90429013    -86.53694951    105.89459416
 C     21.68769709    -85.73409601    107.19078616
 C     22.96946688    -85.52157402    108.01752712
 C     22.75186873    -84.72351870    109.31651085
 C     24.02093353    -84.56519203    110.17441947
 C     23.78802959    -83.83065863    111.50776730
 C     25.08024743    -83.51969075    112.28563106
 C     24.84056594    -82.94544584    113.69431682
 C     25.93231547    -83.31521038    114.71556955
 C     25.88496457    -82.48456713    116.01148223
 C     26.97026173    -82.86138996    117.03702337
 C     26.88178721    -82.07713213    118.35941209
 C     27.64181328    -82.73174155    119.52793546
 C     27.57289521    -81.93550404    120.84431540
 C     28.37024428    -82.56683565    122.00071276
 C     28.23587771    -81.81499748    123.33798049
 C     29.39525991    -82.06979194    124.31905781
 C     29.39094872    -81.14213109    125.54829609
 C     30.49032814    -81.46190788    126.57820273
 C     30.51321877    -80.50761499    127.78667329
 C     31.44504592    -80.96150276    128.92565708
 C     31.65457080    -79.90193601    130.02339003
 C     32.68710071    -80.30381926    131.09295622
 C     33.07422695    -79.16140925    132.05036555
 C     33.99783947    -79.59630520    133.20336400
 C     34.54498679    -78.42686015    134.04278528
 C     35.76391589    -78.79427648    134.90928230
 C     36.05563376    -77.78866846    136.03855339
 C     37.30394083    -78.12929103    136.87360172
 C     37.67530296    -77.05444200    137.91205718
 C     39.07284062    -77.23890520    138.53210703
 C     39.28391176    -76.46008011    139.84377789
 C     40.64588700    -76.71953846    140.51407991
 C     40.98278678    -75.73530545    141.64959033
 C     42.36927804    -75.95883277    142.28147444
 C     42.78279358    -74.86784571    143.28663718
 C     44.27349255    -74.90332758    143.67154967
 C     44.65930782    -73.90159900    144.77576271
 C     46.11798254    -74.02697212    145.25341282
 C     46.46502931    -73.12246254    146.45050135
 C     47.95068375    -73.16035220    146.85422806
 C     48.44524361    -71.87545395    147.54418969
 C     49.85752312    -71.99204613    148.14707678
 C     50.40614624    -70.67093047    148.71739780
 C     51.35817614    -70.85275634    149.91413437
 C     51.55063201    -69.58056834    150.76036035
 C     52.65693638    -69.69800345    151.82520759
 C     52.89082018    -68.40636076    152.63053828
 C     53.93170359    -68.54998350    153.75638650
 C     54.17906158    -67.25352978    154.54987360
 C     55.41230871    -67.30829935    155.47058083
 C     56.10560752    -65.94780481    155.67055922
 C     57.53007515    -66.04940099    156.24690130
 C     58.11430582    -64.70323418    156.71392317
 C     59.64324222    -64.71403711    156.89787096
 C     60.31426824    -63.35128339    156.64444172
 C     61.84883935    -63.37546777    156.77135353
 C     62.52262015    -62.02103493    156.48302889
 C     64.06146409    -62.06601884    156.52221800
 C     64.72662633    -60.67978010    156.60882828
 C     66.26602773    -60.72268393    156.61044349
 C     66.93135119    -59.33795123    156.50339197
 C     68.39328916    -59.38103629    156.02122908
 C     69.06118598    -57.99695715    155.92203847
 C     70.38491904    -57.99519489    155.13506471
 C     71.07123340    -56.61827164    155.06683739
 C     72.40484750    -56.62059883    154.29672830
 C     72.90993403    -55.21687048    153.91458394
 C     72.31648638    -54.67363655    152.60145151
 C     72.35357291    -53.13847982    152.48518273
 C     71.43935585    -52.57150407    151.38320920
 C     71.37198353    -51.03323340    151.35520351
 C     70.64789030    -50.46030698    150.12270835
 C     70.82705633    -48.94162584    149.94075471
 C     69.92054285    -48.32938370    148.85678382
 C     69.96029958    -49.07732405    147.51119673
 C     69.11107536    -48.42308919    146.40557700
 C     69.26254817    -49.08661485    145.02413221
 C     68.26024003    -48.57769772    143.97152509
 C     68.54437071    -49.07756375    142.54288808
 C     67.36712203    -48.89004178    141.56794138
 C     67.41366674    -49.82225846    140.34303091
 C     66.09446082    -49.88180928    139.55072450
 C     66.17639911    -50.71721357    138.25960646
 C     64.81859683    -50.93249073    137.56561170
 C     64.90707875    -51.72579860    136.24863275
 C     63.58889963    -51.76884513    135.45355362
 C     63.70026411    -52.48436527    134.09442563
 C     62.42011445    -52.41157347    133.24147886
 C     62.38654820    -53.41664735    132.07515995
 C     61.59134971    -52.92825736    130.85011523
 C     61.44180693    -53.98393247    129.73890552
 C     60.46268851    -53.58162347    128.62039106
 C     60.04602954    -54.74676452    127.70363503
 C     58.71948590    -54.51294947    126.95716836
 C     58.35083565    -55.63479711    125.96865692
 C     57.21143864    -55.26684090    125.00016186
 C     56.56110361    -56.47942597    124.30856820
 C     55.33098142    -56.12658465    123.45188716
 C     54.91201873    -57.23674454    122.47024808
 C     53.60767247    -56.93903018    121.70759023
 C     53.19440359    -58.04434704    120.71810376
 C     52.07689328    -57.62724057    119.74404375
 C     51.81432999    -58.64548061    118.61894475
 C     50.91063604    -58.11358816    117.49110271
 C     50.31774722    -59.21421678    116.59182551
 C     49.13797971    -58.74362638    115.72102513
 C     48.65910999    -59.78935194    114.69694416
 C     47.72561853    -59.22152735    113.61169353
 C     46.85072868    -60.28335972    112.91982666
 C     46.28175608    -59.83707330    111.56015810
 C     46.02495521    -60.99514345    110.57805482
 C     45.64522504    -60.53882719    109.15707613
 C     45.28311518    -61.69324157    108.20428870
 C     44.92936265    -61.23900579    106.77595785
 C     44.69628997    -62.39848017    105.78960281
 C     44.00810648    -61.97645025    104.47815543
 C     44.17231420    -62.98990930    103.33031547
 C     43.45346049    -62.58531275    102.02987286
 C     43.66454396    -63.57025060    100.86499468
 C     43.39427466    -62.96403973     99.47536779
 C     43.44879233    -63.98612949     98.32473303
 C     43.05082108    -63.40797896     96.95398110
 C     43.05235398    -64.44270958     95.81339783
 C     42.39405176    -63.94339231     94.51381311
 C     42.79827338    -64.74133918     93.26022399
 C     41.88000856    -64.50805636     92.04615281
 C     42.58395386    -64.67640414     90.68684414
 C     41.75674106    -64.17838231     89.48713866
 C     42.41485468    -64.44176199     88.11998190
 C     41.62896078    -63.86914512     86.92579569
 C     42.09465763    -64.39972768     85.55714359
 C     41.57174746    -65.80859301     85.22059724
 C     41.36100479    -66.05544244     83.71518936
 C     39.99221186    -65.58526227     83.18894178
 C     39.46917425    -66.39815319     81.99009232
 C     38.08635125    -65.94789117     81.48347150
 C     37.50026968    -66.84759187     80.37954803
 C     36.08661191    -66.44026721     79.92429170
 C     35.23996943    -67.60962422     79.38819405
 C     33.86481043    -67.18698301     78.83872875
 C     33.17148711    -68.26703039     77.98761158
 C     31.82499524    -67.82240114     77.38689162
 C     31.06870681    -68.94188731     76.64771740
 C     30.21528103    -68.44637903     75.46545856
 C     29.54867494    -69.57534267     74.65757402
 C     28.33192018    -69.11970936     73.83082972
 C     27.45505783    -70.27670159     73.31694122
 C     26.20106465    -69.81899967     72.54908052
 C     25.18812485    -70.94618060     72.27518982
 C     23.83759663    -70.45401555     71.72251717
 C     22.81858162    -71.57956244     71.46492717
 C     21.42254025    -71.07800717     71.05127176
 C     20.42759987    -72.20356248     70.71242239
 C     19.05865692    -71.70136140     70.21705456
 C     18.17045731    -72.80227470     69.60821028
 C     16.72808057    -72.35110517     69.31224508
 C     15.88239031    -73.40309549     68.57081111
 C     14.38738509    -73.04745475     68.47041663
 C     13.54351156    -74.09439450     67.71982044
 C     12.02362478    -73.87932368     67.84346803
 C     11.18029052    -74.90730407     67.06652296
 C      9.67079246    -74.83035204     67.36163986
 C      8.82122496    -75.81997499     66.54281053
 C      7.30899323    -75.53203398     66.58576609
 C      6.50720577    -76.22630465     65.46919764
 C      5.02485703    -75.81273854     65.41258239
 C      4.29511564    -76.27066390     64.13610996
 C      2.80969863    -75.86752260     64.08498863
 C      2.07328366    -76.34847023     62.82087535
 C      0.55447187    -76.09515458     62.84621133
 C     -0.17617555    -76.53987085     61.56559359
 C     -1.61056730    -75.99343671     61.44097394
 C     -2.23907795    -76.19529492     60.04963371
 C     -3.76111974    -75.96411269     60.01034557
 C     -4.37575106    -76.07733645     58.60286245
 C     -5.86672015    -75.69732552     58.53803283
 C     -6.48825584    -75.83671886     57.13594051
 C     -7.92940320    -75.30355711     57.03379938
 C     -8.63870643    -75.66417378     55.71529850
 C    -10.08020442    -75.13187920     55.61358317
 C    -10.78040158    -75.46990139     54.28427323
 C    -12.09168358    -74.69629307     54.05260605
 C    -12.74438327    -74.96557261     52.68400398
 C    -14.07645910    -74.22347302     52.46845309
 C    -14.77613366    -74.56544641     51.13987878
 C    -16.11189693    -73.82901649     50.92772920
 C    -16.89271402    -74.29363365     49.68432437
 C    -17.77167656    -73.19888794     49.05142890
 C    -17.92723478    -73.32538007     47.52453618
 C    -18.86027292    -72.27104805     46.90049785
 C    -18.92526691    -72.32380508     45.36277471
 C    -19.77786587    -71.20653958     44.73317735
 C    -20.16528242    -71.46590064     43.26544432
 C    -20.63707498    -70.20917715     42.51068751
 C    -20.66217588    -70.37069663     40.97938695
 C    -21.02354985    -69.08099144     40.21934130
 C    -21.00439726    -69.23085961     38.68677068
 C    -21.27157267    -67.91897564     37.92573340
 C    -20.70284452    -67.89798549     36.49475203
 C    -21.12859545    -66.66947343     35.66946769
 C    -20.47638073    -66.59405440     34.27643936
 C    -20.98741117    -65.42964990     33.40775642
 C    -20.21938846    -65.25102226     32.08494377
 C    -20.47152122    -63.89909090     31.39189929
 C    -19.59067386    -63.65685087     30.15213008
 C    -20.17711274    -62.63902083     29.15628297
 C    -19.11524903    -61.86870972     28.34964410
 C    -19.57408586    -60.47565776     27.88009644
 C    -18.45129764    -59.62157997     27.26244142
 C    -18.92421273    -58.25686249     26.72812175
 C    -17.78411817    -57.35165116     26.22575053
 C    -18.24035583    -55.93923678     25.81522303
 C    -17.09126424    -55.01269748     25.37623162
 C    -17.54862611    -53.60353421     24.95589960
 C    -16.39135258    -52.62549658     24.68065361
 C    -16.83635494    -51.28598293     24.06479968
 C    -15.69752355    -50.26208764     23.90262231
 C    -16.12695012    -48.95062193     23.21906506
 C    -15.20121782    -47.75658076     23.51720159
 C    -15.37601992    -46.57154073     22.54935638
 C    -14.39275919    -45.41200288     22.79485649
 C    -14.53708421    -44.24674664     21.79838864
 C    -13.40140862    -43.20972408     21.87854574
 C    -13.69068002    -41.90376695     21.11539566
 C    -12.67901970    -40.77708602     21.39599050
 C    -13.01219390    -39.44711863     20.69471901
 C    -11.90710268    -38.38137096     20.81536436
 C    -11.91483408    -37.33983527     19.68101714
 C    -11.14032530    -37.77714357     18.42383871
 C    -10.81888271    -36.62503853     17.45382395
 C     -9.91839613    -37.03314669     16.27307350
 C     -9.17035629    -35.85617048     15.61980219
 C     -8.59489079    -36.17516351     14.22743626
 C     -7.10542964    -35.81768009     14.06834170
 C     -6.61763311    -35.80177318     12.60772488
 C     -5.11994950    -35.47931462     12.45099490
 C     -4.70873343    -35.09445225     11.01768325
 C     -3.22564851    -34.70506099     10.87473720
 C     -2.72541471    -34.66757490      9.41872864
 C     -1.23120192    -34.32224019      9.27847147
 C     -0.71398258    -34.35587115      7.82831523
 C     -1.69996563    -33.77460996      6.79798866
 C     -1.40661609    -32.31490391      6.40453689
 C     -2.37430370    -31.74339945      5.35165354
 C     -1.93840949    -30.38472067      4.77235378
 C     -3.05074946    -29.64430185      4.00679532
 C     -2.71247631    -28.17975326      3.67173008
 C     -3.94737462    -27.28141851      3.47268025
 C     -3.61002007    -25.83024220      3.08296340
 C     -4.84336430    -24.92249472      2.92030871
 C     -4.52591404    -23.53305673      2.33696714
 C     -5.70140158    -22.54065392      2.40743481
 C     -5.39435350    -21.16146631      1.79492929
 C     -6.64069173    -20.28648265      1.56548520
 C     -6.35545628    -18.97641295      0.80788496
 C     -5.84122455    -19.18297300     -0.62895138
 C     -5.67513141    -17.87735006     -1.42855240
 C     -5.52104897    -18.08766073     -2.94632314
 C     -5.11418063    -16.81769097     -3.71654062
 C     -4.51295322    -17.09411736     -5.10712109
 C     -4.26371208    -15.82630937     -5.94506009
 C     -3.64649792    -16.10141216     -7.32888274
 C     -3.83282126    -14.95262457     -8.33743155
 C     -3.00051798    -15.10734848     -9.62387307
 C     -3.03724272    -13.87431817    -10.54576652
 C     -2.54500331    -12.57735898     -9.87703847
 C     -2.11186048    -11.48485919    -10.87224272
 C     -1.63535470    -10.18190205    -10.20377809
 C     -0.86049215     -9.24170734    -11.14570268
 C     -0.70240303     -7.80731831    -10.60798905
 C      0.31206320     -6.95315978    -11.39085013
 C      0.31848077     -5.46576205    -10.99184287
 C      0.82541345     -5.20310107     -9.56158819
 C      1.09111497     -3.71768399     -9.25411656
 C      1.64138081     -3.45961530     -7.83912255
 C      1.71750888     -1.96925188     -7.45883132
 C      2.75973205     -1.65306846     -6.37007106
 C      2.80004842     -0.17115637     -5.95304452
 C      4.00089829      0.19625490     -5.06165877
 C      3.88196460      1.57596385     -4.38796894
 C      5.00478537      1.87898485     -3.37848798
 C      4.71481493      3.08169804     -2.46142848
 C      5.75658030      3.28397264     -1.34544914
 C      5.39121600      4.39262605     -0.34096094
 C      6.28996543      4.42626117      0.90912631
 C      5.61604795      5.04348380      2.14867117
 C      5.27282912      4.02205070      3.24888717
 C      4.81120351      4.65889208      4.57287163
 C      4.20034802      3.65711519      5.57031768
 C      4.44079388      4.01871370      7.04782649
 C      4.39004438      2.81267072      8.00411349
 C      4.63043132      3.17427768      9.48162983
 C      4.23152176      2.06375732     10.47118312
 C      4.27123389      2.49718092     11.94839906
 C      4.12413047      1.33382905     12.94668409
 C      3.72945479      1.77463014     14.36848770
 C      4.41300549      0.96662335     15.48718492
 C      3.96975549      1.36416949     16.90742663
 C      4.53959834      0.46124568     18.01720486
 C      4.14159927      0.89193722     19.44117872
 C      4.90407717      0.15153370     20.55564275
 C      4.78128513      0.80972952     21.94247381
 C      5.57735780      0.09280573     23.04876879
 C      5.40545953      0.71440495     24.44721986
 C      5.71954606     -0.25138654     25.60488840
 C      4.60042471     -1.26947102     25.89241476
 C      3.32200854     -0.64517802     26.48191484
 C      2.06853814     -1.52759146     26.33440736
 C      1.93677602     -2.20330345     24.95685443
 C      0.73417406     -3.15813006     24.84000124
 C      0.54568333     -3.75898929     23.43464028
 C     -0.90308009     -4.17658097     23.12110920
 C     -1.09623333     -4.75455454     21.70681137
 C     -2.52076880     -5.26996080     21.42994480
 C     -2.76962528     -5.66545115     19.96254648
 C     -3.12153778     -7.15168893     19.76543012
 C     -3.27003395     -7.56998145     18.29078431
 C     -1.93382313     -7.87529179     17.58869723
 C     -1.26291668     -6.64222593     16.95542548
 C      0.11394129     -6.93085450     16.32888283
 C      0.92726510     -5.66668436     15.99425138
 C      0.82422596     -4.55622944     17.05626495
 C      1.54400577     -3.25088212     16.66950225
 C      1.37008522     -2.11292115     17.69243747
 C     -0.08440655     -1.63375636     17.85508686
 C     -0.34881795     -0.86777171     19.16464943
 C     -1.83382642     -0.54309577     19.41150030
 C     -2.06777542      0.56227552     20.45793337
 C     -1.84237141      0.10651158     21.91157440
 C     -1.34815822      1.22400005     22.84889656
 C     -1.36445103      0.84293578     24.34091686
 C     -2.76593498      0.51449301     24.88824501
 C     -2.79339708      0.20994475     26.39758135
 C     -1.88139694     -0.95769328     26.81767321
 C     -2.03419241     -1.37241063     28.29288949
 C     -1.12377643     -2.54148856     28.71241249
 C     -1.44357890     -3.87029763     28.00276975
 C     -0.76145440     -5.09787649     28.63471619
 C      0.76745038     -4.96709078     28.76489017
 C      1.49695998     -6.30981231     28.95597823
 C      3.03139314     -6.18782289     29.00323774
 C      3.63001963     -5.36295766     27.84874925
 C      5.13319138     -5.06656921     28.00440462
 C      5.73907047     -4.27007077     26.83389159
 C      5.49966520     -4.90708268     25.45240654
 C      6.10131672     -4.10803480     24.28145055
 C      7.59159747     -3.76284115     24.45894596
 C      8.06965647     -2.58517955     23.58936402
 C      7.81118467     -2.77350322     22.08293562
 C      8.53182332     -1.74596373     21.19049931
 C      8.50682896     -2.09267049     19.69024277
 C      9.06955977     -0.98388171     18.78166064
 C      8.11893379      0.21266304     18.59142164
 C      8.60976589      1.24465801     17.55910859
 C      7.54669684      2.28444326     17.15869527
 C      8.08200980      3.41216707     16.25687542
 H     -0.36333333      0.00000000      1.02766186
 H     -0.36333333     -0.88998127     -0.51383093
 H     -0.36333333      0.88998127     -0.51383093
 H      1.88274777      1.02847546      0.11341158
 H      1.88274777      1.00811140     -0.23309950
 H      3.24858846      1.10179899      0.69435408
 H      3.03202255      1.54271103      0.09630422
 H      4.15355652      0.71565386      1.31387824
 H      4.10066555      0.30735523      0.53767509
 H      4.29078390      0.38566336      2.37121213
 H      4.04159533      0.16329584      2.30746409
 H      3.68330970     -1.20607903      2.69418781
 H      4.64330292     -0.35170024      3.36520548
 H      5.62133005     -1.25113966      3.08316316
 H      5.64635399     -1.16645388      3.18281385
 H      6.02447408      0.16197763      4.18371994
 H      6.15834806     -1.10479787      4.88048426
 H      6.80051258     -0.40621915      5.77469135
 H      6.68365992      0.93539034      4.79018585
 H      7.66652197      1.52454690      5.19746111
 H      7.49601829      1.18815239      6.24425534
 H      8.21889508      1.49279919      7.19327455
 H      8.63685679      2.13040171      6.24187918
 H      8.96390357      2.06885761      7.95521948
 H      9.44907023      1.08061495      7.24399535
 H      8.63268690      0.39680250      8.22410843
 H      8.58452405      0.57992817      8.40346552
 H      8.54155049     -0.02558651      9.59151517
 H      8.43350453      1.98164168      9.60752990
 H      9.96261077      0.49191421     10.68406002
 H      8.15074133     -0.17251131     10.95363362
 H      7.14939715     -0.04029472     11.40568403
 H      8.21840649      1.27405919     11.95154069
 H      8.11798451     -0.58613169     13.61319988
 H      8.05079822     -1.85730773     12.10390142
 H      6.46308216     -0.75285803     13.61270259
 H      7.80612598      0.10635547     14.40406352
 H      8.65611764     -2.16158968     15.11528403
 H      7.27092190     -2.91038836     14.28534430
 H      5.59553810     -1.98238846     15.57044724
 H      6.77281842     -1.11087682     16.58175589
 H      7.71928276     -3.22832747     17.36367339
 H      6.55338014     -4.12668776     16.36273057
 H      4.73243349     -3.11775947     17.76581475
 H      5.96872594     -2.25546465     18.71254348
 H      6.88137595     -4.42180941     19.46855442
 H      5.64067458     -5.27326321     18.51778988
 H      3.77833148     -4.52020501     19.59730278
 H      4.74655577     -3.54916736     20.73215708
 H      5.83758847     -5.44993102     21.67767195
 H      4.93312991     -6.54257493     20.60233448
 H      2.82368971     -5.83104517     21.66154873
 H      3.73192304     -4.73959729     22.73491744
 H      4.88439257     -6.65247203     23.74631422
 H      3.98655792     -7.76201381     22.68279334
 H      1.84962380     -6.70091946     23.68335790
 H      2.66591904     -6.01077864     24.74759642
 H      1.60776573     -8.35697587     23.07361094
 H      1.17672049     -6.65178384     22.80013916
 H      0.14384571     -6.88445257     25.18308611
 H      0.70405178     -8.57395909     25.18496755
 H     -0.52959753     -9.37523669     23.44905081
 H     -1.30025561     -7.79403130     23.17675997
 H     -2.14509698     -8.43814017     25.65962224
 H     -1.18645655     -9.92537789     25.46623368
 H     -2.78176915    -10.47952487     23.56043428
 H     -3.63352658     -8.94950106     23.87950019
 H     -3.97327601    -10.43209194     26.16026590
 H     -3.00715474    -11.66916358     25.32090298
 H     -4.84938570    -11.80749114     23.62268101
 H     -5.74652059    -10.56272170     24.52488092
 H     -5.56487581    -12.69307211     26.24439761
 H     -4.66928330    -13.48648333     24.92656630
 H     -7.26811254    -13.00523358     24.02648719
 H     -7.49765382    -12.29186287     25.64100870
 H     -7.55832275    -14.31276979     26.71584028
 H     -6.85584775    -15.20389928     25.09315964
 H     -9.39164861    -13.90501317     26.20549943
 H     -8.19214089    -13.72322054     27.50795838
 H     -7.73313963    -16.20503044     27.43826920
 H     -8.79879786    -16.46849715     26.94690337
 H     -7.01277596    -15.12484679     28.91707678
 H     -6.55395020    -16.15820322     27.54233314
 H     -7.87473148    -17.95261748     28.90801936
 H     -8.18406124    -16.69219206     30.12617762
 H     -5.92229238    -16.37400191     30.69769143
 H     -5.40822521    -17.61483819     29.52964737
 H     -7.03326114    -18.74258412     31.57409110
 H     -7.07813277    -17.06076677     32.15524823
 H     -4.67554603    -17.06676834     32.54709214
 H     -4.42225255    -18.40931708     31.83135598
 H     -3.92208282    -18.69679274     30.89755437
 H     -4.73417020    -19.99949563     31.79852383
 H     -3.44940328    -19.80470794     33.74212054
 H     -2.49480373    -18.47844882     33.03639884
 H     -2.05958367    -20.78959058     31.51410545
 H     -3.19375017    -21.53193838     32.66773137
 H     -2.13328563    -21.36813578     34.58757702
 H     -0.72075061    -20.58129548     33.84333658
 H     -0.00969267    -22.20519250     32.46500611
 H     -1.30762342    -23.31213879     32.97325048
 H     -0.29803038    -23.24961252     35.27658973
 H      0.95696745    -22.14224399     34.67079928
 H      1.13190561    -24.66335768     33.37780049
 H     -0.26603364    -25.04428324     34.41169036
 H      0.66621580    -24.85653597     36.45220992
 H      2.25842545    -24.44577325     35.77073425
 H      2.30570330    -26.70535003     34.71076683
 H      0.71088835    -27.05512714     35.41963065
 H      1.69740029    -26.86611553     37.67925503
 H      3.28442924    -26.51735625     36.95263770
 H      3.01271853    -28.92627920     36.00465480
 H      1.44165313    -29.00451934     36.83766060
 H      2.91119343    -28.77337002     38.96585915
 H      4.33460828    -28.71308212     37.89884359
 H      3.78862871    -31.03721787     37.16576577
 H      2.37880746    -31.03252515     38.25234236
 H      3.94277118    -30.80479985     40.17831827
 H      5.31713504    -30.81335789     39.04724912
 H      4.66518035    -33.13773380     38.39941541
 H      3.30828817    -33.06024487     39.54880905
 H      4.88093014    -32.83533657     41.41965311
 H      6.24910757    -32.91164105     40.28363603
 H      5.70705565    -35.14909890     39.58843867
 H      4.31294727    -35.18068461     40.69466235
 H      5.99179015    -34.94714705     42.57342365
 H      7.29700448    -34.92497273     41.36338625
 H      6.88416669    -37.11198331     40.57171204
 H      5.54284838    -37.31869523     41.72340733
 H      6.90215550    -37.12704197     43.65071061
 H      8.35765489    -36.90895921     42.64959719
 H      7.53220973    -39.41184351     42.00703916
 H      6.20102512    -39.12568742     43.15348100
 H      7.94472503    -38.95723275     44.95751802
 H      9.20490200    -39.24824661     43.73459872
 H      8.80847382    -41.22996435     42.97539169
 H      7.40756245    -41.46903832     44.04709950
 H      8.87942898    -41.30354467     46.01332122
 H     10.28211225    -41.06434251     44.94396224
 H     10.11064341    -43.19289091     43.91832925
 H      8.69291613    -43.60027729     44.91449809
 H      9.67907022    -43.54314843     46.97431819
 H     11.26414931    -43.13111161     46.27716928
 H     10.47294271    -45.67537723     45.36204313
 H      9.02726623    -45.35734048     46.35054644
 H     10.55138625    -45.33031374     48.35356817
 H     11.93259716    -45.64733109     47.27652450
 H     11.09055107    -47.78252780     46.59059318
 H      9.66191206    -47.58502043     47.63378447
 H     10.69305770    -47.50864767     49.66144818
 H     12.30253733    -47.70586345     48.92731747
 H     10.38117843    -49.90847347     48.61156932
 H      9.38344222    -48.76219335     49.53830068
 H     10.89457759    -48.90857364     51.44684832
 H     11.92193566    -50.05890364     50.55828601
 H      9.77899335    -51.53593303     50.65607254
 H      8.98526219    -50.20667506     51.53432692
 H     10.58829119    -50.46310833     53.38316676
 H     11.38548589    -51.79302215     52.50905205
 H      9.54650647    -53.23636746     52.50758253
 H      8.55466546    -52.05205770     53.39184973
 H     10.43527104    -52.52468666     55.20520740
 H     11.15595829    -53.64587468     54.02545574
 H      9.06937223    -55.02107570     54.19791802
 H      8.41787947    -53.85168825     55.37110037
 H     10.37143997    -54.55372089     56.85327656
 H     10.88945530    -55.67392362     55.57067271
 H      9.01169758    -57.03684664     55.60276258
 H      8.26882175    -56.07524790     56.90342780
 H      9.51682223    -56.22532991     58.59949579
 H     10.68254649    -57.29500759     57.78393265
 H      8.32514946    -58.70725115     57.84826223
 H      7.66531347    -57.26908461     58.66346782
 H      9.25932669    -57.69079993     60.53766233
 H      9.87782030    -59.11733964     59.67122321
 H      7.37675462    -59.89051858     60.06943353
 H      7.11962949    -58.32695869     60.88025645
 H      8.96778216    -59.56988919     62.44472082
 H      8.85374560    -60.90940552     61.27811964
 H      6.49722224    -61.25248120     61.87804923
 H      6.59724578    -59.91522160     63.04851867
 H      8.09875097    -60.67072215     64.49627395
 H      8.30512580    -62.20238471     63.61327570
 H      5.92819219    -62.74325507     64.07571036
 H      5.75627206    -61.20312247     64.95132540
 H      7.58139844    -62.53748173     66.43725496
 H      7.40843372    -63.84710165     65.24425642
 H      5.00727164    -64.03253535     65.99560985
 H      5.29520403    -62.71039946     67.15203463
 H      6.95705617    -64.28663406     68.25870791
 H      6.56329553    -65.50817610     67.02539762
 H      4.20268954    -65.31277188     68.18527006
 H      4.92953813    -64.09858406     69.26494858
 H      6.38398295    -66.16644402     69.97509933
 H      5.46476255    -67.12038139     68.78627468
 H      3.39410562    -66.75517665     70.03136694
 H      4.28068700    -65.79608077     71.24065401
 H      5.60117228    -67.79186833     71.84171822
 H      4.71014602    -68.74400066     70.63019732
 H      2.71820474    -68.12196598     72.26213541
 H      3.91736630    -67.24302503     73.24077784
 H      5.21248793    -69.08688776     73.81636271
 H      4.15016077    -70.18462051     72.90273779
 H      2.38470776    -69.40270010     74.64603881
 H      3.64899072    -68.37906370     75.36855095
 H      4.92317015    -70.44435374     75.92308900
 H      3.63221484    -71.42451175     75.18756786
 H      2.08044687    -70.55827132     76.94282499
 H      3.41510905    -69.60072282     77.62842283
 H      4.50670968    -71.87326614     78.08677964
 H      3.08210422    -72.65264232     77.35784979
 H      1.83062058    -71.56226871     79.34279474
 H      3.38746836    -70.88255709     79.87428677
 H      4.58540749    -72.67006198     80.32802440
 H      3.25966120    -73.77800529     79.90009328
 H      1.72809456    -73.19579178     81.44991168
 H      2.80692014    -71.97443717     82.16593889
 H      4.39118736    -73.77663455     82.77926881
 H      3.29519349    -74.97821003     82.05588753
 H      1.56570899    -75.20202973     82.78385967
 H      1.80006874    -73.98831054     84.06457350
 H      3.59081337    -75.27764299     85.07096598
 H      3.41050677    -76.53274135     83.82177251
 H      1.16452978    -77.06236462     84.52371808
 H      1.25179088    -75.82997260     85.80506975
 H      3.08187346    -77.09997764     86.87605560
 H      3.28796093    -78.04942663     85.70131333
 H      4.06642178    -78.21295489     84.94651128
 H      2.60016315    -79.20378929     84.75520132
 H      3.42256372    -80.03642870     87.14194715
 H      4.77595906    -78.89387164     86.96545041
 H      5.41818750    -80.38826272     84.96169283
 H      3.99399090    -81.39213330     85.32525103
 H      4.91003300    -82.01441971     87.49354645
 H      6.35649091    -81.02576288     87.17956579
 H      7.17351254    -82.15020928     85.36970898
 H      5.83996935    -83.32827172     85.41551409
 H      6.20671963    -84.28333843     87.42336519
 H      7.63344925    -83.26471027     87.73175767
 H      8.49868665    -84.57905690     85.61011798
 H      6.92753067    -85.41545895     85.59718896
 H      8.24287076    -86.08263393     87.97135270
 H      9.52063756    -85.01339834     87.34500303
 H      9.47067260    -86.99165449     85.51112964
 H      8.16733009    -87.70311130     86.49265609
 H      9.15924654    -88.13951789     88.40488459
 H     10.72885875    -87.52294987     87.83529872
 H     10.62018400    -89.41715949     86.12681174
 H      9.05176374    -89.89572060     86.81912945
 H      9.66394333    -90.45654735     88.90548056
 H     11.37520280    -90.08465111     88.58681009
 H     11.54330219    -91.80887151     86.90455198
 H      9.83790067    -92.25086540     87.15854752
 H     10.04597863    -92.93248171     89.36849031
 H     11.47491568    -92.41249644     89.57962347
 H     12.43903134    -91.81814633     89.86544325
 H     13.09444143    -92.97158490     88.67873194
 H     11.92143945    -94.14696263     91.07347456
 H     11.63754870    -92.42738489     91.43503380
 H     13.99162012    -91.93258673     91.51537153
 H     14.38448841    -93.63184412     91.15977979
 H     13.25392510    -94.17127197     93.37049044
 H     12.92777679    -92.43484320     93.58661326
 H     15.47615309    -92.19118520     93.63909946
 H     15.60384498    -93.95217173     93.41351598
 H     14.33424997    -93.46849182     95.86158693
 H     14.53753119    -91.75816896     95.41243317
 H     16.51328118    -91.26549446     95.26721779
 H     17.07795083    -92.89366279     95.71273179
 H     15.85524091    -92.29850784     97.95269778
 H     15.43353033    -90.73338920     97.21728601
 H     17.90535454    -90.25367258     97.12668780
 H     18.21516270    -91.84355590     97.86462858
 H     16.90864371    -90.79762149     99.86158194
 H     16.74014960    -89.31770425     98.88704546
 H     19.20261203    -89.05544386     98.91309210
 H     19.34444525    -90.53865065     99.88687217
 H     17.98509102    -89.00688274    101.57582054
 H     18.04277845    -87.74193545    100.32488202
 H     20.65915119    -88.14253244    100.99336071
 H     20.03482293    -89.36552173    102.12595865
 H     18.84576890    -87.55946967    103.34854437
 H     19.48950368    -86.36696338    102.19450757
 H     21.77764444    -86.85899713    102.90892779
 H     21.16375564    -88.05750492    104.07296656
 H     20.01398780    -87.35659600    105.48647386
 H     20.13530180    -85.66990009    104.93095025
 H     22.61134667    -85.84808150    105.43239084
 H     22.35182216    -87.52883001    105.95774607
 H     20.88898323    -86.21027256    107.75947946
 H     21.38763110    -84.72160802    106.92073345
 H     23.69107826    -84.98700278    107.39978071
 H     23.37208087    -86.49907244    108.28304323
 H     22.03175351    -85.26170124    109.93286596
 H     22.34700446    -83.74600905    109.05448068
 H     24.77541845    -84.05133436    109.57876622
 H     24.38189553    -85.55903971    110.43913297
 H     23.05242351    -84.39165479    112.08419335
 H     23.39670480    -82.83733312    111.28806447
 H     25.71678383    -82.89640790    111.65758654
 H     25.58801371    -84.46077585    112.49689450
 H     24.26232768    -83.67101742    114.26640632
 H     24.26941633    -82.02233686    113.59553463
 H     26.88667297    -82.93705620    114.34909829
 H     25.97693398    -84.40165720    114.79134885
 H     24.91232774    -82.63527330    116.47984666
 H     26.00293153    -81.43319200    115.74919585
 H     27.94569858    -82.71668313    116.57260666
 H     26.84465354    -83.91206160    117.29857964
 H     25.90636539    -82.26836824    118.80671626
 H     26.97652521    -81.01473432    118.13483339
 H     28.69216871    -82.81621171    119.24915550
 H     27.22808996    -83.72685706    119.69126988
 H     26.52574186    -81.83527651    121.12984000
 H     27.99808972    -80.94715752    120.66972794
 H     29.41484594    -82.63849165    121.69777253
 H     27.97560500    -83.56628832    122.18361768
 H     27.18239674    -81.79792910    123.61724117
 H     28.59029013    -80.79427013    123.19442731
 H     30.32357176    -81.75640569    123.84143226
 H     29.43765098    -83.13845717    124.52943280
 H     28.45187640    -81.28569489    126.08274216
 H     29.45689901    -80.11136812    125.20004581
 H     31.45831007    -81.37293400    126.08505505
 H     30.35044802    -82.48683734    126.92179138
 H     29.54690256    -80.56571094    128.28763021
 H     30.67184277    -79.49358140    127.41969332
 H     32.45783817    -81.03791992    128.53004077
 H     31.11423098    -81.94164705    129.26913729
 H     30.68318676    -79.65631665    130.45255687
 H     32.08400965    -79.01200669    129.56327259
 H     33.64259937    -80.47854481    130.59839247
 H     32.34910478    -81.22562328    131.56638637
 H     32.17212335    -78.81805743    132.55674351
 H     33.49208256    -78.34607399    131.45983604
 H     34.91121898    -80.00814502    132.77414863
 H     33.48698695    -80.36792198    133.77933037
 H     33.69991298    -77.88432269    134.46658164
 H     35.10759782    -77.76565657    133.38371120
 H     36.55887906    -79.14527532    134.25130556
 H     35.47299227    -79.59638855    135.58757403
 H     35.17941577    -77.73518193    136.68468126
 H     36.23616285    -76.81197141    135.58958556
 H     38.16575992    -78.15532939    136.20675103
 H     37.15985299    -79.11333284    137.31969635
 H     36.83231838    -76.92853973    138.59148754
 H     37.86031356    -76.11831241    137.38524367
 H     39.81026776    -77.20976818    137.72995228
 H     39.10535553    -78.21290731    139.02033101
 H     38.54104718    -76.79794528    140.56634232
 H     39.13656755    -75.39945734    139.64013843
 H     41.43189525    -76.43332618    139.81524261
 H     40.72340497    -77.78477738    140.73169657
 H     40.20620015    -75.81125534    142.41067169
 H     40.99025674    -74.72621085    141.23755601
 H     43.12276955    -75.85265122    141.50104120
 H     42.40329764    -76.97119989    142.68403558
 H     42.04230351    -74.83985296    144.08600622
 H     42.79325754    -73.90955506    142.76734003
 H     44.86475044    -74.77579585    142.76476979
 H     44.49044806    -75.87605174    144.11295425
 H     44.07032750    -74.12764934    145.66464033
 H     44.41929116    -72.89732708    144.42657807
 H     46.77388318    -73.86386797    144.39825705
 H     46.26705102    -75.03574349    145.63845687
 H     45.80887671    -73.38529573    147.28024979
 H     46.28712469    -72.08690579    146.16054935
 H     48.54647214    -72.84089397    145.99919437
 H     48.20919552    -74.18689494    147.11400042
 H     47.84960328    -71.71825698    148.44341252
 H     48.29726321    -71.04015987    146.85972961
 H     50.55306174    -72.24002504    147.34530843
 H     49.85055183    -72.79560898    148.88351289
 H     49.72765017    -70.32656773    149.49788315
 H     50.43663879    -69.93657743    147.91247804
 H     52.20156663    -71.46324916    149.59150297
 H     50.81746277    -71.36992430    150.70676691
 H     50.57707009    -69.27142047    151.14076117
 H     51.95428364    -68.79876597    150.11697056
 H     53.59706755    -69.91894050    151.31979666
 H     52.40246802    -70.51970408    152.49465058
 H     51.95969371    -68.14141917    153.13144690
 H     53.16736732    -67.61406776    151.93491374
 H     54.87931650    -68.85225222    153.31055761
 H     53.58958451    -69.32459801    154.44270049
 H     53.23497728    -66.93816071    154.99411137
 H     54.52776176    -66.48840591    153.85626447
 H     56.29034760    -67.50679004    154.85596782
 H     55.27398490    -68.12363485    156.18064741
 H     55.38399603    -65.25596320    156.10499223
 H     56.42209444    -65.57777024    154.69536158
 H     58.13481666    -66.64502857    155.56307713
 H     57.47393142    -66.55078371    157.21311206
 H     57.46089464    -64.29506209    157.48499345
 H     58.13728512    -64.02514609    155.86082969
 H     60.10144136    -64.97393557    155.94361401
 H     59.89385813    -65.47227643    157.63973672
 H     59.89057423    -62.62611992    157.33922322
 H     60.09426995    -63.04586389    155.62149515
 H     62.24132589    -64.09051628    156.04833213
 H     62.10427284    -63.70104238    157.77974578
 H     62.13194752    -61.28696734    157.18774137
 H     62.26743966    -61.72072258    155.46676347
 H     64.40246959    -62.78411595    155.77646215
 H     64.36951761    -62.39790760    157.51370823
 H     64.37494732    -60.18689593    157.51518751
 H     64.42277980    -60.09881436    155.73804926
 H     66.59644582    -61.20450141    155.69023927
 H     66.59155344    -61.31315568    157.46687569
 H     66.60440769    -58.73423558    157.34999421
 H     66.60247186    -58.87050764    155.57525681
 H     68.41598132    -59.84919620    155.03715013
 H     68.96829885    -59.98417160    156.72386103
 H     69.03919065    -57.53427287    156.90871950
 H     68.48741027    -57.38883659    155.22270249
 H     70.18359312    -58.35179591    154.12491444
 H     71.07832051    -58.67574964    155.62916958
 H     71.27717778    -56.28714573    156.08469914
 H     70.38703218    -55.91761084    154.58825287
 H     72.21203426    -56.95829039    153.27845159
 H     73.08333135    -57.31776230    154.78838139
 H     73.04353919    -54.63982171    154.82960545
 H     72.04779052    -54.59896787    153.66357613
 H     71.23246228    -54.63084634    152.70709591
 H     72.57627755    -55.36205785    151.79728445
 H     73.39224985    -52.81470713    152.55167677
 H     71.78798733    -52.71801038    153.31669845
 H     70.41463505    -52.87426664    151.59857429
 H     71.75031119    -52.99517009    150.42826738
 H     72.37948272    -50.64887089    151.19610970
 H     70.99987406    -50.68883093    152.32009805
 H     69.62930935    -50.84823653    150.11253461
 H     71.17373193    -50.79667763    149.22915064
 H     71.89197744    -48.73165457    149.84097946
 H     70.43985289    -48.44199499    150.82875387
 H     68.88278108    -48.52190207    149.12897344
 H     69.34864677    -49.13359545    148.39388174
 H     69.64384512    -50.10636729    147.68156861
 H     70.98674293    -49.06882911    147.14453355
 H     69.47888439    -47.40960486    146.24537081
 H     68.07626172    -48.38451799    146.74583130
 H     68.96535126    -50.13167735    145.11141544
 H     70.31057055    -49.03027133    144.72989675
 H     68.40309461    -47.50357938    143.85336262
 H     67.25170074    -48.77212932    144.33641527
 H     68.51218198    -50.16707527    142.54823054
 H     69.54177767    -48.74494475    142.25540946
 H     67.12912269    -47.82750140    141.51830022
 H     66.50864482    -49.43683324    141.95798750
 H     67.40507703    -50.85332510    140.69648217
 H     68.34047167    -49.63133451    139.80203121
 H     65.85553626    -48.87549588    139.20670650
 H     65.30865928    -50.23335933    140.21932641
 H     66.46173011    -51.73460511    138.52718945
 H     66.94235009    -50.28194680    137.61776386
 H     64.40245715    -49.95635897    137.31642390
 H     64.15449559    -51.44333956    138.26282258
 H     65.33996101    -52.70242742    136.46521784
 H     65.55934710    -51.18286767    135.56462106
 H     63.29699772    -50.74536539    135.21821879
 H     62.82538028    -52.22940193    136.08047119
 H     64.02690143    -53.50895928    134.27223220
 H     63.03385827    -51.98706865    133.38965665
 H     62.18942530    -51.36210727    133.05844002
 H     61.60674707    -52.86956725    133.80430673
 H     62.46717972    -54.42256956    132.48712968
 H     63.24123131    -53.21945044    131.42806633
 H     62.04538743    -52.00389390    130.49304107
 H     60.56585742    -52.73207115    131.16312727
 H     60.92985277    -54.85091537    130.15645025
 H     62.43819817    -54.27546545    129.40677149
 H     60.82015525    -52.65643731    128.16834227
 H     59.48278912    -53.41288052    129.06695908
 H     59.57019375    -55.51207716    128.31680455
 H     60.94388004    -55.15751355    127.24184535
 H     58.82346413    -53.61633451    126.34612814
 H     57.93281894    -54.35992419    127.69597710
 H     58.27125130    -56.56899236    126.52457560
 H     59.14912978    -55.71775896    125.23113146
 H     57.51801865    -54.39193800    124.42687867
 H     56.32656543    -55.02394026    125.58846338
 H     56.15762921    -57.13733428    125.07828573
 H     57.33152241    -57.00740172    123.74661048
 H     55.64043092    -55.41870184    122.68296393
 H     54.58651618    -55.65992416    124.09694490
 H     54.68337381    -58.13418680    123.04506883
 H     55.74927863    -57.43699573    121.80167099
 H     53.74336534    -56.01615739    121.14368131
 H     52.80767411    -56.80557141    122.43580131
 H     53.06140432    -58.97139137    121.27577750
 H     53.99598045    -58.17000052    119.99023993
 H     52.42449802    -56.76723590    119.17162528
 H     51.20089444    -57.34496724    120.32803672
 H     51.53486848    -59.59537232    119.07469358
 H     52.73526037    -58.77253294    118.04987100
 H     51.38768426    -57.23603973    117.05471556
 H     49.95254590    -57.82806834    117.92543174
 H     49.72794673    -59.88580583    117.21568730
 H     51.14074557    -59.76751235    116.13945649
 H     49.48535288    -57.93045021    115.08370543
 H     48.35027001    -58.37791301    116.37971106
 H     48.35002476    -60.68319965    115.23879524
 H     49.49408058    -60.03319987    114.04008626
 H     48.26011814    -58.43698807    113.07605533
 H     46.85001509    -58.79541593    114.10143600
 H     46.23797048    -60.77000534    113.67864379
 H     47.50745582    -61.01944978    112.45616634
 H     47.11641769    -59.59824329    110.90106765
 H     45.67662493    -58.94435803    111.71819527
 H     45.31521154    -61.68312990    111.03744418
 H     46.96892212    -61.51090974    110.40195365
 H     46.45917553    -59.92989133    108.76365306
 H     44.73904037    -59.93648491    109.22120987
 H     44.43728692    -62.23476325    108.62787909
 H     46.14216401    -62.36025510    108.13198337
 H     45.78760865    -60.70952550    106.36223763
 H     44.07738717    -60.56151185    106.83287668
 H     43.87722016    -63.01044653    106.16738822
 H     45.60590617    -62.99728457    105.74343293
 H     44.63299480    -61.22987232    103.98801669
 H     43.04174739    -61.53642156    104.72437658
 H     43.74713169    -63.94138132    103.64972247
 H     45.23704794    -63.11548823    103.13366352
 H     43.85433564    -61.62666188    101.70065010
 H     42.39002216    -62.47999296    102.24459748
 H     43.29365845    -64.54827377    101.17161273
 H     44.73316364    -63.63479857    100.66009095
 H     44.06600467    -62.11729915     99.33426789
 H     42.36138447    -62.61693746     99.44783818
 H     42.70066590    -64.75585373     98.51428892
 H     44.44060722    -64.43812326     98.31449353
 H     43.72985229    -62.58884498     96.71726159
 H     42.03228630    -63.02644868     97.02554615
 H     42.34871483    -65.23510807     96.06853817
 H     44.05574208    -64.86045982     95.73095361
 H     42.93284239    -63.05864048     94.17466880
 H     41.36018520    -63.67714420     94.73365823
 H     42.51377879    -65.78279274     93.41034828
 H     43.87998226    -64.67322613     93.14461031
 H     41.90195393    -63.44673758     91.79872433
 H     40.86579832    -64.79564093     92.32323168
 H     42.97831054    -65.69088299     90.62840211
 H     43.40674547    -63.96326973     90.63631414
 H     41.54337333    -63.11958171     89.63382030
 H     40.82127706    -64.73720413     89.46020769
 H     42.56258991    -65.51629419     88.01202424
 H     43.38156355    -63.93851124     88.10230045
 H     41.53802188    -62.79132530     87.06046027
 H     40.63645726    -64.31971464     86.92091135
 H     42.13054434    -65.48805824     85.60560732
 H     43.14640328    -64.14330652     85.42994580
 H     40.48213644    -65.77971303     85.22430887
 H     41.91960416    -66.49645072     85.99127712
 H     42.31521896    -65.91373946     83.20774914
 H     40.87500954    -65.17793208     83.28871055
 H     39.90188517    -64.51537459     83.37677531
 H     39.21365055    -66.11716086     83.73577465
 H     39.37918968    -67.44051318     82.29585108
 H     40.19373114    -66.31848462     81.17967870
 H     38.15470970    -64.90187732     81.18467032
 H     37.37289367    -66.04615823     82.30165356
 H     37.40775163    -67.85913109     80.77493242
 H     38.19058482    -66.84893304     79.53600596
 H     36.12910824    -65.41848734     79.54711806
 H     35.42318310    -66.48138270     80.78816190
 H     35.14430395    -68.35410068     80.17857555
 H     35.76106788    -68.04813594     78.53715711
 H     34.02354488    -66.47800301     78.02617061
 H     33.30952871    -66.70148279     79.64125710
 H     33.03573721    -69.15506202     78.60492170
 H     33.81882002    -68.50646975     77.14397131
 H     32.00192688    -66.95074082     76.75680950
 H     31.15798960    -67.55009279     78.20484740
 H     30.87886746    -69.75088866     77.35310938
 H     31.70137727    -69.30644566     75.83844285
 H     30.87297146    -67.94866954     74.75283766
 H     29.48470819    -67.73235416     75.84563197
 H     28.90604060    -70.14424951     75.32948630
 H     30.33148057    -70.22528115     74.26655572
 H     28.66014631    -68.34783631     73.13471220
 H     27.59091614    -68.70265538     74.51279671
 H     27.09346079    -70.84073982     74.17671355
 H     28.07167699    -70.92262032     72.69190538
 H     26.52114276    -69.22511483     71.69295506
 H     25.59802435    -69.20137547     73.21465000
 H     24.87152339    -71.36233336     73.23157907
 H     25.68558927    -71.71916939     71.68942750
 H     24.02222316    -69.92453410     70.78781805
 H     23.39967666    -69.76849767     72.44804549
 H     22.63534248    -72.09800851     72.40606324
 H     23.25055597    -72.27488968     70.74519236
 H     21.52542377    -70.49303113     70.13731443
 H     21.03677291    -70.44216442     71.84813282
 H     20.31700477    -72.83923195     71.59093992
 H     20.83914204    -72.78871811     69.89003202
 H     19.21728811    -71.10261755     69.32014769
 H     18.61941067    -71.07879560     70.99652525
 H     18.00118602    -73.56532187     70.36795118
 H     18.70043153    -73.24204823     68.76332770
 H     16.76686357    -71.51608370     68.61272022
 H     16.27349709    -72.02159502     70.24652391
 H     15.84092960    -74.30349090     69.18372963
 H     16.37154637    -73.63052466     67.62365625
 H     14.29549405    -72.09892841     67.94131002
 H     13.99209349    -72.93983202     69.48049678
 H     13.63495392    -75.04672772     68.24212278
 H     13.94061493    -74.19442089     66.70967014
 H     11.78315422    -72.89439035     67.44324278
 H     11.75688092    -73.91736735     68.89964055
 H     11.41767257    -75.90154802     67.44497868
 H     11.45052751    -74.84572454     66.01235033
 H      9.32081967    -73.83183789     67.09974572
 H      9.52094090    -74.99983263     68.42790476
 H      9.16288537    -76.83082618     66.76540442
 H      8.97471209    -75.60937767     65.48442002
 H      7.13978321    -74.52911113     66.19383022
 H      6.98100464    -75.57639741     67.62430129
 H      6.65391225    -77.30253654     65.56031364
 H      6.89354738    -75.88702862     64.50808790
 H      4.97537773    -74.73587896     65.25125903
 H      4.56370951    -76.05838545     66.36919128
 H      4.34995442    -77.35790239     64.08129043
 H      4.80496002    -75.83730763     63.27566761
 H      2.74720910    -74.78093927     64.14441701
 H      2.30520285    -76.30804547     64.94494422
 H      2.13483283    -77.43600894     62.78123639
 H      2.57371259    -75.92426564     61.95040343
 H      0.38748909    -75.02335347     62.95325868
 H      0.13442036    -76.61603612     63.70664096
 H     -0.00912355    -77.60831678     61.42914977
 H      0.24813414    -75.99516000     60.72217710
 H     -1.56435943    -74.90444335     61.44860841
 H     -2.18479628    -76.33876746     62.30068770
 H     -2.25939011    -77.26364812     59.83443883
 H     -1.61411121    -75.68838731     59.31440500
 H     -3.96094265    -74.94190073     60.33167641
 H     -4.23171547    -76.66141334     60.70346278
 H     -4.17082386    -77.07661402     58.21874113
 H     -3.89984592    -75.33646755     57.96042368
 H     -5.97275477    -74.66662853     58.87644142
 H     -6.41820393    -76.35794730     59.20702050
 H     -6.38466680    -76.87374788     56.81665988
 H     -5.93950683    -75.18940014     56.45186960
 H     -7.92395766    -74.24729442     57.30283372
 H     -8.54980543    -75.85520005     57.74012165
 H     -8.66805251    -76.75026050     55.62780875
 H     -8.06025586    -75.24869124     54.89015052
 H    -10.05152262    -74.04580383     55.70143339
 H    -10.65825378    -75.54800102     56.43869017
 H    -10.80708664    -76.55428135     54.17699782
 H    -10.19751666    -75.03852228     53.47048134
 H    -11.86633334    -73.62986656     54.05980237
 H    -12.77553229    -74.92866042     54.86897384
 H    -12.95785929    -76.03189493     52.60994517
 H    -12.03677130    -74.68173166     51.90501770
 H    -13.89028064    -73.15296004     52.55470584
 H    -14.77237516    -74.53514572     53.24733752
 H    -14.97416935    -75.63716844     51.12273965
 H    -14.10360571    -74.30710703     50.32191366
 H    -15.91881662    -72.75643143     50.94725587
 H    -16.90225741    -74.57348473     50.83182634
 H    -17.10115838    -75.35842445     49.78859084
 H    -16.26789214    -74.12999145     48.80630452
 H    -17.12854574    -72.36794445     48.76157433
 H    -18.48844616    -72.85983759     49.79935015
 H    -18.37537734    -74.29438702     47.30477775
 H    -16.93632016    -73.27267090     47.07352625
 H    -18.45822526    -71.28271924     47.12335171
 H    -19.84566570    -72.37340157     47.35505790
 H    -19.27912848    -73.31183854     45.06837387
 H    -17.92010964    -72.16642327     44.97163555
 H    -19.35395404    -70.24585564     45.02555574
 H    -20.79271968    -71.28935272     45.12216801
 H    -20.73146267    -72.39619281     43.21965779
 H    -19.25007465    -71.56849479     42.68237557
 H    -19.83061884    -69.47607941     42.52789779
 H    -21.50683866    -69.80475288     43.02842505
 H    -21.33519005    -71.19174053     40.73232655
 H    -19.65400784    -70.61376395     40.64380464
 H    -20.28801471    -68.31708529     40.47140367
 H    -22.01139152    -68.75604012     40.54595341
 H    -21.72036584    -70.00439975     38.40905743
 H    -20.00291865    -69.53743494     38.38485653
 H    -20.50624170    -67.19640994     38.20904827
 H    -22.25173627    -67.54478507     38.22130192
 H    -21.15384200    -68.71711173     35.93463285
 H    -19.62466651    -68.04742011     36.55221048
 H    -20.78664928    -65.77340111     36.18737426
 H    -22.21670176    -66.65953904     35.60601710
 H    -20.74940192    -67.49137285     33.72112051
 H    -19.39455922    -66.56190452     34.40577848
 H    -20.78441136    -64.49595494     33.93226075
 H    -22.06319672    -65.54627635     33.27666973
 H    -20.30852891    -66.17258327     31.50972269
 H    -19.17057126    -65.06909209     32.31943020
 H    -20.17046794    -63.10327194     32.07317685
 H    -21.53799968    -63.81457714     31.18313835
 H    -19.78517323    -64.45232457     29.43276120
 H    -18.54609670    -63.69398134     30.46129003
 H    -20.30830838    -61.68906836     29.67443161
 H    -21.14682559    -63.00704618     28.82114970
 H    -18.51903109    -62.59026480     27.79109023
 H    -18.47474146    -61.33286871     29.05016138
 H    -19.83156747    -59.88518658     28.75938422
 H    -20.45758965    -60.59888494     27.25372903
 H    -18.04665942    -60.15675729     26.40339942
 H    -17.66923864    -59.49079631     28.01035810
 H    -19.36404594    -57.69886887     27.55473524
 H    -19.68163969    -58.43172188     25.96403498
 H    -17.26194134    -57.87186500     25.42275059
 H    -17.09604985    -57.17620592     27.05272149
 H    -18.70040196    -55.46254635     26.68080017
 H    -18.97804172    -56.03537151     25.01855645
 H    -16.58747376    -55.47102570     24.52521435
 H    -16.39057221    -54.91892254     26.20589235
 H    -18.05715625    -53.14159496     25.80213197
 H    -18.24542199    -53.70335951     24.12366742
 H    -15.77607604    -53.03876522     23.88143911
 H    -15.79516416    -52.53570258     25.58872652
 H    -17.53342232    -50.80729272     24.75258799
 H    -17.34147916    -51.49345678     23.12145238
 H    -14.93355819    -50.69824006     23.25901684
 H    -15.27313450    -50.06274446     24.88662243
 H    -16.91541645    -48.49435714     23.81759935
 H    -16.51515163    -49.19112191     22.22933816
 H    -14.19693826    -48.00797937     23.17614249
 H    -15.18871831    -47.59328607     24.59482797
 H    -16.40873352    -46.22828055     22.61079802
 H    -15.16904002    -46.92155448     21.53804550
 H    -13.37780418    -45.79485824     22.68814145
 H    -14.53881677    -45.04828186     23.81194754
 H    -15.55224397    -43.85667888     21.87185842
 H    -14.36795484    -44.63252387     20.79306720
 H    -12.45836303    -43.71794392     21.67735525
 H    -13.38406656    -42.79771828     22.88753062
 H    -14.59334468    -41.45638136     21.53149980
 H    -13.85715664    -42.14937027     20.06655605
 H    -11.68724578    -41.12814161     21.11095636
 H    -12.69470131    -40.56054179     22.46414905
 H    -13.99456697    -39.11783078     21.03326392
 H    -13.03885350    -39.62388015     19.61947734
 H    -10.99461607    -38.78232336     20.37411007
 H    -11.74045519    -38.17866325     21.87330491
 H    -12.88053139    -36.83436540     19.68639426
 H    -11.95988325    -37.86967146     18.72952138
 H    -11.58851196    -38.69682204     18.04777989
 H    -10.10522189    -37.96704543     18.70773697
 H    -10.21962565    -35.88615590     17.98584223
 H    -11.75807645    -36.17138036     17.13726529
 H    -10.42258685    -37.82136402     15.71396245
 H     -8.97974725    -37.41556122     16.67406903
 H     -8.54716356    -35.38269858     16.37845573
 H     -9.90793019    -35.14034963     15.25691758
 H     -9.41841295    -36.46295893     13.57391882
 H     -7.90085158    -37.00979753     14.32640915
 H     -6.53723112    -36.37819711     14.81068335
 H     -6.98785494    -34.74960111     14.25132664
 H     -7.20685652    -35.06812993     12.05755821
 H     -6.77996115    -36.79170212     12.18135615
 H     -4.54864061    -36.23150470     12.99497674
 H     -4.93353760    -34.49711808     12.88532261
 H     -5.28140082    -34.21571635     10.72107698
 H     -4.95124533    -35.92636642     10.35646710
 H     -2.61687033    -35.55242002     11.19012872
 H     -3.03020083    -33.85430391     11.52751021
 H     -3.32482596    -33.94193414      8.86895447
 H     -2.86343910    -35.65725100      8.98330873
 H     -0.65392482    -35.07161692      9.82003002
 H     -1.06269412    -33.34188386      9.72412447
 H     -1.53485469    -34.65940697      7.17859607
 H     -0.87285103    -35.35833639      7.43091838
 H     -1.74894517    -32.69521081      6.94151041
 H     -2.62438224    -34.35018435      6.84561287
 H     -0.40281517    -32.26886743      5.98220485
 H     -1.45053059    -31.70184103      7.30471766
 H     -3.38634342    -31.79333499      5.75337738
 H     -2.30842329    -32.35988377      4.45515654
 H     -0.96021875    -30.50821250      4.30760370
 H     -1.86348930    -29.67060999      5.59243482
 H     -3.88264985    -29.47446684      4.69031401
 H     -3.38049302    -30.27801883      3.18352624
 H     -1.80962131    -28.16757425      3.06115286
 H     -2.52693267    -27.64861591      4.60530743
 H     -4.53365659    -27.29620615      4.39145921
 H     -4.54144711    -27.69146252      2.65595398
 H     -3.04534354    -25.84811927      2.15080417
 H     -2.99503138    -25.39756672      3.87206469
 H     -5.38425529    -24.90637883      3.86649961
 H     -5.48097250    -25.34634663      2.14448312
 H     -4.06881488    -23.66910062      1.35683836
 H     -3.81944823    -23.03559925      3.00145350
 H     -5.98345483    -22.41711505      3.45303709
 H     -6.53950327    -22.96208926      1.85238725
 H     -5.12779487    -21.30323403      0.74757623
 H     -4.54856195    -20.72949300      2.32984584
 H     -7.13328613    -20.13311085      2.52565594
 H     -7.31360695    -20.81815993      0.89272642
 H     -5.32983760    -19.00938392      0.44029926
 H     -5.63205889    -18.39843696      1.38298491
 H     -6.59283329    -19.74361836     -1.18470410
 H     -4.91779933    -19.76025871     -0.58283120
 H     -4.96727983    -17.23918022     -0.89960495
 H     -6.64419223    -17.38092523     -1.47938060
 H     -6.40864998    -18.60342098     -3.31273250
 H     -4.64245963    -18.70930924     -3.11875831
 H     -4.16101968    -16.46728193     -3.32056371
 H     -5.87767569    -16.05744192     -3.55162645
 H     -5.25293314    -17.63205969     -5.69969831
 H     -3.62714521    -17.71643990     -4.98000376
 H     -3.57641125    -15.18241248     -5.39632121
 H     -5.21510909    -15.31156338     -6.07915070
 H     -4.32382629    -16.75100716     -7.88327664
 H     -2.69307846    -16.60946693     -7.18406670
 H     -3.36727213    -14.05682878     -7.92644018
 H     -4.90126657    -14.78007189     -8.46685402
 H     -3.28955015    -16.03964027    -10.10904564
 H     -1.94720774    -15.15308461     -9.34720407
 H     -2.75949631    -12.99898040     -9.95862027
 H     -4.07344087    -13.68829683    -10.82823680
 H     -1.51669577    -12.72969647     -9.54920179
 H     -3.17642774    -12.37705548     -9.01142787
 H     -2.96435028    -11.24134563    -11.50632653
 H     -1.30371098    -11.88177914    -11.48661145
 H     -0.78643359    -10.41668654     -9.56166503
 H     -2.45174048     -9.78921090     -9.59763627
 H     -1.51087814     -8.98065574    -11.98053807
 H      0.01375168     -9.77494049    -11.51914632
 H     -0.17111508     -7.85424232     -9.65739384
 H     -1.69645763     -7.38959908    -10.44840803
 H     -0.01661017     -6.89591778    -12.42853851
 H      1.28327844     -7.44575017    -11.34399224
 H      0.42964851     -5.40174230     -9.90941819
 H     -0.67801290     -5.05986252    -11.16604373
 H      1.84400697     -5.58324464     -9.48375443
 H      0.18235766     -5.74188052     -8.86567444
 H      0.16107950     -3.16688777     -9.39467814
 H      1.84015410     -3.35104326     -9.95598190
 H      2.57894104     -4.00499557     -7.73122826
 H      0.91732990     -3.83511757     -7.11604004
 H      0.71367444     -1.54866580     -7.51819261
 H      2.36559657     -1.46524418     -8.17581011
 H      3.73932240     -1.96479917     -6.73246132
 H      2.50500525     -2.22232791     -5.47611472
 H      1.81557428      0.10566008     -5.57583989
 H      3.03278939      0.42667630     -6.83425263
 H      4.91595606     -0.03090088     -5.60862269
 H      3.95659169     -0.41280206     -4.15878196
 H      2.98332398      1.57985828     -3.77109790
 H      3.79036833      2.33159889     -5.16817776
 H      5.95890379      1.83511030     -3.90368610
 H      4.98235840      1.11501775     -2.60134494
 H      3.80022093      2.87599786     -1.90527629
 H      4.56938817      3.96243950     -3.08692471
 H      6.73133399      3.43402878     -1.80960256
 H      5.78103130      2.38328494     -0.73204567
 H      4.43856176      4.13530714      0.12200437
 H      5.28809735      5.33000323     -0.88757833
 H      6.07184221      5.33897950      1.46362384
 H      6.20877240      3.46450294      1.41561304
 H      4.72794998      4.45686901      2.38375644
 H      5.32588416      6.06610672      1.90753354
 H      6.19593638      3.53712151      3.56640358
 H      4.59784588      3.27749241      2.82683198
 H      3.92344165      5.25903080      4.37334118
 H      5.61012447      5.30296083      4.94029611
 H      4.95013051      2.89930404      5.79758072
 H      3.33859797      3.18546697      5.09805206
 H      4.00399308      4.99945093      7.23613359
 H      5.51632820      4.06092043      7.21971169
 H      5.15483140      2.09931383      7.69699340
 H      3.40677275      2.34982231      7.92015956
 H      3.86561516      3.88761475      9.78872338
 H      5.61368789      3.63715224      9.56561595
 H      4.81269071      1.17166054     10.23771796
 H      3.17068706      1.85131333     10.33852840
 H      3.58572592      3.33459854     12.07843962
 H      5.28584081      2.81818828     12.18425300
 H      4.93771718      0.62924784     12.77422542
 H      3.17037559      0.84034565     12.75979972
 H      2.77636216      2.30049882     14.31212661
 H      4.59243849      1.64084242     15.02076064
 H      5.49198361      1.07872689     15.38070010
 H      4.14302331     -0.08246384     15.36624826
 H      2.89295039      1.21395560     16.98505753
 H      4.20111923      2.41891273     17.05604530
 H      5.62766453      0.50788944     17.97207926
 H      4.21165823     -0.56114390     17.82938895
 H      3.05401461      0.87748314     19.51224683
 H      4.50300974      1.90700622     19.60585236
 H      5.96969351      0.34040349     20.42568119
 H      4.70916957     -0.91601162     20.45337833
 H      3.72605842      0.84383141     22.21346025
 H      5.17229162      1.82500019     21.87584502
 H      6.62960294      0.08623859     22.76445026
 H      5.21453912     -0.93238279     23.12260042
 H      4.34800115      0.68112695     24.70946850
 H      5.73664691      1.75198011     24.40417666
 H      6.75226796     -0.58472364     25.50255634
 H      5.36397609     -1.24415904     25.32907548
 H      4.43283237     -1.85838044     24.99063956
 H      3.64222729     -0.75485038     25.82083757
 H      2.94197953      0.09096874     25.77356049
 H      2.75369229     -1.43193890     26.97802366
 H      2.25374939     -2.47383140     26.84276430
 H      2.34714132     -2.43075833     25.79148022
 H      2.81597510     -2.82707801     24.79556499
 H      1.89919746     -1.42444027     24.19523773
 H     -0.17542686     -2.58864720     25.03082956
 H      0.84032118     -3.93703331     25.59507906
 H      1.44850241     -4.31140532     23.17415181
 H      0.40375443     -2.94099066     22.72835817
 H     -1.53956015     -3.29574143     23.20545877
 H     -1.21218577     -4.91991440     23.85596231
 H     -0.45702191     -5.63152654     21.60468954
 H     -0.79335731     -3.99791749     20.98302516
 H     -3.21642283     -4.44085057     21.55933451
 H     -2.74902391     -6.05212661     22.15397260
 H     -2.06287199     -6.45084021     19.69465882
 H     -2.59426371     -4.79008888     19.33717521
 H     -4.02404715     -7.36890939     20.33673748
 H     -2.29635160     -7.75285897     20.14721847
 H     -2.52385215     -8.33455268     18.07458171
 H     -2.43292162     -8.21855123     18.03252050
 H     -1.44113977     -8.68514950     18.12674332
 H     -1.17053912     -7.21674215     18.00319679
 H     -1.07746414     -5.91099816     17.74219947
 H     -1.94754872     -6.21920621     16.22028381
 H     -0.01365824     -7.68721751     15.55445829
 H      0.77121798     -7.31622261     17.10835622
 H      0.47335489     -4.82056314     16.51014322
 H      0.35081876     -5.06408663     15.29233572
 H      1.18459344     -4.95454785     18.00472566
 H     -0.22369093     -4.27324396     17.15571046
 H      1.10680163     -2.88013151     15.74241190
 H      2.59857302     -3.47540446     16.50957217
 H      1.76411390     -2.45053724     18.65100764
 H      0.35500842     -2.15882385     18.08691439
 H     -0.69012938     -2.48046373     18.17802102
 H     -0.43949947     -1.28134541     16.88667809
 H      0.30422726      0.00459529     19.18930226
 H     -0.10894290     -1.52493706     20.00052841
 H     -2.38871988     -1.48069014     19.44481767
 H     -2.19474999      0.06338359     18.58082770
 H     -1.57096192      1.46976807     20.11481002
 H     -1.37957093      0.40011451     21.28749855
 H     -0.81408608     -0.24256232     22.00579067
 H     -2.52600304     -0.71573818     22.12288728
 H     -2.09008049      2.02252749     22.85119473
 H     -0.40454776      1.60588782     22.45920306
 H     -0.72434579     -0.02842076     24.47913068
 H     -2.05118495      0.00695032     24.47367547
 H     -3.16996643     -0.32106121     24.31666147
 H     -3.40121589      1.38952929     24.75102367
 H     -2.47058267     -0.82063462     26.54521946
 H     -2.71540613     -0.86904444     26.53099699
 H     -0.85756940     -0.71129870     26.53630712
 H     -2.20034363     -1.85166626     26.28177647
 H     -3.06966213     -1.66898103     28.46006741
 H     -1.79764148     -0.51092197     28.91737404
 H     -0.08793154     -2.24645402     28.54484167
 H     -0.86029394     -3.10825060     27.81940759
 H     -1.33530659     -3.71994040     26.92863297
 H     -2.47488717     -4.14050154     28.22969066
 H     -1.08837492     -5.17572611     29.67161658
 H      0.20514603     -4.78677164     29.03094514
 H      0.98552811     -4.09708394     29.38426906
 H      1.18471400     -4.81791331     27.76903017
 H      1.27913109     -6.94360302     28.09635045
 H      1.11500067     -6.78159774     29.86130999
 H      3.29771903     -5.53205136     29.83217333
 H      3.29803634     -5.14601026     28.82539555
 H      4.37228726     -4.68104851     28.26364525
 H      3.35281628     -5.83858495     26.90798521
 H      5.66583411     -6.01596948     28.05945787
 H      5.29581364     -4.00694279     27.80731113
 H      6.34257615     -4.95004805     26.23263307
 H      5.30277837     -4.63939662     25.90580343
 H      5.39855150     -4.10710711     24.71897958
 H      6.41800896     -4.82117836     24.87157508
 H      6.83009101     -3.40501181     24.68486933
 H      7.14601240     -4.39816118     24.16947905
 H      8.14926763     -4.69380538     24.56097341
 H      7.69174374     -2.67768505     24.48146210
 H      8.68272591     -2.98298690     22.78066433
 H      7.28719324     -2.35274306     22.86698975
 H      7.78164604     -1.78967707     21.61462633
 H      8.64663718     -2.33804066     21.53476460
 H      8.71250008     -2.20370318     20.21790972
 H      7.87260049     -1.49048133     20.36088856
 H      8.32914473     -1.17511642     19.12933026
 H      9.36684383     -1.62080523     19.21504007
 H      8.23196096     -0.46149820     18.31944459
 H      8.89663151     -0.02296956     19.26626734
 H      8.71454391      1.12549376     18.58200602
 H      8.16376157      0.52345486     17.54763099
 H      7.76704610      1.52466481     16.92703300
 H      8.39840707      2.24212069     17.94445993
 H      8.05075890      3.22942723     16.95614470
 H      7.56616009      2.39443681     16.07443396
 H      7.97771524      3.12182470     15.21144538
 H      9.13383810      3.58883163     16.48170171
 H      7.51336640      4.32403900     16.43917809
1502
Final Conformation Chain 9 (Simulation Frame 10)
 C      0.00000000      0.00000000      0.00000000
 C      1.54000000      0.00000000      0.00000000
 C      2.16637443      1.14631240      0.81561201
 C      3.70085189      1.22384426      0.71088507
 C      4.29900448      2.54085876      1.23936050
 C      5.73952401      2.80917159      0.76553383
 C      6.39365386      4.04202100      1.41653036
 C      5.72977106      5.37816620      1.03498663
 C      6.66889397      6.59473034      1.13306759
 C      7.90339625      6.50856104      0.21645483
 C      8.64463440      7.84640482      0.03662154
 C      9.94361026      7.73750025     -0.78337939
 C     10.40153589      9.06719364     -1.41092987
 C      9.49181132      9.56955935     -2.54742883
 C      9.81484939      8.95993901     -3.92424016
 C     11.22022152      9.30779981     -4.44914210
 C     11.33850217      9.28625790     -5.98444195
 C     12.68983444      9.79922423     -6.51582378
 C     12.75766374      9.91151902     -8.05022563
 C     13.97080497     10.70700049     -8.56704049
 C     14.34172572     10.40316208    -10.03049532
 C     15.46856327     11.29217943    -10.58860398
 C     15.94237892     10.89177394    -11.99813375
 C     16.88177303     11.91811262    -12.65826073
 C     17.42018599     11.48082292    -14.03321135
 C     18.63640346     12.29243070    -14.51664478
 C     19.24961528     11.77830475    -15.83241291
 C     20.57070502     12.46855523    -16.21955138
 C     21.83073317     11.71666810    -15.75201016
 C     23.14193384     12.25877746    -16.35073402
 C     24.39812454     11.48254899    -15.91363646
 C     25.68118312     11.89742097    -16.65743880
 C     26.95383186     11.19278027    -16.15202149
 C     28.09658467     11.14798806    -17.18338450
 C     29.18830256     10.10985648    -16.86395549
 C     30.09263578      9.76326340    -18.06130868
 C     31.29824754      8.87601022    -17.69953242
 C     32.12013425      8.40977291    -18.91556079
 C     33.51804552      7.87180954    -18.55773472
 C     34.47882465      7.77726934    -19.75755371
 C     34.85702062      9.14044793    -20.36608634
 C     35.99337319      9.06989033    -21.40306485
 C     36.28894838     10.41066045    -22.10061113
 C     37.72154089     10.52657401    -22.65364166
 C     37.95614828     11.77154648    -23.52920029
 C     37.04894930     11.84360813    -24.77153564
 C     37.34418612     13.04078633    -25.69414042
 C     36.81609323     12.86974239    -27.13061592
 C     37.34001235     13.92665348    -28.12058951
 C     36.47362753     14.08558916    -29.38380635
 C     36.87528401     15.27706570    -30.27299460
 C     36.61004134     15.05604624    -31.77379329
 C     37.21609628     16.14089948    -32.68340357
 C     37.03131653     15.87145386    -34.18834726
 C     37.67973285     16.93096224    -35.09862100
 C     37.57052002     16.61644234    -36.60219999
 C     37.99866552     17.77826356    -37.51787619
 C     37.84149110     17.48186520    -39.02088790
 C     38.27968071     18.63972302    -39.93683285
 C     38.15075412     18.33226506    -41.44031133
 C     38.59785704     19.48666493    -42.35631346
 C     38.48927187     19.17134570    -43.85977049
 C     38.83639095     20.35971651    -44.77567614
 C     38.58339196     20.09276251    -46.27111155
 C     38.99116928     21.25701630    -47.19297422
 C     39.09506429     20.87147530    -48.68030874
 C     39.30014866     22.07008089    -49.62523468
 C     38.97055118     21.76927578    -51.09916880
 C     39.21331720     22.95603161    -52.05010269
 C     38.76292419     22.69905686    -53.50017514
 C     39.25982056     23.75348554    -54.50659163
 C     39.41707086     23.22261233    -55.94361842
 C     39.81798536     24.29953838    -56.96884905
 C     40.00135150     23.76366450    -58.40091611
 C     40.69809780     24.75156792    -59.35495563
 C     41.57129199     24.07556323    -60.42833794
 C     42.29252821     25.06438320    -61.36303220
 C     43.35366545     24.41078676    -62.26768653
 C     44.09706873     25.40429589    -63.17976722
 C     45.07388694     24.73831968    -64.16663189
 C     45.55958816     25.67031418    -65.29227862
 C     46.51263276     24.99582143    -66.29645267
 C     46.87694908     25.87883934    -67.50440672
 C     47.60669465     25.12659185    -68.63276621
 C     48.39738415     26.04158279    -69.58628688
 C     49.49665937     25.31514269    -70.38345612
 C     50.24765975     26.21746207    -71.38015977
 C     51.54769577     25.59965223    -71.92771557
 C     52.05689062     26.25811394    -73.22338095
 C     53.46266704     25.79627891    -73.65011396
 C     54.11842807     26.69082849    -74.71845778
 C     55.54063366     26.25300802    -75.11499843
 C     56.03807266     26.86406353    -76.43816342
 C     57.55913082     26.74781093    -76.64903641
 C     58.03967695     27.23818002    -78.02751876
 C     59.57115868     27.32982948    -78.16080080
 C     60.06078856     27.58151206    -79.59903529
 C     61.59277826     27.66100084    -79.73427245
 C     62.08212507     27.92026834    -81.17125542
 C     63.57802790     28.27271137    -81.26953378
 C     64.02790750     28.70783064    -82.67661571
 C     65.47303203     29.23661920    -82.73659692
 C     65.93837045     29.62862641    -84.15130202
 C     67.37599691     30.17781165    -84.20809776
 C     67.89580892     30.42582053    -85.63634391
 C     69.22361906     31.20380994    -85.69337657
 C     69.53548679     31.81019909    -87.07418456
 C     70.97450947     32.34028815    -87.21496564
 C     71.29100659     32.93279108    -88.60073973
 C     72.74710990     32.72060618    -89.05498714
 C     73.08261155     33.37427266    -90.40841198
 C     74.51798969     33.10336299    -90.89615940
 C     74.84065672     33.72312442    -92.26852296
 C     73.93591912     33.22300707    -93.40998365
 C     74.02400495     34.06739991    -94.69483446
 C     73.29888524     33.44658662    -95.90330138
 C     73.43175713     34.26444778    -97.20139544
 C     72.48174869     33.81293392    -98.32621507
 C     72.82552169     34.39758717    -99.70882156
 C     72.03453382     33.76683613   -100.86989490
 C     71.91012367     34.67349624   -102.10847859
 C     71.48331445     33.93066218   -103.38817834
 C     71.72550748     34.72605059   -104.68444213
 C     71.43707257     33.93011754   -105.97086970
 C     71.97427121     34.59441381   -107.25216907
 C     71.59255645     33.85537561   -108.54820779
 C     72.30228043     34.38963165   -109.80616739
 C     71.74635188     35.73205775   -110.31649634
 C     72.81326458     36.66123810   -110.92470778
 C     72.27081732     38.03327046   -111.36615786
 C     73.35738181     39.00799699   -111.85695903
 C     72.80381984     40.32398529   -112.43431849
 C     73.79033685     41.50422808   -112.36075811
 C     73.11243238     42.88682954   -112.33934018
 C     74.06668726     44.04714791   -112.00072696
 C     73.41226450     45.43907048   -112.07742391
 C     74.28841475     46.57488067   -111.51715971
 C     73.64186373     47.96940017   -111.61143132
 C     74.35885524     49.04971574   -110.78050327
 C     74.03190170     50.49144268   -111.21192513
 C     74.71989088     51.57223340   -110.35742977
 C     74.37684571     53.01401863   -110.77596934
 C     75.50204348     54.02970346   -110.50409753
 C     75.20808517     55.44631299   -111.03173941
 C     76.15061381     56.52990118   -110.47579301
 C     75.76247069     57.96459907   -110.87901364
 C     76.70771436     59.04782229   -110.32697934
 C     76.36068848     60.47581048   -110.78743864
 C     77.34766122     61.55018767   -110.29428708
 C     76.91438485     62.99292441   -110.61425938
 C     77.97935825     64.05483600   -110.28293564
 C     77.94536837     65.28582221   -111.20766135
 C     78.75373168     66.48660320   -110.68204381
 C     78.71460700     67.71971528   -111.60372915
 C     79.58095225     68.89516030   -111.11446959
 C     79.90508014     69.93146240   -112.20654059
 C     80.79624483     71.09131730   -111.72470856
 C     81.07666321     72.15518003   -112.80228066
 C     82.03047228     73.27421421   -112.34444797
 C     81.89317069     74.58150905   -113.14677488
 C     82.66351176     75.77063954   -112.54333198
 C     82.61607218     77.04824285   -113.40186518
 C     83.35103191     78.24943732   -112.77851453
 C     83.51155715     79.44867156   -113.73123111
 C     84.04186647     80.72365622   -113.04947886
 C     84.08788577     81.95501001   -113.97319423
 C     84.37042003     83.27878078   -113.23875203
 C     84.55011309     84.48841783   -114.17474807
 C     84.63829043     85.83992528   -113.44177305
 C     84.40591049     87.06151741   -114.35024002
 C     84.87510000     88.39491319   -113.73907973
 C     84.59549105     89.62292949   -114.62530475
 C     84.93825629     90.96793564   -113.95816874
 C     84.38455996     92.19620293   -114.70407748
 C     85.06423794     93.52285585   -114.31725729
 C     84.56751516     94.73884131   -115.12115146
 C     85.01411708     96.09540790   -114.54506658
 C     84.47202817     97.31274315   -115.31696976
 C     84.76518819     98.66472440   -114.64035769
 C     83.96347262     99.84354091   -115.22280406
 C     84.35073731    101.21436282   -114.63759184
 C     83.64625923    102.40549907   -115.31324342
 C     84.13774328    103.78167536   -114.82725756
 C     83.35092207    104.96979873   -115.41110278
 C     83.35317791    106.22299688   -114.51606685
 C     82.76822581    107.47680108   -115.19238488
 C     82.64561969    108.69372085   -114.25661032
 C     82.80134516    110.05003250   -114.96918893
 C     83.13910923    111.21862843   -114.02478489
 C     83.08671512    112.60291460   -114.69754537
 C     83.37033841    113.77560806   -113.74049371
 C     83.41135509    115.15161747   -114.43079491
 C     83.68097542    116.32582575   -113.47155573
 C     83.43419113    117.71258689   -114.09412385
 C     82.97415720    118.77989618   -113.08376764
 C     82.35799805    120.03293572   -113.73325961
 C     82.16025114    121.20995898   -112.76006260
 C     81.19062641    122.29079715   -113.27310912
 C     80.42636512    123.02730025   -112.15728303
 C     79.41569735    124.06880196   -112.67247700
 C     78.62537793    124.77936054   -111.55798082
 C     77.55191917    125.75475871   -112.07555659
 C     77.02661769    126.73221179   -111.00773458
 C     75.92514446    127.68139254   -111.51509305
 C     75.26552999    128.52413008   -110.40770775
 C     73.88248380    129.08508069   -110.78733604
 C     73.22635026    129.93439632   -109.68291233
 C     71.73027140    130.21626328   -109.91507405
 C     71.08208539    131.09352440   -108.82793660
 C     69.59109622    131.39264999   -109.07099047
 C     68.85412202    131.94638172   -107.83735754
 C     68.33614497    130.85959485   -106.87704817
 C     67.92219950    131.39249370   -105.49275486
 C     67.77405697    130.29848252   -104.41907272
 C     67.51777269    130.84275366   -103.00143832
 C     67.14124255    129.75981771   -101.97329690
 C     66.62577680    130.31946649   -100.63438380
 C     66.47354987    129.25815165    -99.52892564
 C     65.72953151    127.98715176    -99.97903227
 C     65.51225128    126.95728910    -98.85485604
 C     64.68081437    125.73254319    -99.27948544
 C     64.65993611    124.59810083    -98.23823396
 C     63.64567765    123.48160655    -98.54858910
 C     63.87220149    122.18819871    -97.74398789
 C     63.24676917    120.93480987    -98.38387134
 C     63.73759976    119.60877376    -97.77369629
 C     63.02397675    118.36192786    -98.32841918
 C     63.63584108    117.02907089    -97.85861674
 C     62.89786994    115.78243890    -98.38102204
 C     63.38700774    114.45978699    -97.76220370
 C     62.59288045    113.22243708    -98.22038167
 C     62.99306956    111.92015189    -97.50239703
 C     62.49327760    110.64133445    -98.19984521
 C     62.19341470    109.47844915    -97.23580163
 C     61.70506602    108.19579780    -97.93431511
 C     61.60996158    106.97287490    -97.00317885
 C     61.49745502    105.62801826    -97.74500288
 C     61.92573207    104.41105972    -96.90405657
 C     61.73119336    103.05880658    -97.61480697
 C     61.86140666    101.83805779    -96.68506674
 C     62.07405881    100.50545119    -97.42704969
 C     62.35289214     99.30902091    -96.49839121
 C     62.18903555     97.93693356    -97.17819069
 C     62.59922566     96.74596669    -96.29222117
 C     62.44124219     95.37427562    -96.97420711
 C     62.54990331     94.17886023    -96.00944040
 C     62.17241064     92.82670147    -96.64250120
 C     62.00058768     91.68444000    -95.62401429
 C     61.98338614     90.27981036    -96.25514003
 C     62.19324631     89.13658038    -95.24490050
 C     61.99011504     87.73043531    -95.83911742
 C     61.86197195     86.61674709    -94.78323963
 C     62.15336741     85.20451032    -95.32386519
 C     61.59012326     84.06995599    -94.44799848
 C     61.31842481     82.76249148    -95.21501641
 C     60.58448748     81.69142739    -94.38691152
 C     60.35015714     80.36889408    -95.14030049
 C     59.58638056     79.30977998    -94.32389210
 C     59.21147374     78.05034827    -95.12693421
 C     58.77697474     76.85773336    -94.25487899
 C     57.99052263     75.77656252    -95.01918437
 C     57.59023893     74.56549424    -94.15623212
 C     56.77597496     73.49930377    -94.91241468
 C     55.96462616     72.56443821    -93.99625994
 C     55.27801647     71.40217926    -94.73742206
 C     54.57970289     70.39211233    -93.80805510
 C     54.02613984     69.15187814    -94.53399389
 C     53.56211279     68.02802531    -93.58888347
 C     52.63849510     66.99111734    -94.25473046
 C     52.47779418     65.68760595    -93.45059535
 C     51.11229173     65.00056368    -93.63761405
 C     50.84155727     63.86212223    -92.63648773
 C     49.51441882     63.11886569    -92.87705632
 C     49.20411571     62.03541909    -91.82755384
 C     48.06814907     61.07785667    -92.23283644
 C     48.49643135     59.98379000    -93.22842291
 C     47.70669559     58.66876513    -93.09194212
 C     48.26845432     57.70837191    -92.02720177
 C     48.01322035     56.21997954    -92.32910204
 C     48.58479415     55.25906186    -91.27007390
 C     48.45151159     53.76976256    -91.63861613
 C     49.09192817     52.81190781    -90.61686232
 C     49.56669107     51.47744814    -91.22136013
 C     50.12008712     50.48195222    -90.18485606
 C     50.26043862     49.04189135    -90.71223273
 C     50.76339528     48.03584070    -89.66033128
 C     51.08250170     46.64106466    -90.22986697
 C     50.83817865     45.48858273    -89.23805467
 C     51.04707153     44.08747670    -89.84209579
 C     51.30371668     42.98645413    -88.79639863
 C     51.85825739     41.67738560    -89.38836501
 C     52.18153231     40.60124283    -88.33526954
 C     52.97478626     39.40247119    -88.88780436
 C     53.49465138     38.44155200    -87.80245899
 C     54.29403614     37.24663838    -88.35451466
 C     54.94196978     36.37019403    -87.26656829
 C     55.66759158     35.12690777    -87.81366270
 C     56.23671473     34.20253008    -86.72131444
 C     56.69560058     32.82741090    -87.24099801
 C     57.45386019     31.98496568    -86.19843942
 C     57.78328365     30.55568400    -86.66773045
 C     58.72732274     29.78834181    -85.72349735
 C     59.04490666     28.35390032    -86.18514446
 C     60.19172676     27.68436530    -85.40531979
 C     60.48108954     26.23506676    -85.83822038
 C     61.75896868     25.63954050    -85.21856453
 C     62.01366509     24.16942185    -85.59998409
 C     63.08754093     23.47641658    -84.74083662
 C     63.06087518     21.93894398    -84.82490166
 C     64.01115106     21.24089454    -83.83429440
 C     63.78327047     19.72279108    -83.71168801
 C     64.73984660     19.02321725    -82.72824581
 C     64.52719281     17.50160966    -82.62294291
 C     65.59708858     16.77606146    -81.78598243
 C     65.35823886     15.26162274    -81.64097841
 C     66.21212254     14.59479715    -80.54652590
 C     65.78104173     13.15628246    -80.20528578
 C     66.81628765     12.37172103    -79.37804385
 C     66.35607232     10.95789286    -78.97693071
 C     67.32822711     10.22721752    -78.03214045
 C     66.88687354      8.79914252    -77.66145350
 C     67.76177498      8.13316607    -76.58320360
 C     67.47569168      6.63329460    -76.38284909
 C     68.35345349      5.96638441    -75.30750496
 C     68.05402542      4.47101490    -75.09346559
 C     68.71033377      3.87474936    -73.83436799
 C     68.34530008      2.40114658    -73.57582352
 C     69.01073582      1.80149445    -72.32314135
 C     68.71820194      0.30399200    -72.11455006
 C     69.38951582     -0.29735963    -70.86582515
 C     69.23715894     -1.82520677    -70.74720611
 C     69.20854857     -2.34107759    -69.29646191
 C     68.37912431     -3.62431422    -69.10421426
 C     68.40965635     -4.18067097    -67.66854893
 C     67.49228613     -5.39795226    -67.44887159
 C     67.43513185     -5.88379227    -65.98863432
 C     66.85571559     -7.30089516    -65.82221258
 C     66.38822670     -7.62231225    -64.39051946
 C     65.50289383     -8.87819165    -64.28779337
 C     64.94227817     -9.13564855    -62.87675615
 C     64.03847072    -10.37870192    -62.77902992
 C     63.39395262    -10.57724255    -61.39455239
 C     62.12958138    -11.45624437    -61.41247330
 C     61.59061921    -11.80692141    -60.01313581
 C     60.26100074    -12.58371651    -60.03057381
 C     59.78572693    -13.04321749    -58.63968428
 C     58.38206698    -13.67671378    -58.63508173
 C     57.76570261    -13.82350296    -57.23146216
 C     56.29844554    -14.29117904    -57.23744536
 C     55.84413743    -14.94529881    -55.91936666
 C     54.34316787    -14.77455204    -55.62014113
 C     53.99420766    -14.82009393    -54.12089041
 C     52.54670404    -14.40240626    -53.80171915
 C     52.17039300    -14.53377335    -52.31419346
 C     50.75796466    -14.02052408    -51.97770965
 C     50.42438981    -14.04459016    -50.47446361
 C     49.03212291    -13.48209353    -50.13271750
 C     48.69707035    -13.50958184    -48.62985883
 C     47.35704850    -12.83901989    -48.27448843
 C     46.93624594    -13.02057313    -46.80426272
 C     45.65436408    -12.25807030    -46.42089824
 C     45.22489764    -12.45212357    -44.95478027
 C     44.31901659    -11.33040876    -44.41372999
 C     43.63341500    -11.66892391    -43.07695852
 C     42.63762086    -10.59769792    -42.59480820
 C     41.91683311    -10.95793508    -41.28244613
 C     40.78052099     -9.98922872    -40.90561355
 C     40.25937763    -10.16435523    -39.46709337
 C     39.30475687     -9.04720275    -39.00636618
 C     38.80929906     -9.20493608    -37.55680013
 C     37.78185285     -8.14142519    -37.12680145
 C     37.00986751     -8.49920577    -35.84320038
 C     35.77318290     -9.38519679    -36.08243059
 C     34.78439106     -9.41246607    -34.90211407
 C     33.47959868    -10.17601014    -35.19557156
 C     32.29599271     -9.75997295    -34.30249264
 C     31.18017264    -10.81720819    -34.20868850
 C     29.77056614    -10.26733145    -34.49547255
 C     28.63081122    -11.17091899    -33.98942089
 C     27.22181954    -10.65703003    -34.33907870
 C     26.09468630    -11.31306475    -33.52006155
 C     24.69826180    -10.72327698    -33.79162924
 C     23.54477819    -11.53289517    -33.17066713
 C     22.14897196    -10.93828867    -33.43480363
 C     20.98748659    -11.83437687    -32.96621249
 C     21.21897685    -12.49312355    -31.59359998
 C     20.55714721    -11.74615070    -30.42073465
 C     20.65860380    -12.48256661    -29.07203225
 C     19.69928133    -11.94767869    -27.99259012
 C     20.03352799    -12.42294727    -26.56640678
 C     19.26333558    -11.67702520    -25.46096392
 C     19.91796724    -11.76917529    -24.07007724
 C     19.12402265    -11.06197650    -22.95602076
 C     19.79373004    -11.12820196    -21.57084705
 C     18.84122596    -10.82469145    -20.39943024
 C     19.55553251    -10.59587877    -19.05443548
 C     18.62777098    -10.10313911    -17.92835103
 C     19.21015348    -10.28143026    -16.51391019
 C     18.36085234     -9.63926453    -15.40129582
 C     16.92796910    -10.19563499    -15.30696907
 C     16.13717405     -9.68606671    -14.08771382
 C     14.89197457    -10.52786334    -13.75236821
 C     14.02341568     -9.93979573    -12.62481247
 C     12.56957110    -10.44766947    -12.62434146
 C     11.78399530    -10.09701124    -11.34703591
 C     10.31991297    -10.57435924    -11.36124161
 C      9.64299987    -10.56013304     -9.97806185
 C      8.12569514    -10.82009675    -10.02054984
 C      7.41146700    -10.58156732     -8.67720257
 C      7.48743782     -9.12704433     -8.17701129
 C      6.44939934     -8.78246071     -7.09288112
 C      6.55532156     -7.34160546     -6.55966762
 C      5.30677604     -6.86309233     -5.79562622
 C      5.52058181     -5.56339219     -4.99771228
 C      4.22899746     -4.97665501     -4.39842158
 C      4.46652132     -3.82254803     -3.40684732
 C      4.95605181     -2.52022607     -4.06708774
 C      4.88866805     -1.28750313     -3.14651532
 C      5.34309740      0.02157880     -3.81837724
 C      5.09447616      1.28119407     -2.96799093
 C      5.07721439      2.59065148     -3.77831391
 C      4.98495049      3.86139626     -2.91327341
 C      4.77534529      5.15542725     -3.72145003
 C      4.89553214      6.44279743     -2.88488971
 C      4.80643046      7.73833070     -3.71269066
 C      5.33265337      8.98684731     -2.98064167
 C      5.36401007     10.25672906     -3.85128345
 C      6.00594421     11.47417632     -3.16038351
 C      5.95049250     12.76836788     -3.99320600
 C      7.11709678     13.73694867     -3.72397424
 C      8.34227473     13.50866003     -4.62864174
 C      9.44883155     14.56687094     -4.46334911
 C     10.73765784     14.25290840     -5.24562421
 C     11.92783794     15.15997819     -4.88189943
 C     13.13367773     15.02127432     -5.82969247
 C     14.20302594     16.11429069     -5.64690953
 C     15.62365242     15.67369799     -6.04603168
 C     16.60187215     16.84174324     -6.27043412
 C     17.88219192     16.44923347     -7.03090592
 C     18.73068394     17.64947760     -7.49033527
 C     19.60519442     17.36233847     -8.72499414
 C     20.75155526     18.37028314     -8.92872038
 C     21.55892713     18.14783417    -10.22110852
 C     22.66548042     19.19278935    -10.45607341
 C     23.40675534     19.02963679    -11.79603338
 C     24.45731272     20.12237445    -12.06779353
 C     24.61228096     20.48597663    -13.55620822
 C     25.69993371     21.54036506    -13.83347441
 C     25.91597607     21.83918101    -15.32867832
 C     26.45291026     20.64232802    -16.13542772
 C     27.97804429     20.45348814    -16.03590046
 C     28.44418129     19.00051635    -16.24372078
 C     27.79164124     17.98977558    -15.28237039
 C     28.59473717     16.68814983    -15.10235000
 C     27.86690086     15.61243406    -14.27489011
 C     28.73140882     14.37977622    -13.95119172
 C     28.14377823     13.47331924    -12.85363716
 C     28.74902520     12.05764347    -12.81989937
 C     28.30651011     11.21593943    -11.60857171
 C     27.97693846      9.75100772    -11.95056237
 C     26.70548795      9.21831893    -11.26408129
 C     25.40765141      9.50086304    -12.04343304
 C     24.28243861     10.11008416    -11.18649327
 C     23.05380746     10.56371728    -11.99660592
 C     22.61418406     12.01151383    -11.70987191
 C     23.65550952     13.07320840    -12.10992934
 C     23.94758230     14.11001918    -11.00933092
 C     25.24557423     14.90887366    -11.22989495
 C     25.58355641     15.88303099    -10.08604814
 C     26.91008033     16.64084484    -10.28009051
 C     27.49806268     17.21767938     -8.97888389
 C     28.64905833     18.21653420     -9.20046473
 C     29.81562765     17.65327105    -10.03320156
 C     30.40491352     18.65498230    -11.04360581
 C     31.29340096     18.00750568    -12.12201394
 C     32.41321774     17.11379541    -11.55730841
 C     33.42048929     16.62765877    -12.61592789
 C     32.76892658     15.95205959    -13.83684222
 C     33.72785307     15.05653005    -14.64312184
 C     33.14507775     14.55756833    -15.97841586
 C     31.89524978     13.67115905    -15.82411534
 C     31.43090911     13.00947204    -17.13490062
 C     30.62392021     13.94304823    -18.05620643
 C     30.39605039     13.38199316    -19.47214872
 C     29.41066759     14.20622645    -20.32141913
 C     28.08942149     14.53732958    -19.60289323
 C     26.96135040     14.99547370    -20.54584582
 C     25.75795187     15.62758191    -19.82205637
 C     26.14515520     16.66234812    -18.74924116
 C     24.94142517     17.30282073    -18.03339980
 C     23.97013394     16.28445096    -17.40800684
 C     23.35817925     16.74200862    -16.07093824
 C     22.41546899     15.70831419    -15.42721999
 C     21.62001408     16.24943007    -14.22470384
 C     20.55870859     15.27269065    -13.68506437
 C     19.67152269     15.86326601    -12.57343407
 C     19.15652467     14.82130530    -11.56313960
 C     20.25279535     14.23483370    -10.65438129
 C     19.71935277     13.30128603     -9.55187154
 C     20.72270639     13.03924990     -8.41335558
 H     -0.36333333      0.00000000      1.02766186
 H     -0.36333333     -0.88998127     -0.51383093
 H     -0.36333333      0.88998127     -0.51383093
 H      1.88274777      1.00906937      0.22891694
 H      1.88274777      1.02799631     -0.11767561
 H      3.24594980      0.99822288      0.84181321
 H      3.05089436      1.50024874      0.28603334
 H      4.00071099      2.26443820      0.83477519
 H      4.07493178      1.78490278      1.56725974
 H      5.38166190      2.42753986      1.29514334
 H      5.35846472      2.56288767      0.98409845
 H      5.80441216      3.84614839      0.43603628
 H      6.31702597      3.17508454      1.61447388
 H      6.40684407      4.84963753      0.68462767
 H      6.28885864      4.88586044      0.73458246
 H      6.12756451      6.15673029      1.68590777
 H      6.34801423      5.86501728      0.28076423
 H      7.67234103      6.23557337      1.36154135
 H      6.83389580      6.98227909      0.12774159
 H      7.83234551      7.30014160     -0.52950228
 H      8.49730663      7.41189829      0.35556725
 H      9.70758598      7.67481981      0.20630513
 H      9.20550854      7.80468207     -0.89706975
 H      9.76824945      8.18055821     -1.76371007
 H     10.44008793      8.70776627     -0.76945924
 H      9.54891037      9.74578285     -1.43635422
 H      9.51557740      9.64485618     -1.67452717
 H     10.09207008      9.65889269     -3.45286186
 H      9.19983243      8.71395260     -3.15635035
 H      9.70859873      7.87745564     -3.85324328
 H     10.88777782      8.77424283     -3.97365192
 H     11.95444476      8.94182184     -3.73145391
 H     11.29807620     10.39217827     -4.52764057
 H     12.07054862     10.03688740     -6.28237374
 H     11.07967858      8.28685294     -6.33415624
 H     13.48063018      9.17331877     -6.10232110
 H     12.82420040     10.82617255     -6.17608426
 H     13.09536366     10.91588190     -8.30579160
 H     12.57496767      8.92426561     -8.47455197
 H     14.87802350     10.21305398     -8.21908735
 H     13.92291683     11.71354365     -8.15149557
 H     13.48305162     10.64129490    -10.65824650
 H     14.56847970      9.34020682    -10.11301045
 H     16.35624419     11.14731065     -9.97286408
 H     15.14804861     12.33205085    -10.52506041
 H     15.09085312     10.95186484    -12.67591904
 H     16.30394077      9.86422589    -11.95917184
 H     17.75926898     12.03792521    -12.02285077
 H     16.35360177     12.86878972    -12.73139190
 H     16.57150058     11.31631297    -14.69711612
 H     17.96801424     10.54716887    -13.90564053
 H     19.43591958     12.18095448    -13.78421935
 H     18.34544574     13.34095781    -14.58016266
 H     18.48263252     11.81653440    -16.60596054
 H     19.56416142     10.74537379    -15.68336807
 H     21.30883475     12.25395896    -15.44675585
 H     20.38143119     13.53689762    -16.32404998
 H     21.82082133     10.72154375    -16.19667776
 H     21.79483036     11.62975302    -14.66607427
 H     23.24193756     13.30594263    -16.06517428
 H     23.08032497     12.18250108    -17.43631509
 H     24.28391516     10.44359334    -16.22287323
 H     24.47105980     11.53235248    -14.82722031
 H     25.85394014     12.95845352    -16.47725855
 H     25.52858513     11.73007404    -17.72365119
 H     26.82076508     10.11756713    -16.27164562
 H     27.07908811     11.42802027    -15.09510474
 H     28.35568399     12.17195855    -17.45255355
 H     27.74002412     10.61910352    -18.06726556
 H     28.72346111      9.12473685    -16.82443655
 H     29.61485237     10.34967111    -15.88997182
 H     30.57842010     10.67831708    -18.40011593
 H     29.46625628      9.36707277    -18.86054689
 H     30.92337087      7.94580895    -17.27257447
 H     31.89917425      9.40055286    -16.95667166
 H     33.15110980      8.73565494    -18.77775547
 H     31.46369078      7.84334927    -19.57612588
 H     33.39688714      7.02580933    -17.88119626
 H     34.07139656      8.66399352    -18.05340627
 H     34.14378110      8.47930796    -20.52108995
 H     34.03579624      7.11342049    -20.49993537
 H     35.33395471      9.74108353    -19.59157311
 H     33.94297292      9.63354235    -20.69695594
 H     35.67948590      8.40906508    -22.21107769
 H     36.87610728      8.65497977    -20.91651603
 H     36.56487500     11.13982387    -21.33884659
 H     35.38218441     10.74041972    -22.60769882
 H     37.87672006      9.72372225    -23.37436941
 H     38.41946863     10.41041284    -21.82448338
 H     37.74785818     12.65706669    -22.92872614
 H     37.05457264     11.95419119    -24.11392439
 H     36.01117462     11.84960049    -24.43823724
 H     37.23002381     10.95757786    -25.38002752
 H     38.37892268     12.96839090    -26.02907198
 H     37.21164013     13.95735951    -25.11931420
 H     35.73597117     12.73080477    -27.08443507
 H     37.27846896     11.98209954    -27.56235525
 H     38.42789012     13.86341560    -28.14554817
 H     37.04146181     14.91122905    -27.76061937
 H     35.46825069     14.37290160    -29.07596065
 H     36.43585586     13.12452355    -29.89666714
 H     37.91120047     15.13954711    -30.58293929
 H     36.79078209     16.18930226    -29.68241532
 H     35.54458061     14.87064978    -31.90988729
 H     37.17512599     14.18164345    -32.09659214
 H     38.29435842     16.15805972    -32.52479623
 H     36.79157090     17.10353877    -32.39844078
 H     35.96329858     15.80709346    -34.39642272
 H     37.50596925     14.91968046    -34.42695194
 H     38.74804795     16.95957628    -34.88418198
 H     37.23656684     17.89946568    -34.86687767
 H     36.51429362     16.54229899    -36.86102146
 H     38.05829538     15.65964887    -36.78853694
 H     39.03614756     18.02659544    -37.29413012
 H     37.36436478     18.63763408    -37.30051733
 H     36.79310321     17.25827220    -39.21834425
 H     38.45071200     16.61135242    -39.26411085
 H     39.32942235     18.85561049    -39.73799851
 H     37.67664218     19.51496757    -39.69518953
 H     37.10722650     18.10168429    -41.65474687
 H     38.76877307     17.46341576    -41.66670366
 H     39.64260010     19.71044058    -42.14059052
 H     37.98531033     20.35972485    -42.13125145
 H     37.44921208     18.93696297    -44.08657519
 H     39.11239752     18.30299452    -44.07373466
 H     39.85990929     20.66859681    -44.56330109
 H     38.15478862     21.17905860    -44.54720992
 H     37.52780914     19.85521634    -46.40308400
 H     39.18870470     19.23837487    -46.57396173
 H     40.05534639     21.44763379    -47.05407840
 H     38.42277428     22.14023757    -46.90151698
 H     38.12374383     20.49986320    -49.00671494
 H     39.83838109     20.08027252    -48.77817747
 H     40.22006903     22.57940316    -49.33811563
 H     38.45615093     22.74934774    -49.50538324
 H     37.92749424     21.45887637    -51.16068641
 H     39.61243501     20.95466362    -51.43456735
 H     40.26407824     23.23835732    -51.98457849
 H     38.59200190     23.78982658    -51.72321852
 H     37.69560022     22.47798030    -53.49348942
 H     39.31016922     21.83689876    -53.88136577
 H     40.34951651     23.76327896    -54.48278354
 H     38.88087818     24.72764138    -54.19752356
 H     38.44774971     22.85619344    -56.28163274
 H     40.13155474     22.39957528    -55.92869206
 H     40.76868188     24.73227077    -56.65737062
 H     39.05011069     25.07314177    -56.97135581
 H     39.06054045     23.31724077    -58.72291055
 H     40.77893547     23.00000044    -58.38417204
 H     41.68185064     24.98520502    -58.94783887
 H     40.09953538     25.66122471    -59.40340715
 H     40.93696988     23.41635308    -61.02094020
 H     42.33800338     23.48633899    -59.92527886
 H     42.93106990     25.70620004    -60.75604320
 H     41.53997209     25.67168845    -61.86596323
 H     42.86276975     23.65522605    -62.88107826
 H     44.09958973     23.93403837    -61.63175577
 H     44.59195159     26.14352105    -62.54989651
 H     43.36378929     25.90089813    -63.81520996
 H     44.50918226     24.05114658    -64.79671265
 H     45.81372342     24.18037681    -63.59266174
 H     46.06110373     26.52457329    -64.83750010
 H     44.68958630     26.01501647    -65.85118567
 H     45.99163370     24.15281358    -66.75032242
 H     47.38428072     24.63347789    -65.75144166
 H     47.35501260     26.78576680    -67.13422048
 H     45.95716127     26.14051600    -68.02748961
 H     46.96123276     24.31988116    -68.98018068
 H     48.52633900     24.70635885    -68.22563173
 H     49.13899821     26.58639085    -69.00208420
 H     47.70149649     26.74770786    -70.03930757
 H     49.02826440     24.52770587    -70.97392154
 H     50.19658696     24.87100973    -69.67567983
 H     50.70990195     27.03264150    -70.82345999
 H     49.52410607     26.62434492    -72.08657072
 H     51.29776567     24.66602418    -72.43167351
 H     52.20956867     25.39272356    -71.08676088
 H     52.23712907     27.31430074    -73.02317224
 H     51.28328208     26.15951684    -73.98489814
 H     53.43779273     24.71705552    -73.80097203
 H     54.16024873     26.03494086    -72.84729377
 H     54.19654574     27.70165826    -74.31818186
 H     53.47757198     26.69769748    -75.60013589
 H     55.49031288     25.23584431    -75.50351588
 H     56.16601970     26.27049116    -74.22242539
 H     56.02864917     27.94953330    -76.33933742
 H     55.35364149     26.56556802    -77.23223798
 H     57.82702498     25.69130949    -76.63731335
 H     58.05926065     27.25861128    -75.82620401
 H     57.75763290     28.28543250    -78.13620821
 H     57.54102225     26.64607730    -78.79488950
 H     59.99046774     26.33935299    -77.98406306
 H     59.94036920     28.02114564    -77.40326166
 H     59.62956975     28.51953787    -79.94868928
 H     59.71030334     26.76355949    -80.22849038
 H     62.01680100     26.71850606    -79.38785032
 H     61.95084068     28.47429820    -79.10305243
 H     61.65845836     28.86483675    -81.51242553
 H     61.72349422     27.11058834    -81.80678844
 H     64.15321323     27.44441435    -80.85578763
 H     63.75806405     29.17091823    -80.67884653
 H     63.44934424     29.58531820    -82.96537191
 H     63.82163693     27.89237527    -83.36985809
 H     66.14131882     28.44756042    -82.39180856
 H     65.55147999     30.09595827    -82.07065227
 H     65.27316495     30.40565608    -84.52790065
 H     65.86844000     28.74896937    -84.79115607
 H     68.05075563     29.41218229    -83.82519782
 H     67.43074832     31.06137206    -83.57215493
 H     67.23507169     31.14415448    -86.12165067
 H     67.86790770     29.48151322    -86.18003980
 H     69.97737267     30.63579143    -85.14811474
 H     69.07610844     32.16947416    -85.20981351
 H     68.72727911     32.49166154    -87.33972041
 H     69.58143035     30.99998454    -87.80188064
 H     71.66296644     31.51347382    -87.04030859
 H     71.13175967     33.10985432    -86.45922740
 H     70.60240194     33.75706383    -88.78647630
 H     71.13737752     32.15534763    -89.34912452
 H     72.94329018     31.64889929    -89.08750862
 H     73.40597899     33.18855378    -88.32353887
 H     72.90215410     34.44602964    -90.32551393
 H     72.42227878     32.95216612    -91.16596508
 H     74.64902826     32.02571458    -90.99415333
 H     75.21219119     33.48729961    -90.14864555
 H     74.70011770     34.80179155    -92.19905346
 H     73.94566144     33.66841663    -92.88827332
 H     72.90292142     33.46421453    -93.15931513
 H     74.04799208     32.14155177    -93.48740517
 H     75.05634800     34.05297974    -95.04434824
 H     73.73657978     35.09060942    -94.45290665
 H     72.24698208     33.32335140    -95.64559452
 H     73.74063827     32.47047404    -96.10369720
 H     74.49066839     34.35155248    -97.44474643
 H     73.01659909     35.25678409    -97.02529192
 H     71.45684807     33.90469420    -97.96668931
 H     72.69416151     32.76875840    -98.55573259
 H     73.83746239     34.08791057    -99.96992774
 H     72.78430843     35.48470252    -99.64113349
 H     70.97174583     33.92407598   -100.68589132
 H     72.24590791     32.69767542   -100.88768161
 H     72.91353566     34.90715176   -102.46438515
 H     71.40684661     35.59336413   -101.81072824
 H     70.51531737     33.46360737   -103.20668051
 H     72.22442075     33.16009740   -103.60052565
 H     72.79014402     34.94853480   -104.75620426
 H     71.16282498     35.65769852   -104.62510804
 H     70.39387503     33.61470107   -105.95212522
 H     72.08213864     33.05156156   -105.98223403
 H     73.05397365     34.70653156   -107.15331432
 H     71.51404369     35.57790977   -107.34717611
 H     70.50518286     33.81581912   -108.61265899
 H     71.99046703     32.84200675   -108.49481556
 H     73.37805987     34.29221288   -109.66019424
 H     72.42394684     35.46753851   -109.69933069
 H     71.85323457     36.47129833   -109.52264531
 H     70.68984695     35.59918916   -110.54939821
 H     73.28146909     36.14365464   -111.76196037
 H     73.56268190     36.86876225   -110.16089666
 H     71.84135747     38.52840527   -110.49523550
 H     71.49277038     37.87040860   -112.11195875
 H     73.86864617     38.55254736   -112.70505950
 H     74.06836903     39.16534706   -111.04588682
 H     72.22266881     40.82131241   -111.65776893
 H     72.15437990     40.08270771   -113.27581293
 H     74.68778026     41.23606006   -112.91823569
 H     74.04841854     41.67054590   -111.31489377
 H     72.45662819     42.93358089   -111.46995237
 H     72.51941700     42.99190840   -113.24785060
 H     74.86109900     44.06644720   -112.74680840
 H     74.49688873     43.86106906   -111.01665310
 H     72.57860039     45.46499415   -111.37568884
 H     73.03893379     45.58692002   -113.09076724
 H     75.21873991     46.60180850   -112.08449557
 H     74.50648230     46.35579107   -110.47191032
 H     72.70569421     47.95158343   -111.05342667
 H     73.43554671     48.18132716   -112.66053582
 H     75.38821442     49.12476269   -111.13105662
 H     74.35256542     48.73892081   -109.73577032
 H     72.95670883     50.64249286   -111.11577873
 H     74.32382001     50.61156035   -112.25521581
 H     75.79824501     51.42966649   -110.42762256
 H     74.40305078     51.44398898   -109.32241010
 H     73.29815363     53.14731840   -110.69378311
 H     74.68195016     53.15157393   -111.81331683
 H     76.38849883     53.71470985   -111.05462087
 H     75.71721447     54.02499289   -109.43555681
 H     74.29733644     55.80777195   -110.55426253
 H     75.05403757     55.38566883   -112.10909340
 H     77.17285890     56.26781145   -110.74860055
 H     76.05610796     56.54212418   -109.38996648
 H     74.75614311     58.16379312   -110.51060280
 H     75.77039193     58.02884351   -111.96708988
 H     77.71269445     58.84741787   -110.69839971
 H     76.70317770     58.98451440   -109.23882883
 H     75.34718581     60.70524673   -110.45839252
 H     76.40459809     60.50505225   -111.87616122
 H     78.34060544     61.30114606   -110.66863994
 H     77.35561949     61.53391406   -109.20443762
 H     75.94809743     63.17306916   -110.14315801
 H     76.81505581     63.08916076   -111.69544961
 H     78.87736243     63.83096018   -110.85875516
 H     78.20549462     63.99297775   -109.21844708
 H     76.96217581     65.74916423   -111.12552383
 H     78.10400604     64.94933731   -112.23221588
 H     79.79165487     66.17554662   -110.56347210
 H     78.34782817     66.77499672   -109.71241939
 H     77.67579817     68.02945113   -111.71792157
 H     79.11754350     67.43423753   -112.57545165
 H     80.61350395     68.55338276   -111.04287975
 H     79.22777689     69.19367010   -110.12742396
 H     78.96608698     70.33304860   -112.58748726
 H     80.43724627     69.42547691   -113.01207017
 H     81.73439345     70.67373737   -111.35918953
 H     80.28354532     71.60159922   -110.90932425
 H     80.12356985     72.56914043   -113.13144603
 H     81.57151210     71.66919647   -113.64314007
 H     82.97850963     72.81997513   -112.05636458
 H     81.58768165     73.76984856   -111.48051335
 H     80.86916710     74.94066940   -113.04420542
 H     82.09851124     74.36360116   -114.19484520
 H     83.71998365     75.50645579   -112.49670481
 H     82.28804641     75.94616428   -111.53520657
 H     81.57321699     77.34134895   -113.52286881
 H     83.04534451     76.82151814   -114.37778586
 H     84.39531619     77.97372287   -112.63170896
 H     82.89378377     78.46782203   -111.81345895
 H     82.51888573     79.77667182   -114.03964522
 H     84.07322896     79.11920053   -114.60534416
 H     85.01541122     80.49957876   -112.61347437
 H     83.34577164     81.00456942   -112.25913732
 H     83.07757793     82.15275211   -114.33135080
 H     84.73482960     81.72453155   -114.81962400
 H     85.33293772     83.19236150   -112.73457805
 H     83.58536010     83.43454074   -112.49880626
 H     83.63761712     84.60844393   -114.75873852
 H     85.38544706     84.28275693   -114.84409160
 H     85.48780855     85.80514092   -112.75971074
 H     83.72010782     85.98115534   -112.87160223
 H     83.41348648     86.97571792   -114.79277027
 H     85.15781960     87.04984111   -115.13928778
 H     85.94257498     88.32010385   -113.53171357
 H     84.33401431     88.55360908   -112.80626577
 H     83.52086787     89.68400514   -114.79721981
 H     85.10828890     89.48278736   -115.57688163
 H     85.99791456     90.96366882   -113.70281384
 H     84.34556690     91.05998023   -113.04803299
 H     83.29953365     92.10569464   -114.75532350
 H     84.79696894     92.19912176   -115.71304246
 H     86.12860131     93.43949027   -114.53698623
 H     84.92527839     93.68004042   -113.24763901
 H     83.49487716     94.84284175   -114.95765333
 H     84.75749673     94.55180679   -116.17804554
 H     86.10373268     96.11821512   -114.52724345
 H     84.63228035     96.17807907   -113.52748799
 H     83.38290098     97.27383777   -115.29726351
 H     84.81933818     97.24718289   -116.34807481
 H     85.84556685     98.77294862   -114.54460029
 H     84.31149888     98.65752541   -113.64929050
 H     82.90161857     99.62589084   -115.10793705
 H     84.20383878     99.93126504   -116.28234575
 H     85.40814368    101.38646516   -114.83852108
 H     84.18542580    101.18632260   -113.56056544
 H     82.56988562    102.27622090   -115.20007543
 H     83.90349554    102.39995865   -116.37244066
 H     85.20615004    103.85532210   -115.03019393
 H     83.96666988    103.84686462   -113.75274174
 H     82.30412432    104.86004833   -115.12778439
 H     83.43860422    104.93845256   -116.49711810
 H     84.38658687    106.53615366   -114.36741040
 H     82.91181541    105.95866587   -113.55511511
 H     81.73879594    107.26259001   -115.47959169
 H     83.35707211    107.69146688   -116.08416883
 H     83.63911060    108.93879987   -113.88109453
 H     81.99902813    108.42096734   -113.42256903
 H     82.02819059    110.12629761   -115.73372516
 H     83.78333261    110.07835348   -115.44141618
 H     84.07563511    110.98892621   -113.51659578
 H     82.33916738    111.30748708   -113.28973580
 H     82.08037456    112.75684848   -115.08701043
 H     83.80031902    112.61081364   -115.52144286
 H     84.36469228    113.63844574   -113.31558562
 H     82.62809925    113.75401185   -112.94254972
 H     82.44684861    115.32444166   -114.90824548
 H     84.19383323    115.13134174   -115.18935727
 H     84.64189468    116.15750370   -112.98534399
 H     82.89157804    116.34273592   -112.72011324
 H     82.39373687    117.76403671   -114.41491637
 H     84.08718574    117.82061601   -114.96016528
 H     83.74266158    118.88012571   -112.31731148
 H     82.04565108    118.43998113   -112.62503663
 H     81.49461705    119.72414933   -114.32260179
 H     83.10423791    120.48107598   -114.38930563
 H     83.13217423    121.48052176   -112.34743530
 H     81.50226381    120.88236100   -111.95518235
 H     80.22091223    121.82541146   -113.44966099
 H     81.58119873    122.68401492   -114.21168945
 H     81.15403686    123.50362624   -111.50023859
 H     79.85277810    122.29261880   -111.59218030
 H     78.69000879    123.55823222   -113.30556045
 H     79.95650650    124.80821292   -113.26315196
 H     79.33523110    125.28515974   -110.90347670
 H     78.08085269    124.02525387   -110.98972437
 H     76.84807771    125.19464093   -112.69116626
 H     78.04332046    126.51358631   -112.68449455
 H     77.86792420    127.31552875   -110.63350914
 H     76.59659496    126.15043662   -110.19243212
 H     75.08893073    127.07815654   -111.86857985
 H     76.32905510    128.26341575   -112.34346807
 H     76.03870551    129.12272084   -109.92605568
 H     74.82388220    127.84567471   -109.67781355
 H     73.22449610    128.24736901   -111.01840169
 H     73.99767888    129.71136694   -111.67198039
 H     73.88598722    130.77235039   -109.45749702
 H     73.11211767    129.31280324   -108.79483972
 H     71.20629183    129.26207668   -109.97051159
 H     71.62403792    130.74469174   -110.86247988
 H     71.60971008    132.04681342   -108.79707838
 H     71.19063680    130.58696109   -107.86892138
 H     69.05374856    130.44520834   -109.11236434
 H     69.49608658    131.90631514   -110.02766246
 H     69.34385958    132.87103955   -107.53196432
 H     69.25503389    131.45641515   -106.95005689
 H     69.18746692    130.27238505   -106.53275819
 H     67.64913713    130.21591949   -107.42641348
 H     67.13302090    132.13137177   -105.63188189
 H     68.78943326    131.86886986   -105.03551163
 H     68.73090526    129.78647490   -104.31714365
 H     67.01664128    129.58981551   -104.75405413
 H     66.60007206    131.43059257   -103.02069888
 H     68.35433430    131.48412205   -102.72410952
 H     67.95663198    129.03834104   -101.92122504
 H     66.23563234    129.26039686   -102.31760631
 H     65.74167956    130.92507353   -100.83366299
 H     67.40563030    130.94629487   -100.20193184
 H     67.44767770    128.80039355    -99.35678472
 H     66.76048369    128.29062559    -99.94082648
 H     66.28091296    127.54248340   -100.80749383
 H     64.73412749    128.27449292   -100.31771486
 H     64.93250762    127.43150557    -98.06294946
 H     66.48720785    126.66399849    -98.46557428
 H     65.19562520    125.23758398   -100.10294472
 H     63.70520027    126.08128101    -99.61809886
 H     64.24228350    124.99124666    -97.31135606
 H     65.68575288    124.27270998    -98.06525781
 H     63.89519006    123.05185411    -99.51872125
 H     62.65082962    123.92482547    -98.59257074
 H     63.80377189    122.42817705    -96.68293757
 H     64.87159313    121.81548168    -97.96848369
 H     63.68139334    120.80265095    -99.37469718
 H     62.17292018    121.09699514    -98.47684593
 H     63.49365783    119.60926776    -96.71134414
 H     64.81907652    119.55377235    -97.89812644
 H     63.18680613    118.32461330    -99.40554230
 H     61.95744284    118.45865902    -98.12532188
 H     63.58875935    116.99509763    -96.77016411
 H     64.67743926    116.99850983    -98.17836547
 H     62.91808192    115.80367082    -99.47062778
 H     61.86487305    115.82590180    -98.03587222
 H     63.24663492    114.51389308    -96.68263527
 H     64.44808344    114.34864296    -97.98550921
 H     62.67493081    113.14463331    -99.30450081
 H     62.54068773    112.52101351    -97.38768671
 H     62.83107911    112.05468652    -96.43293009
 H     64.05115858    111.73689615    -97.68938623
 H     62.90591673    110.61738619    -99.20843603
 H     61.40538043    110.68289063    -98.25325716
 H     61.42883009    109.80577379    -96.53126707
 H     63.10800659    109.23810868    -96.69371480
 H     62.47597074    107.87143529    -98.63331073
 H     60.79273994    108.43029955    -98.48274018
 H     60.91598379    107.20936046    -96.19660002
 H     62.59899149    106.78120375    -96.58702745
 H     62.37798063    105.51026095    -98.37659441
 H     60.60387256    105.65428837    -98.36863760
 H     61.29319573    104.36739821    -96.01743859
 H     62.96401970    104.55068350    -96.60311804
 H     62.31997654    103.06588906    -98.53207694
 H     60.67510997    102.95021221    -97.86177888
 H     61.11037477    101.92367244    -95.89975073
 H     62.85610080    101.85111119    -96.23951855
 H     62.98600734    100.58439136    -98.01884218
 H     61.22396436    100.34258383    -98.08955528
 H     61.50470284     99.19400020    -95.82352445
 H     63.25073734     99.52621506    -95.91977156
 H     62.88047672     97.88639217    -98.01929393
 H     61.16544303     97.85567902    -97.54391744
 H     61.98264940     96.75900322    -95.39346438
 H     63.64651058     96.86882530    -96.01617760
 H     63.06094721     95.36389362    -97.87084411
 H     61.39523512     95.24905979    -97.25401099
 H     61.77143375     94.27715920    -95.25285434
 H     63.52843696     94.21282134    -95.53046385
 H     62.83676543     92.64655325    -97.48765168
 H     61.14329345     92.88924475    -96.99620468
 H     61.21499320     91.96579869    -94.92274500
 H     62.94049664     91.56056776    -95.08612321
 H     62.92518876     90.12964019    -96.78292477
 H     61.15759635     90.23312506    -96.96506376
 H     61.39914018     89.18737613    -94.49997416
 H     63.15771740     89.28191343    -94.75830640
 H     62.69776530     87.59873100    -96.65764358
 H     60.97259627     87.66487379    -96.22441891
 H     61.00836887     86.84584622    -94.14529342
 H     62.77183885     86.60707906    -94.18311569
 H     63.17061797     85.19043964    -95.71514939
 H     61.45089767     84.99457929    -96.13044142
 H     60.50943786     84.19437239    -94.37915354
 H     62.02957043     84.15388542    -93.45404575
 H     62.25567964     82.42240554    -95.65546498
 H     60.59991745     82.97284248    -96.00722827
 H     59.62885305     82.10378242    -94.06314282
 H     61.19330293     81.45644419    -93.51385559
 H     61.31893985     79.96770640    -95.43797231
 H     59.75623081     80.58140378    -96.02922744
 H     58.61645623     79.72355940    -94.04796930
 H     60.15906005     79.09364465    -93.42199204
 H     60.12910084     77.59751879    -95.50244180
 H     58.58561658     78.35287894    -95.96650434
 H     57.91004928     77.16042970    -93.66758419
 H     59.59918803     76.60516983    -93.58534411
 H     58.62022204     75.40022992    -95.82538065
 H     57.09675195     76.23651188    -95.44075351
 H     56.97162464     74.92122096    -93.33229350
 H     58.49859634     74.11230515    -93.75923531
 H     57.37480434     73.14067373    -95.74960514
 H     55.86653515     73.96663599    -95.29006508
 H     55.27407949     73.17216834    -93.41152976
 H     56.65736009     72.05524148    -93.32623129
 H     56.04683881     70.81145618    -95.23547672
 H     54.60278619     71.82228852    -95.48285635
 H     53.82408250     70.92393588    -93.22986694
 H     55.32654181     69.97447882    -93.13284116
 H     54.85512469     68.64596154    -95.02890046
 H     53.30576169     69.48509968    -95.28106732
 H     52.77906902     68.42497043    -92.94283624
 H     54.41233564     67.71840141    -92.98113833
 H     53.17603282     66.53823736    -95.08782884
 H     51.75612537     67.50923226    -94.63033743
 H     52.06495720     65.93663551    -92.47302187
 H     53.46304950     65.23854318    -93.32523761
 H     50.98739489     64.76843091    -94.69526010
 H     50.33322300     65.69523476    -93.32363318
 H     50.88226065     64.27513089    -91.62858541
 H     51.62226102     63.11042765    -92.75292188
 H     49.53626798     62.69458968    -93.88085534
 H     48.69994711     63.83964991    -92.80490407
 H     49.15808699     62.51060953    -90.84766843
 H     50.01307852     61.30498322    -91.83949571
 H     48.27781650     60.70170634    -93.23416082
 H     47.16520689     61.66647396    -92.39508659
 H     49.29273031     59.39670613    -92.77088549
 H     48.87379225     60.46845440    -94.12886679
 H     46.65061556     58.88483719    -93.25352130
 H     47.61323528     58.43354146    -92.03173695
 H     48.25415453     58.21831652    -91.06395102
 H     49.29678379     57.46450832    -92.29397707
 H     48.47681143     55.97993357    -93.28595168
 H     46.93663761     56.06386644    -92.39764625
 H     48.12831261     55.49709496    -90.30931126
 H     49.66163160     55.41679432    -91.20972858
 H     48.98044318     53.60008839    -92.57645516
 H     47.39372452     53.54299071    -91.77188670
 H     48.61209021     52.97026819    -89.65105824
 H     50.15227453     53.05229158    -90.53952382
 H     50.30249024     51.69445536    -91.99570337
 H     48.70660152     50.97787333    -91.66719753
 H     49.33420957     50.26955580    -89.46002213
 H     50.96496333     50.94867399    -89.67844221
 H     50.93428655     49.05475582    -91.56889105
 H     49.27668233     48.69546870    -91.02895802
 H     50.05923013     48.02905587    -88.82834246
 H     51.73962401     48.36826446    -89.30738380
 H     51.85158228     46.75078840    -90.99444252
 H     50.17547782     46.23967930    -90.68185975
 H     49.78892484     45.50663072    -88.94336721
 H     51.46468993     45.65232860    -88.36125886
 H     52.07389298     44.01868811    -90.20126962
 H     50.36029912     43.96972202    -90.68029475
 H     50.44658935     42.94561972    -88.12426376
 H     52.19667266     43.25244189    -88.23073077
 H     52.80005895     41.89994854    -89.88993809
 H     51.13996760     41.29872526    -90.11553496
 H     51.26679860     40.37012607    -87.78942406
 H     52.92274673     41.00712438    -87.64682102
 H     53.91392911     39.77299475    -89.29868511
 H     52.38826983     38.93993888    -89.68163201
 H     52.63953104     38.05912587    -87.24512654
 H     54.14464740     39.00243942    -87.13088586
 H     55.14954727     37.63314289    -88.90842347
 H     53.64824928     36.68456728    -89.02915190
 H     54.15238367     35.98548374    -86.62108261
 H     55.61792174     36.99385260    -86.68155638
 H     56.44933729     35.45918538    -88.49671851
 H     54.94413548     34.51938778    -88.35738205
 H     55.41238272     33.86866965    -86.09114466
 H     56.94362541     34.77566839    -86.12140632
 H     57.46861333     32.98571745    -87.99298893
 H     55.83987653     32.33091189    -87.69851858
 H     56.79741757     31.82640558    -85.34284502
 H     58.33492368     32.54319236    -85.88187965
 H     58.39691522     30.62278495    -87.56609216
 H     56.84789525     30.04827819    -86.90371328
 H     58.25559348     29.72690761    -84.74278468
 H     59.66019964     30.34643086    -85.64363935
 H     59.51178622     28.40584233    -87.16872237
 H     58.10799622     27.80143204    -86.25640197
 H     59.91634445     27.65210957    -84.35117362
 H     61.08928704     28.29053227    -85.52798660
 H     60.74273771     26.23916637    -86.89634297
 H     59.57608901     25.64590863    -85.69000855
 H     61.65500358     25.65893791    -84.13370739
 H     62.60462007     26.26073055    -85.51368595
 H     62.09733084     24.10636590    -86.68493754
 H     61.16230279     23.57626894    -85.26614001
 H     62.76744226     23.50980969    -83.69943288
 H     64.02227197     24.02609359    -84.85143982
 H     63.21454237     21.64981345    -85.86456022
 H     62.08146889     21.59446857    -84.49293778
 H     63.72791588     21.53384091    -82.82332444
 H     65.02738798     21.57776946    -84.03893507
 H     63.92387600     19.27455733    -84.69526139
 H     62.75869122     19.55573627    -83.37937784
 H     64.60614957     19.47052573    -81.74328884
 H     65.76224445     19.19005360    -83.06731553
 H     64.67299030     17.06593718    -83.61139249
 H     63.50411919     17.32050818    -82.29336342
 H     65.58648446     17.19409567    -80.77938671
 H     66.56999283     16.95531259    -82.24361366
 H     65.34471830     14.81982330    -82.63733700
 H     64.38980443     15.11151566    -81.16379646
 H     65.98092202     15.07102350    -79.59371176
 H     67.26320365     14.75453705    -80.78696648
 H     65.85223993     12.55328457    -81.11050640
 H     64.74573146     13.18028010    -79.86520231
 H     66.98752950     12.90865507    -78.44504971
 H     67.74523440     12.32544974    -79.94638961
 H     66.14621579     10.39485816    -79.88635480
 H     65.44388056     11.04878715    -78.38723213
 H     67.43726734     10.82229436    -77.12544658
 H     68.29389773     10.14471196    -78.53091203
 H     66.79957085      8.21819168    -78.57958985
 H     65.91361741      8.85683265    -77.17406829
 H     67.72445050      8.74777606    -75.68378076
 H     68.78668886      8.09036051    -76.95174020
 H     67.64966415      6.12173904    -77.32949818
 H     66.43062949      6.51917666    -76.09488710
 H     68.18242124      6.47748362    -74.36007392
 H     69.39772162      6.08025812    -75.59842910
 H     68.21431371      3.95077551    -76.03779532
 H     67.01048865      4.36965919    -74.79537496
 H     68.34788180      4.42462180    -72.96582388
 H     69.78987714      3.99947686    -73.91880231
 H     68.66098119      1.81350943    -74.43787225
 H     67.26330350      2.33051541    -73.46449228
 H     68.70272197      2.38786851    -71.45746651
 H     70.09191345      1.87084775    -72.44291222
 H     69.07801711     -0.24038675    -72.98763930
 H     67.63961977      0.17471141    -72.02484479
 H     69.03448573      0.24640969    -69.99040035
 H     70.05675292     -1.09719283    -71.18701276
 H     69.68256719     -2.28364502    -71.63012506
 H     68.17374848     -2.06192042    -70.71220841
 H     68.36960857     -1.87203244    -68.78238377
 H     70.14033587     -2.05083438    -68.81104322
 H     68.80268666     -4.40421738    -69.73702228
 H     67.35470931     -3.42016753    -69.41565934
 H     68.01942707     -3.41642312    -66.99642815
 H     69.44511297     -4.39953903    -67.40773032
 H     67.80435692     -6.18966638    -68.12997406
 H     66.46900193     -5.10213148    -67.68012793
 H     67.07151524     -5.06427681    -65.36873321
 H     68.44417060     -6.15450550    -65.67774023
 H     67.47660467     -7.99390723    -66.38995461
 H     65.84297205     -7.30661194    -66.22522355
 H     65.61877574     -6.90246218    -64.11148346
 H     67.24165706     -7.52006655    -63.72021919
 H     66.07117236     -9.72970321    -64.66207612
 H     64.62110593     -8.72780948    -64.91063788
 H     64.34702021     -8.27158406    -62.58152653
 H     65.78117225     -9.25059414    -62.19035668
 H     64.61989239    -11.24981446    -63.08104279
 H     63.19955139    -10.24708485    -63.46239755
 H     62.79225166     -9.69725637    -61.16721940
 H     64.19019904    -10.67352821    -60.65643267
 H     62.39840636    -12.43533259    -61.80898229
 H     61.39567904    -10.98770787    -62.06818734
 H     61.35490813    -10.87796646    -59.49392198
 H     62.37060652    -12.33947295    -59.46897715
 H     60.41341423    -13.51172696    -60.58163345
 H     59.51535586    -11.97542350    -60.54252433
 H     59.65912236    -12.16110280    -58.01203394
 H     60.55334842    -13.68726560    -58.21066300
 H     58.39486084    -14.54307027    -59.29641580
 H     57.67270268    -12.94090641    -59.01388222
 H     57.69607451    -12.83275891    -56.78237624
 H     58.42604053    -14.44906945    -56.63086214
 H     56.24924499    -15.25906438    -57.73632137
 H     55.70921920    -13.56405594    -57.79619782
 H     55.96932011    -14.21969464    -55.11567027
 H     56.47897286    -15.81079213    -55.72961611
 H     53.77766065    -15.22194613    -56.43753951
 H     54.12336240    -13.70825855    -55.56719081
 H     54.53713969    -14.01973726    -53.61814395
 H     54.31563110    -15.78273251    -53.72325500
 H     51.87137513    -15.07433596    -54.33138068
 H     52.39779311    -13.38291428    -54.15747417
 H     52.84470194    -13.90459879    -51.73320565
 H     52.29980252    -15.57490506    -52.01856202
 H     50.03748750    -14.58973979    -52.56508187
 H     50.70104043    -12.96765110    -52.25396701
 H     51.14938263    -13.42009241    -49.95245981
 H     50.50886345    -15.07223696    -50.12104282
 H     48.28423125    -14.07494524    -50.65929599
 H     48.98567529    -12.44914235    -50.47761528
 H     49.44479856    -12.91844296    -48.10112699
 H     48.74257268    -14.54338788    -48.28740503
 H     46.56205275    -13.35548959    -48.81239251
 H     47.39801330    -11.79880134    -48.59754765
 H     47.71257387    -12.59238173    -46.17017513
 H     46.84961053    -14.08810867    -46.60187161
 H     44.84223297    -12.61181797    -47.05604048
 H     45.82042523    -11.19599502    -46.60123069
 H     46.03446033    -12.10659270    -44.31188319
 H     45.05490436    -13.51536087    -44.78528472
 H     43.42160533    -11.28691528    -45.03086963
 H     44.85897279    -10.38667819    -44.49067093
 H     44.40724385    -11.87167129    -42.33656510
 H     43.02486238    -12.56179069    -43.22032035
 H     41.86597573    -10.47985255    -43.35558165
 H     43.17652776     -9.65781103    -42.47525911
 H     42.66883925    -11.10088310    -40.50646119
 H     41.37116493    -11.88901740    -41.43552112
 H     40.04665161     -9.99167621    -41.71154762
 H     41.20262143     -8.98967162    -40.80160958
 H     41.08969110    -10.00267188    -38.77967934
 H     39.89062681    -11.18425921    -39.35792055
 H     38.44885081     -9.02787239    -39.68101509
 H     39.83542376     -8.09693298    -39.06535779
 H     39.67661829     -9.20854867    -36.89661508
 H     38.28649092    -10.15787349    -37.47505691
 H     36.92114509     -8.20755441    -37.79231560
 H     38.24340838     -7.15899339    -37.22627123
 H     37.72966598     -8.62701516    -35.03471110
 H     36.63165820     -9.51660014    -35.94303236
 H     36.10117306    -10.31129545    -36.55451503
 H     35.09652771     -8.85541572    -36.75293024
 H     34.44513548     -8.39353899    -34.71558459
 H     35.30964122     -9.78709211    -34.02355410
 H     33.73454254    -11.20404900    -35.45294239
 H     32.98755883     -9.70040009    -36.04397704
 H     32.11149479     -8.69609731    -34.45158710
 H     32.57141709     -9.93880583    -33.26313697
 H     31.60948990    -11.73364901    -33.80381455
 H     30.80171531    -11.00616734    -35.21326029
 H     29.76371122     -9.85018691    -35.50246979
 H     29.55699237     -9.47865587    -33.77403158
 H     28.73990523    -11.28889572    -32.91132999
 H     28.72418752    -12.14348012    -34.47264518
 H     27.14377439    -10.58186312    -35.42367950
 H     27.09785569     -9.66866080    -33.89651885
 H     26.27908864    -11.11603489    -32.46399574
 H     26.12176303    -12.38789126    -33.69926764
 H     24.47199478    -10.85144924    -34.85015421
 H     24.72247893     -9.66036101    -33.55137279
 H     23.69604351    -11.57300940    -32.09195973
 H     23.57579201    -12.54275870    -33.57970720
 H     21.99423800    -10.89268787    -34.51280083
 H     22.12189066     -9.93029619    -33.02089811
 H     21.40823282    -12.73599403    -32.52106183
 H     21.05816516    -12.78831206    -33.48881386
 H     21.17551149    -11.71717255    -30.82932856
 H     22.12000458    -13.10353756    -31.65396355
 H     19.48346539    -11.70349005    -30.60373029
 H     20.96056889    -10.73409650    -30.38760980
 H     21.71358695    -12.62351420    -28.83699113
 H     20.17631621    -13.45460929    -29.17514238
 H     18.67845363    -12.04721845    -28.36151104
 H     19.92420386    -10.89427651    -27.82569586
 H     21.04291521    -12.09168262    -26.32247816
 H     19.99470891    -13.51213486    -26.55017459
 H     18.19619075    -11.82188868    -25.62923894
 H     19.50181703    -10.61589933    -25.53334129
 H     20.92051793    -11.34626674    -24.13442381
 H     19.98446559    -12.82089148    -23.79156146
 H     18.13435973    -11.51529919    -22.89975493
 H     19.02681521    -10.00890034    -23.21999296
 H     20.77552506    -10.66011767    -21.64209062
 H     19.91011674    -12.17658838    -21.29618355
 H     18.02808601    -11.55022048    -20.42203695
 H     18.43721660     -9.82174862    -20.53720586
 H     20.23842378     -9.75392575    -19.16790185
 H     20.12325339    -11.49387775    -18.81073314
 H     17.84535251    -10.84713083    -17.77869259
 H     18.17814169     -9.16112231    -18.24225843
 H     20.14545211     -9.72472223    -16.45566377
 H     19.40791966    -11.34161438    -16.35580210
 H     17.44223700     -9.25862775    -15.84779498
 H     18.27835426     -8.57183286    -15.60595090
 H     16.98820329    -11.26724353    -15.11689810
 H     16.42987182    -10.02329113    -16.26106376
 H     16.07965399     -8.59916650    -14.14636018
 H     16.67645447     -9.97319042    -13.18503082
 H     15.21330905    -11.54954770    -13.54987074
 H     14.22969932    -10.52011144    -14.61806526
 H     13.69380352     -8.94627905    -12.92875397
 H     14.63562220     -9.86048172    -11.72647375
 H     12.58534983    -11.53203301    -12.51476616
 H     12.11465108    -10.18559345    -13.57957124
 H     11.76815227     -9.01226395    -11.24133678
 H     12.30124207    -10.53759986    -10.49472291
 H     10.31378462    -11.65776259    -11.48082267
 H      9.81695618    -10.11221103    -12.21068466
 H      9.66716960     -9.53990226     -9.59511932
 H     10.20944518    -11.21153447     -9.31254258
 H      7.95787973    -11.79687981    -10.47423786
 H      7.66296263    -10.04903905    -10.63654387
 H      7.59873168     -9.55347597     -8.36726690
 H      7.85203228    -11.24430191     -7.93236360
 H      7.03025715     -8.48218918     -8.92750956
 H      8.53750675     -8.85953650     -8.05913504
 H      6.60843201     -9.44597288     -6.24284571
 H      5.45452270     -8.95173879     -7.50478573
 H      6.41828620     -6.65580138     -7.39572626
 H      7.55067350     -7.20487423     -6.13696311
 H      5.14605201     -7.53083338     -4.94922816
 H      4.45123955     -6.91739896     -6.46883355
 H      5.81811090     -4.77898720     -5.69361835
 H      6.32025853     -5.73165854     -4.27639157
 H      3.79189115     -5.72009674     -3.73183890
 H      3.53660583     -4.76815115     -5.21403176
 H      5.05108711     -3.05271674     -3.91057603
 H      5.08529320     -4.19425802     -2.59011417
 H      4.20712269     -2.20080836     -4.79177905
 H      5.89406213     -2.72843772     -4.58175709
 H      5.50654871     -1.48045519     -2.26953585
 H      3.85293323     -1.14677140     -2.83740698
 H      4.70360733      0.20347160     -4.68212920
 H      6.37410516     -0.10302165     -4.14943272
 H      5.63565450      1.17251090     -2.02808989
 H      4.02579720      1.35276226     -2.76574535
 H      4.28730620      2.52056274     -4.52613248
 H      6.04071217      2.69813691     -4.27652963
 H      5.84510343      3.88371836     -2.24414065
 H      4.06852326      3.81002798     -2.32537678
 H      3.84963650      5.05905169     -4.28879031
 H      5.61301260      5.26927452     -4.40952871
 H      5.89132245      6.47242784     -2.44259603
 H      4.14718563      6.40816938     -2.09313318
 H      3.84495310      7.75164283     -4.22599765
 H      5.61087812      7.73114338     -4.44815807
 H      6.37762500      8.81706384     -2.72120406
 H      4.74936132      9.12135406     -2.06971999
 H      4.34997067     10.46237304     -4.19411670
 H      6.00675013     10.06711538     -4.71095308
 H      7.03081605     11.21602343     -2.89374742
 H      5.43919015     11.69298748     -2.25539097
 H      6.32743365     13.58693627     -3.38004927
 H      6.47266606     12.59328620     -4.93383407
 H      8.03158024     13.15243390     -3.62316510
 H      7.10106339     14.00776595     -2.66827498
 H      8.02955299     13.62868421     -5.66589741
 H      8.69894444     12.49062175     -4.47216561
 H      9.78208174     14.55509674     -3.42560844
 H      9.02657965     15.54390895     -4.69829602
 H     10.48730555     14.18122995     -6.30405982
 H     11.12476735     13.29504170     -4.89815103
 H     12.13540177     15.04302937     -3.81825465
 H     11.64625963     16.19307061     -5.08569766
 H     12.80712287     15.27249464     -6.83882589
 H     13.47198209     13.98540742     -5.80459411
 H     14.56695545     16.06949927     -4.62043544
 H     13.73668647     17.08324488     -5.82510964
 H     15.60931461     15.38034948     -7.09571786
 H     15.90155517     14.81637581     -5.43295034
 H     16.66801920     17.41579867     -5.34621287
 H     16.20378622     17.47465286     -7.06356274
 H     17.59446189     16.05135213     -8.00404613
 H     18.39658836     15.67622651     -6.45997989
 H     19.01769955     18.22357123     -6.60934801
 H     18.81787879     17.61196188     -8.57619420
 H     18.95203353     17.06963572     -9.54706832
 H     20.27787701     16.53905387     -8.48457661
 H     21.38877243     18.34791686     -8.04466494
 H     20.31830808     19.36435400     -9.03926450
 H     20.87803410     18.22727247    -11.06856014
 H     21.98547590     17.14522846    -10.19048264
 H     23.35394251     19.15872928     -9.61170391
 H     22.20149487     20.17778591    -10.50705560
 H     22.67880005     19.11394537    -12.60292443
 H     23.86064135     18.03888197    -11.81822289
 H     25.19302794     20.09801747    -11.26390930
 H     23.95365292     21.08902898    -12.07020478
 H     23.64877804     20.83746317    -13.92528725
 H     24.90382112     19.58741792    -14.09998813
 H     26.65308348     21.15216175    -13.47444279
 H     25.44657945     22.44686701    -13.28377829
 H     24.97541892     22.19915695    -15.74565502
 H     25.59322731     20.97014205    -15.90200591
 H     25.73915977     19.82303675    -16.04927630
 H     27.36349758     20.28545207    -15.65421020
 H     28.23725592     20.30426952    -14.98773867
 H     28.28650796     19.74462557    -16.80431703
 H     28.12242121     18.67553144    -17.23314246
 H     27.57853875     18.34546308    -16.14539376
 H     26.71189918     18.02730629    -15.42676057
 H     28.03203713     18.28405191    -14.26074851
 H     29.58009433     16.94442389    -14.71312658
 H     28.70154731     16.21362405    -16.07780727
 H     26.92968985     15.37038638    -14.77603724
 H     27.65544960     16.02398254    -13.28796752
 H     29.60472737     14.71152842    -13.38962678
 H     29.05283014     13.93027001    -14.89073017
 H     27.16378914     13.12779096    -13.18277480
 H     28.03422416     14.06359682    -11.94387330
 H     29.82223457     12.14763095    -12.65189964
 H     28.57083483     11.58558788    -13.78608346
 H     27.22068100     11.12396858    -11.63340102
 H     28.60620075     11.73856268    -10.70019378
 H     28.86648848      9.29104600    -12.38095285
 H     27.17213017      9.74336018    -12.68563049
 H     26.02505489      8.85752254    -12.03540276
 H     25.96624229      8.99906443    -12.03449892
 H     25.48861339      9.03367344    -13.02490084
 H     25.14166353     10.54788298    -11.89817573
 H     24.64169533     11.04972166    -10.76683155
 H     24.05270190      9.41555323    -10.37844140
 H     22.65258946      9.69840713    -12.52420658
 H     23.37743044     11.31228936    -12.71979884
 H     23.50798638     12.62421966    -11.59236023
 H     22.37495538     12.09346465    -10.64961076
 H     23.84811358     12.97876808    -13.17861297
 H     24.57406507     12.87795543    -11.55654703
 H     24.31688028     13.58189886    -10.13023596
 H     23.01611819     14.61946914    -10.76248005
 H     25.16784243     15.43289388    -12.18250220
 H     25.64896828     15.18328726    -10.25517940
 H     25.68702668     15.30828713     -9.16568766
 H     24.75978846     16.58930501     -9.98268775
 H     26.84721064     17.20991640    -11.20761677
 H     27.71465535     15.90945024    -10.35638584
 H     27.67203543     16.39387764     -8.28665259
 H     26.76996035     17.90569189     -8.54922614
 H     28.27387191     19.04359261     -9.80321637
 H     29.08669573     18.02340394    -10.17989017
 H     29.42852149     17.35478122    -11.00744622
 H     30.21441878     16.77969988     -9.51750878
 H     30.76478643     19.52469548    -10.49388727
 H     29.61190340     18.95947330    -11.72662864
 H     30.69316261     17.28108753    -12.66985571
 H     31.49239030     16.97675503    -11.82866032
 H     31.95390292     16.31925245    -10.96923411
 H     33.04609954     17.72358865    -10.91255046
 H     32.94566830     15.84418969    -13.20653880
 H     33.05051161     15.69297888    -13.03734221
 H     32.09663273     16.66949487    -14.30738190
 H     32.19659296     15.09247009    -13.48807275
 H     34.10665853     14.27729536    -13.98175982
 H     34.55740165     15.67075043    -14.99338241
 H     32.89265726     15.42534122    -16.58780418
 H     32.05867165     14.62898059    -15.92624225
 H     31.12717202     14.24829168    -15.30926151
 H     32.16283630     12.80332354    -15.22132268
 H     32.24480778     12.39138251    -17.51389176
 H     31.22360242     13.79556859    -17.86096959
 H     31.24847221     14.80030024    -18.30751064
 H     29.74227840     14.28272618    -17.51267482
 H     29.85796816     12.43814101    -19.38433852
 H     31.36864710     13.20441976    -19.93108589
 H     29.80162482     15.21956246    -20.41308466
 H     29.02234422     15.01721098    -19.70529492
 H     27.62975508     15.38823960    -20.10564458
 H     27.60463479     13.60055525    -19.32805561
 H     26.77034475     14.19839683    -21.26437578
 H     26.68311956     16.01465024    -20.27757958
 H     25.91729620     15.53577093    -18.74768207
 H     26.10473488     16.51328994    -19.28973801
 H     25.37666018     17.43496162    -18.72507944
 H     25.50106792     16.51471783    -17.88237504
 H     24.07200211     16.66332135    -18.18585990
 H     24.66912030     16.67059158    -17.18827475
 H     24.52132535     15.68575972    -16.68284697
 H     23.11369324     16.82799490    -17.00904656
 H     22.27893934     16.59755757    -16.12068863
 H     23.42497095     15.91596389    -15.36292060
 H     22.39292014     15.88763759    -14.35230852
 H     21.61419051     16.24485671    -14.91911083
 H     20.72746122     15.63627020    -14.10026763
 H     21.61335513     15.48607138    -13.44666839
 H     20.41477627     15.47506024    -12.62373029
 H     19.67784719     15.84745725    -13.39901096
 H     18.98994826     15.08536847    -12.22929497
 H     20.00068582     15.45383436    -11.61838572
 H     19.84068646     13.97277289    -11.56706311
 H     19.74237680     14.91205109    -10.64845797
 H     19.83843206     14.11054123     -9.65390418
 H     20.13111446     13.15203041    -10.62555803
 H     20.56885352     12.80669510     -9.08088503
 H     19.86303818     13.79114602     -8.58880783
 H     20.59231683     13.79020730     -7.63414987
 H     21.73860547     13.09417854     -8.80454851
 H     20.54736274     12.04789673     -7.99553564
1502
Final Conformation Chain 10 (Simulation Frame 11)
 C      0.00000000      0.00000000      0.00000000
 C      1.54000000      0.00000000      0.00000000
 C      2.16637443      0.38784772     -1.35234212
 C      3.69458424      0.57205152     -1.30497397
 C      4.14785297      1.86970488     -0.61053663
 C      5.66424894      1.94548552     -0.35285356
 C      6.12867732      3.27702280      0.26594750
 C      7.64931000      3.36570511      0.49268895
 C      8.16651693      2.46574809      1.63030679
 C      9.68695686      2.55544625      1.85793951
 C     10.21760497      1.58812469      2.93232380
 C     11.75335466      1.55490909      3.04172953
 C     12.28679195      0.52944544      4.05930947
 C     13.81589911      0.56263271      4.23911468
 C     14.33931097     -0.39144975      5.32877825
 C     14.06649236      0.08942757      6.76611155
 C     14.21429506     -1.01086886      7.83339883
 C     13.67996778     -0.61263720      9.22174529
 C     13.83553839     -1.70982215     10.29112968
 C     13.25903569     -1.32924072     11.66750260
 C     13.46276893     -2.40448144     12.75099241
 C     13.07141955     -1.94732330     14.16854385
 C     13.79927344     -2.70517484     15.29437233
 C     13.01613168     -2.76211521     16.61915411
 C     13.59651239     -3.75025883     17.64790598
 C     12.62280507     -4.11602844     18.78355850
 C     13.27128639     -4.90871995     19.93365074
 C     12.26817165     -5.42628470     20.98126115
 C     11.09155510     -6.21981347     20.38336017
 C     10.20550935     -6.91368455     21.43458129
 C      8.97235073     -7.62287420     20.84469159
 C      8.27197559     -8.58126834     21.82579062
 C      7.00558092     -9.24635327     21.25525879
 C      6.49951635    -10.44270576     22.08244642
 C      5.10039068    -10.93973111     21.67377394
 C      4.77711144    -12.36636246     22.15524409
 C      3.29828752    -12.76312587     21.99014231
 C      3.01326467    -14.24980413     22.27324963
 C      1.67297524    -14.50572949     22.98720093
 C      1.51813026    -15.93679593     23.53462388
 C      2.62762331    -16.35498081     24.51734794
 C      2.35562620    -17.68811932     25.23870727
 C      3.61429744    -18.34675649     25.83330274
 C      3.34085420    -19.20826339     27.08015264
 C      4.59362074    -19.89709839     27.65258807
 C      5.27880705    -20.86653599     26.67161383
 C      6.41906539    -21.69011024     27.29861971
 C      6.67620693    -23.03781805     26.59921862
 C      7.52772526    -24.01976151     27.42523530
 C      8.04148441    -25.23049456     26.62412544
 C      8.97185820    -26.16146898     27.42368235
 C      8.88895035    -27.64086855     27.00403585
 C      9.54554631    -28.61277322     28.00197526
 C      9.58173494    -30.07514277     27.52055477
 C     10.23685814    -31.04731625     28.51920001
 C     10.16375392    -32.52563297     28.09395249
 C     10.99035863    -33.47439792     28.98174172
 C     10.87400027    -34.95915636     28.58988320
 C     11.67802965    -35.91077281     29.49518033
 C     11.59574170    -37.39088827     29.07794309
 C     12.39440199    -38.34330604     29.98714171
 C     12.21710639    -39.83374838     29.64254354
 C     13.11643535    -40.77748529     30.46240211
 C     13.09699590    -42.23912336     29.97780302
 C     13.88700433    -43.20781522     30.87731553
 C     13.53207021    -44.69110263     30.66405461
 C     14.40004745    -45.66652472     31.48061278
 C     14.34293459    -47.12280629     30.98303655
 C     15.16729331    -48.10780525     31.83263043
 C     15.23951187    -49.53076675     31.24819476
 C     15.78937833    -50.58341850     32.22858813
 C     15.31245590    -52.01875808     31.93885500
 C     15.92953381    -53.08287168     32.86539539
 C     15.49060344    -54.52361566     32.54415261
 C     15.83839895    -55.54425843     33.64366460
 C     14.79687655    -56.66658878     33.80860603
 C     15.11950215    -57.65902398     34.94111877
 C     13.98263596    -58.65188254     35.24667911
 C     14.30494668    -59.64378637     36.37974689
 C     13.21004294    -60.70028157     36.61766223
 C     13.65589060    -61.87479368     37.50835923
 C     12.54237980    -62.89799099     37.79949659
 C     13.02880568    -64.16109237     38.53404731
 C     11.97070021    -65.27580696     38.63112565
 C     12.25964457    -66.32012503     39.72543408
 C     11.01019350    -67.07421503     40.21718634
 C     11.30507093    -68.14879115     41.28016963
 C     10.04829613    -68.70046541     41.97857682
 C     10.26275857    -70.05800224     42.67334270
 C      9.06167486    -70.52751366     43.51510095
 C      9.38955876    -71.67429542     44.48925892
 C      8.17637119    -72.18129178     45.29096373
 C      8.38202572    -73.56799283     45.92843248
 C      7.31162234    -73.94356636     46.96996074
 C      7.45164176    -75.37345852     47.52440007
 C      6.43660374    -75.71882487     48.62985017
 C      6.40280241    -77.21207722     49.00489004
 C      5.38087069    -77.55901136     50.10347653
 C      5.35601344    -79.05015389     50.48750269
 C      4.68509043    -79.33658036     51.84375568
 C      4.83345160    -80.79331551     52.32073751
 C      4.24243291    -81.05820089     53.71792492
 C      4.35896732    -82.52261817     54.17998742
 C      3.81120232    -82.77798233     55.59644167
 C      3.78487935    -84.26411021     55.99934492
 C      3.50753959    -84.50272309     57.49525486
 C      3.87478626    -85.91664782     57.98264254
 C      3.35326101    -86.24809592     59.39322879
 C      3.70503168    -87.66841280     59.87339268
 C      2.67025686    -88.27795334     60.83739549
 C      3.05190467    -89.67336792     61.36537570
 C      1.99433682    -90.30391225     62.29034277
 C      2.37043447    -91.70453282     62.80842828
 C      2.60380252    -92.74245214     61.69493700
 C      3.29313670    -94.03283220     62.17591279
 C      3.30262334    -95.16457840     61.13156585
 C      3.95993232    -96.46685563     61.62514355
 C      4.22416863    -97.49651776     60.51088367
 C      4.58441204    -98.90136341     61.02879618
 C      4.54698749    -99.99650945     59.94673586
 C      5.43613703   -101.21485851     60.25760346
 C      5.12132901   -102.45502024     59.40057674
 C      5.72356653   -103.76300685     59.94654469
 C      5.30771630   -105.02016038     59.16026637
 C      5.63402744   -106.34362047     59.87690745
 C      5.30305109   -107.60097529     59.05161143
 C      5.42376499   -108.91790007     59.84074847
 C      6.87533849   -109.35245909     60.11587177
 C      7.07272670   -110.05395998     61.47253473
 C      8.53563174   -110.42501618     61.77884526
 C      8.75130527   -111.01293517     63.18576964
 C     10.18326623   -111.51918266     63.44033062
 C     10.58584023   -111.53851341     64.92665511
 C     12.10411140   -111.44197090     65.16567853
 C     12.49263729   -111.20162696     66.63635267
 C     14.01155341   -111.19727370     66.89027167
 C     14.40938301   -110.72584460     68.30133021
 C     15.92701460   -110.74172352     68.56237086
 C     16.35134485   -109.98802584     69.83653084
 C     17.75123785   -110.36920506     70.35286598
 C     18.18950944   -109.59092399     71.60737648
 C     19.59806073   -109.95671672     72.11114123
 C     19.78140138   -109.79396727     73.63150265
 C     21.14852661   -110.27465961     74.15256258
 C     21.46858624   -109.81582480     75.58735610
 C     22.89221884   -110.17040684     76.05548192
 C     23.21102290   -109.71486116     77.49160243
 C     24.61196276   -110.12489611     77.98235579
 C     24.90474507   -109.73027137     79.44185907
 C     26.35902607   -109.98484306     79.87987737
 C     26.60764479   -109.76601343     81.38383958
 C     27.71006897   -110.66502357     81.97379017
 C     28.19780156   -110.22572578     83.36689259
 C     29.29362094   -111.13014820     83.96086225
 C     29.73253056   -110.73149990     85.38214262
 C     30.48036785   -111.84301757     86.14166079
 C     30.90999069   -111.44799110     87.56678476
 C     31.69390693   -112.54468839     88.31131842
 C     32.04004311   -112.18739846     89.76875921
 C     33.23983842   -112.96790085     90.33700850
 C     33.73841948   -112.44673196     91.69767007
 C     34.87340043   -113.28666402     92.31243211
 C     35.40122879   -112.74114843     93.65236119
 C     36.36310607   -113.69685165     94.38244575
 C     37.06430274   -113.06921684     95.60146083
 C     38.11443948   -113.98347918     96.25944047
 C     38.99300331   -113.27525109     97.30736154
 C     39.94958965   -114.21687782     98.06226664
 C     40.96139453   -113.48857852     98.96638555
 C     42.15889023   -114.35769642     99.39327915
 C     42.93745789   -113.80202662    100.60020229
 C     44.16418451   -114.64466906    100.99605012
 C     45.02075798   -114.01816719    102.11201486
 C     46.39522801   -114.68759400    102.29721714
 C     47.06346037   -114.38210160    103.65063500
 C     48.39365905   -115.12516164    103.87431612
 C     49.20482591   -114.60906724    105.07733519
 C     50.55885855   -115.31697144    105.26986381
 C     51.44898989   -114.68206942    106.35437551
 C     52.90910360   -115.17110310    106.33170366
 C     53.76639303   -114.63789178    107.49460543
 C     55.18721876   -115.22950859    107.54793283
 C     55.99767324   -114.80202929    108.78568280
 C     57.45713514   -115.29348412    108.77911924
 C     58.42115861   -114.40420335    109.58623662
 C     59.82601534   -115.00807741    109.76875699
 C     60.82910421   -114.06381975    110.45708118
 C     61.89699394   -114.78893133    111.29697683
 C     62.60700537   -113.88572081    112.32249841
 C     63.81448820   -114.54868965    113.01101678
 C     64.56192188   -113.62497296    113.99065466
 C     65.71001090   -114.31526504    114.75025220
 C     66.47216764   -113.38574558    115.71291034
 C     67.78735850   -113.98133663    116.24876881
 C     68.87166864   -112.93140702    116.55457812
 C     70.28686076   -113.51895698    116.70825415
 C     71.31685960   -112.52929049    117.28380832
 C     72.78163338   -112.94670607    117.05620775
 C     73.75840967   -111.76255348    116.93255214
 C     75.21323027   -112.17798767    116.64530407
 C     76.18397413   -110.99267859    116.48942358
 C     77.62059450   -111.40433165    116.11758535
 C     78.66489958   -110.29199189    116.32669579
 C     80.09526879   -110.69098086    115.91871083
 C     81.10221233   -109.52609902    115.94545057
 C     82.36598649   -109.77104264    115.10018287
 C     83.37651930   -108.60943565    115.13323797
 C     84.46393159   -108.69407026    114.04605285
 C     85.49251287   -107.54913610    114.09845814
 C     86.59036308   -107.64366807    113.02263816
 C     87.39758745   -106.34557664    112.83569580
 C     86.74372440   -105.33406589    111.87605571
 C     87.33320221   -103.91418793    111.96584712
 C     86.45578495   -102.82933424    111.31405619
 C     86.96246054   -101.39312540    111.54249438
 C     86.22802316   -100.32926935    110.70558814
 C     86.89682328    -98.94227643    110.72918981
 C     86.04649907    -97.82598658    110.09480371
 C     85.47186190    -98.18543807    108.71198530
 C     84.68198232    -97.04354424    108.04582561
 C     84.21682287    -97.35722232    106.61165939
 C     83.23390805    -96.32323176    106.03170941
 C     82.95084904    -96.50247587    104.52859625
 C     81.71322585    -95.73459717    104.02834518
 C     81.10288155    -96.30494538    102.73459762
 C     79.69752153    -95.76337618    102.41324732
 C     79.13796967    -96.23771279    101.05917698
 C     77.67129112    -95.83798866    100.81285469
 C     77.12645602    -96.27055478     99.43894011
 C     75.73062228    -95.70746543     99.11308960
 C     75.21906859    -96.07559522     97.70795854
 C     73.88510926    -95.40456420     97.33130235
 C     73.18585066    -96.03978578     96.11510707
 C     72.34725002    -95.04888656     95.28657361
 C     71.58952693    -95.69768067     94.11332090
 C     70.57882296    -94.76092943     93.42588029
 C     69.55622363    -95.48910581     92.53388826
 C     68.26485364    -94.68939073     92.28007861
 C     67.28249392    -95.37632826     91.31328690
 C     66.15636392    -94.45640525     90.80616474
 C     64.95877352    -95.20937143     90.19754403
 C     63.77391296    -94.30091379     89.82017129
 C     62.74947336    -94.96511747     88.88157821
 C     61.49726376    -94.10926871     88.61494359
 C     60.47731492    -94.76932664     87.66856740
 C     59.38472521    -93.81129783     87.15863749
 C     58.50714839    -94.40118553     86.03904317
 C     57.60558942    -93.36716273     85.33933732
 C     56.46075053    -93.98841289     84.51775826
 C     55.34983557    -92.99177369     84.13805014
 C     54.30101554    -93.56332734     83.16598894
 C     53.39522423    -92.49633595     82.52359382
 C     52.05664470    -93.04593042     81.99657318
 C     51.37208833    -92.13792558     80.95805993
 C     50.51816408    -92.89882107     79.92682212
 C     49.98229196    -92.01643359     78.78409144
 C     49.04844388    -92.75515515     77.80745526
 C     48.53741866    -91.88097208     76.64717203
 C     47.69108803    -92.64562086     75.61245626
 C     46.89406854    -91.73550289     74.65954220
 C     46.38375539    -92.44823254     73.39336806
 C     45.56008649    -91.54607006     72.45567279
 C     45.07919851    -92.24930767     71.17278402
 C     44.71090197    -91.28472923     70.03017906
 C     44.06107530    -91.97225308     68.81500983
 C     43.57144331    -90.99504726     67.73014611
 C     42.81637074    -91.67255127     66.57150306
 C     42.09660371    -90.68730591     65.63191431
 C     41.81493963    -91.25321910     64.22763243
 C     40.78843500    -90.43890199     63.41845021
 C     41.00113545    -90.50058929     61.89445769
 C     40.16296467    -89.47933679     61.10318462
 C     40.28263386    -89.62109110     59.57439915
 C     39.51298402    -88.54691771     58.78358270
 C     39.37511409    -88.85403552     57.28082838
 C     38.27133609    -89.87536494     56.94892425
 C     37.62069467    -89.66810182     55.56859540
 C     36.47792494    -88.63579823     55.56343370
 C     35.39402102    -88.90655867     54.50350867
 C     34.23463096    -87.89308065     54.52015235
 C     33.09200194    -88.23241369     53.54503594
 C     31.90081089    -87.25872311     53.61278934
 C     30.55713871    -87.88259088     53.19215403
 C     29.38607857    -86.88308868     53.15731885
 C     28.14384155    -87.39957105     52.40785695
 C     26.99512255    -86.37760470     52.32051032
 C     25.70041921    -86.94150797     51.70621693
 C     24.87037812    -85.90163801     50.93078012
 C     23.65545437    -86.49407539     50.19282467
 C     22.56734647    -85.46051520     49.84731846
 C     21.21530475    -86.08279785     49.45191047
 C     20.10525226    -85.04992938     49.18252930
 C     18.69818758    -85.66216393     49.05238388
 C     17.56333545    -84.62179184     49.01582472
 C     16.15455703    -85.23499533     48.91130275
 C     15.01396975    -84.20565861     49.01678535
 C     13.60930737    -84.80455685     48.81717454
 C     12.47584009    -83.76216076     48.83337124
 C     11.11884826    -84.30478107     48.34784434
 C      9.94320365    -83.33318137     48.56104323
 C      8.61532020    -83.81202567     47.94538610
 C      7.39753967    -82.95543861     48.33892033
 C      6.07121003    -83.42850580     47.71549663
 C      4.82306176    -82.74700307     48.30649572
 C      3.49833691    -83.20383597     47.66774087
 C      2.24212618    -82.69313091     48.39761412
 C      0.91790342    -83.10189634     47.72608979
 C     -0.31195786    -82.33671592     48.24910045
 C     -1.54214682    -82.42286902     47.32670532
 C     -2.71425644    -81.52291127     47.76010477
 C     -3.82333491    -81.38528815     46.70057430
 C     -5.00531032    -80.50234040     47.14209146
 C     -6.12893390    -80.39037658     46.09493619
 C     -7.38578507    -79.65815570     46.60068090
 C     -8.49768605    -79.51964851     45.54422836
 C     -9.60303635    -78.51758628     45.92589840
 C    -10.53612818    -78.14027435     44.76031899
 C    -11.82574170    -77.42122407     45.19788460
 C    -12.71401270    -76.96047586     44.02729257
 C    -13.92549535    -76.11211386     44.45646819
 C    -14.83252998    -75.67993072     43.28937525
 C    -15.94402591    -74.69303892     43.69214238
 C    -16.98985825    -74.44352614     42.58960980
 C    -18.10220759    -73.45781779     42.99291862
 C    -19.13884009    -73.19558248     41.88466518
 C    -20.06930128    -72.00141530     42.16716598
 C    -21.05005862    -71.68696982     41.02224717
 C    -22.00313780    -70.51410609     41.31827207
 C    -23.04644461    -70.26080150     40.21421243
 C    -24.01262235    -69.10112671     40.51958917
 C    -25.15911964    -68.95647050     39.50164098
 C    -25.65910120    -67.51094215     39.32257050
 C    -26.16837598    -67.19552906     37.90385496
 C    -26.72936125    -65.77048874     37.74212796
 C    -27.15392365    -65.42405361     36.30291656
 C    -27.62142968    -63.96804213     36.12106863
 C    -28.40372466    -63.71945870     34.81806408
 C    -28.50603345    -62.23466120     34.42245156
 C    -28.95198899    -62.00361247     32.96665619
 C    -28.95076423    -60.52434285     32.53845078
 C    -29.37526739    -60.29525356     31.07594773
 C    -29.26300873    -58.83071673     30.61320607
 C    -29.11249836    -58.66502142     29.08956186
 C    -29.17278533    -57.20299950     28.60950210
 C    -28.90882982    -57.02715646     27.10251613
 C    -29.08200154    -55.58152008     26.60077214
 C    -28.66111499    -55.37286150     25.13417195
 C    -28.48255757    -53.89547399     24.73788493
 C    -27.90269414    -53.69137991     23.32589909
 C    -28.22951394    -52.31970592     22.70678740
 C    -27.17515706    -51.81859055     21.70238960
 C    -27.09797175    -50.28476486     21.58827930
 C    -25.88348469    -49.77641767     20.78940239
 C    -25.83581200    -48.24558643     20.62852030
 C    -24.57620445    -47.73044358     19.90767588
 C    -24.45944625    -46.19532426     19.87057860
 C    -23.14684423    -45.68178588     19.25013178
 C    -23.01703940    -44.14729889     19.24011227
 C    -21.65893992    -43.63692997     18.72369250
 C    -21.61376307    -42.11763484     18.47610138
 C    -20.25441816    -41.60667065     17.96356161
 C    -20.22601226    -40.09671652     17.66217872
 C    -18.81781713    -39.47508684     17.70868677
 C    -18.72842732    -38.07784626     17.06733801
 C    -17.30146714    -37.50069670     17.01955723
 C    -17.20544364    -36.12320984     16.33771456
 C    -15.76409356    -35.67329276     16.03491994
 C    -15.64439344    -34.19731020     15.61213471
 C    -14.19906123    -33.66598147     15.59468320
 C    -14.08387897    -32.17604266     15.22264100
 C    -12.63452583    -31.66379844     15.13000550
 C    -12.46181885    -30.43404323     14.21925064
 C    -12.30672542    -30.77730639     12.72602714
 C    -11.75618307    -29.62060381     11.87130948
 C    -11.41144400    -30.01985778     10.42446766
 C    -10.41467448    -29.07092001      9.73340497
 C    -10.40732929    -29.18074745      8.19734378
 C     -9.00909525    -29.40475678      7.59206584
 C     -8.94670350    -29.20054323      6.06694155
 C     -7.55514759    -29.45317634      5.45755770
 C     -7.39643542    -28.92707186      4.01893874
 C     -5.97003090    -29.06545100      3.45518227
 C     -5.87433156    -28.84987496      1.93335159
 C     -4.45062972    -29.00481981      1.36707854
 C     -4.36660787    -28.86260720     -0.16403736
 C     -5.25340582    -27.74233914     -0.73865799
 C     -4.51749978    -26.40572383     -0.94722890
 C     -5.38954637    -25.30162213     -1.57340315
 C     -4.60867003    -24.03344963     -1.96528408
 C     -5.50245256    -22.81832717     -2.27549402
 C     -4.73114888    -21.49269090     -2.41470287
 C     -5.59849686    -20.23805061     -2.20213475
 C     -4.84212575    -18.91198966     -2.40477999
 C     -5.71891289    -17.65791670     -2.23115593
 C     -5.00715946    -16.34103095     -2.59284498
 C     -5.75085421    -15.07730872     -2.12218136
 C     -4.99341660    -13.76527090     -2.39866832
 C     -5.84041243    -12.49658094     -2.18742480
 C     -5.06981534    -11.18336945     -2.41819678
 C     -4.54275409    -11.01056589     -3.85484056
 C     -3.91658519     -9.63090438     -4.13060609
 C     -3.70994453     -9.32433244     -5.62556873
 C     -2.87395950     -8.05955810     -5.89589241
 C     -2.27144711     -7.99774837     -7.31178731
 C     -1.66008609     -6.63130161     -7.67325788
 C     -1.08022447     -6.56175695     -9.09822245
 C     -0.87233435     -5.12805250     -9.62059517
 C     -0.11658467     -5.05294641    -10.96029719
 C      0.23323849     -3.61992318    -11.40264116
 C      1.10877981     -2.84996708    -10.39656214
 C      1.84108304     -1.63823739    -11.00240300
 C      2.67423949     -0.83693968     -9.98487053
 C      3.76837099      0.03920935    -10.62270994
 C      4.39935249      1.05707125     -9.65450567
 C      5.66431707      1.74274298    -10.20343090
 C      6.18137455      2.89799660     -9.32613925
 C      6.75696144      2.44631367     -7.97104432
 C      7.48241155      3.56164757     -7.19557515
 C      8.07901092      3.10403191     -5.85160451
 C      8.80825675      4.21830966     -5.07817991
 C      9.78940267      3.70050891     -4.01008110
 C     10.46034346      4.81344039     -3.18375066
 C     11.62436487      4.32393790     -2.30225111
 C     12.10126356      5.35671033     -1.26420065
 C     13.18688157      4.82848881     -0.30815903
 C     13.39751593      5.70062005      0.94348799
 C     14.36106737      5.08956433      1.97778946
 C     14.38063024      5.82853394      3.32876733
 C     15.15251754      5.08801593      4.43665861
 C     14.64408245      5.38450850      5.85974888
 C     13.88864644      4.21171318      6.51202763
 C     13.15454667      4.58570823      7.81311380
 C     12.21781065      3.48402407      8.34265855
 C     11.77630997      3.68629868      9.80408325
 C     10.94306939      2.52304050     10.37341668
 C     10.78528430      2.55640265     11.90494886
 C      9.96480949      1.38483337     12.47577852
 C      9.72924297      1.46688448     13.99544165
 C      9.23859310      0.14999013     14.62524478
 C      8.93628348      0.25069651     16.13191897
 C      9.13739732     -1.06845841     16.90067348
 C      8.44863094     -1.10225408     18.27764797
 C      8.84925035     -2.30718190     19.14899924
 C      8.02803196     -2.44388053     20.44457395
 C      8.59683430     -3.47080695     21.44131163
 C      8.39729123     -3.08628734     22.91912327
 C      9.28476128     -3.87780849     23.89763805
 C      9.68846993     -3.08774246     25.15637352
 C     10.57839300     -3.87825938     26.13347123
 C      9.92522485     -5.16293086     26.67623321
 C      9.03171617     -4.93816107     27.91021894
 C      7.89963554     -5.97133089     28.06039743
 C      6.89934321     -5.97911828     26.88951972
 C      5.93038246     -7.17601976     26.90143226
 C      5.24146808     -7.43769053     25.54920248
 C      4.12445459     -8.49609302     25.60974176
 C      3.15536499     -8.45314209     24.41365624
 C      1.71963057     -8.89360923     24.75461865
 C      0.83745074     -9.16272510     23.52135654
 C     -0.22405694    -10.25732137     23.73736681
 C     -1.13105780    -10.49988770     22.51666577
 C     -0.36489236    -10.83937485     21.22463674
 C      0.05037337     -9.60659349     20.40037677
 C      0.67674874     -9.94770184     19.03549620
 C      1.68244693     -8.89770324     18.52788011
 C      2.37207280     -8.09773269     19.64862241
 C      3.47294382     -7.14300537     19.15044700
 C      4.18730836     -6.36983412     20.27449750
 C      3.33442143     -5.25486671     20.90776802
 C      3.88911821     -4.72350571     22.24252155
 C      3.25203547     -3.39915174     22.70275208
 C      3.62325805     -2.99194705     24.14079872
 C      2.86897746     -3.77839641     25.22898906
 C      3.37475249     -3.51153171     26.65887537
 C      2.73240185     -4.41359058     27.72905080
 C      1.20004659     -4.28783668     27.81664828
 C      0.54908153     -5.25218279     28.82554920
 C      0.92835806     -6.72969518     28.61411027
 C      0.71561895     -7.61491588     29.85617564
 C      1.27139800     -9.04364438     29.70973611
 C      0.49193366     -9.91969489     28.71145216
 C      1.05816324    -11.34291875     28.55202218
 C      2.46898505    -11.39043593     27.93645418
 C      2.86691113    -12.77342312     27.38818303
 C      4.18637885    -12.77644812     26.59408242
 C      4.60120191    -14.16531166     26.07390945
 C      5.81169136    -14.14185384     25.12219257
 C      6.18066118    -15.52065518     24.54394684
 C      6.87883193    -16.45510408     25.54941333
 C      7.67679824    -17.59718353     24.89328506
 C      8.29913933    -18.58430541     25.89821388
 C      9.25894635    -19.60579845     25.26030915
 C      9.56003048    -20.82437745     26.15250507
 C     10.75455482    -21.67073255     25.67459855
 C     10.68737638    -23.14799858     26.10444983
 C     12.02554133    -23.89924741     25.97584277
 C     11.91188196    -25.42108836     26.18243819
 C     13.25095219    -26.11168043     26.50114418
 C     13.14539633    -27.63981929     26.66004536
 C     14.48835177    -28.33306432     26.95581893
 H     -0.36333333      0.00000000      1.02766186
 H     -0.36333333     -0.88998127     -0.51383093
 H     -0.36333333      0.88998127     -0.51383093
 H      1.88274777     -0.11978266     -1.02775293
 H      1.88274777     -0.45293332     -0.93030929
 H      3.19939276      0.68874262     -1.17788471
 H      3.16319699     -0.04977830     -1.40645539
 H      3.90695665      1.61360784     -1.06381344
 H      3.95056237      1.07390278     -0.37184990
 H      5.05290883      1.65603654     -0.04192452
 H      5.19602640      1.76120477     -0.33186085
 H      6.04493045      2.85739080     -0.81286479
 H      5.82734596      2.49540559      0.57401605
 H      6.92177055      3.06375017      0.98261891
 H      7.00663761      3.08113816      0.88150817
 H      7.84121358      3.29046886      1.56302185
 H      8.05818523      2.35547906      0.47359985
 H      8.96063554      1.83352550      1.23310378
 H      8.74521023      3.08181192      2.31855052
 H      9.86762712      2.66339418      2.92742794
 H     10.00083138      1.67937381      2.42546033
 H     11.05630328      1.03417894      2.51062574
 H     11.17622411      1.96469056      3.28918160
 H     12.02401683      1.64361943      4.09385712
 H     12.05266711      0.55686069      3.36174742
 H     12.94245268      1.04910488      4.75799615
 H     13.12759384      0.97752987      4.58881163
 H     14.03901381      0.44313941      5.29932277
 H     14.27903936      0.36001777      3.27342928
 H     14.04734705     -1.40761248      5.06369268
 H     13.68879811     -0.30730030      6.19932514
 H     12.98922232      0.19660075      6.89300981
 H     14.54634870      1.05890827      6.90007076
 H     14.24738462     -0.53531658      8.81363099
 H     13.51161978     -1.81092417      7.60046329
 H     12.62196858     -0.36901502      9.12486433
 H     14.22616317      0.26808998      9.55951775
 H     14.89502030     -1.94738668     10.38684371
 H     13.29368857     -2.59427243      9.95609760
 H     12.19688154     -1.11605942     11.54716020
 H     13.77191342     -0.43365024     12.01817925
 H     14.53278955     -2.57885945     12.86390021
 H     12.97816127     -3.32241041     12.41833367
 H     12.01858894     -1.66525637     14.15927277
 H     13.67775819     -1.07962756     14.42846221
 H     14.87186313     -2.55617015     15.17007845
 H     13.56642475     -3.76580430     15.19978574
 H     12.06319474     -3.25743895     16.43296717
 H     12.83536482     -1.74089607     16.95461621
 H     14.62171873     -3.45281288     17.86830985
 H     13.59436035     -4.74638889     17.20539014
 H     11.73338557     -4.56477322     18.34122257
 H     12.34618846     -3.20031491     19.30610226
 H     14.07684336     -4.30634827     20.35356301
 H     13.68286157     -5.83141219     19.52457264
 H     11.27757189     -5.44584376     20.52691597
 H     11.74518250     -4.57009844     21.40732151
 H     11.49506765     -7.07605454     19.84287071
 H     10.55786371     -5.57062889     19.68921834
 H      9.80143656     -6.15059267     22.09980002
 H     10.82759813     -7.60200303     22.00670298
 H      9.31650888     -8.37582632     20.13566531
 H      8.36775293     -6.88141563     20.32238833
 H      7.95380215     -8.00806395     22.69659622
 H      8.98989780     -9.34145149     22.13370179
 H      7.28588992     -9.81083712     20.36594173
 H      6.30058605     -8.46179879     20.98038336
 H      6.27838369    -10.09309769     23.09089798
 H      7.29112656    -11.19092521     22.12270724
 H      5.13508003    -11.23774484     20.62587869
 H      4.39563538    -10.11701047     21.79440029
 H      4.84292076    -12.38411829     23.24311075
 H      5.51851237    -13.04609233     21.73525366
 H      3.04000955    -12.69117388     20.93363135
 H      2.68955744    -12.06236540     22.56152874
 H      2.57820324    -14.33175972     23.26929422
 H      3.60808943    -14.84999698     21.58473525
 H      0.87084508    -14.11628911     22.36028514
 H      1.68333627    -13.97173292     23.93738002
 H      2.50050624    -16.40900233     23.54227578
 H      1.60070253    -16.63363051     22.70053553
 H      2.61828098    -15.66299655     25.35947057
 H      3.58560162    -16.28699751     24.00183281
 H      2.25160775    -18.46993096     24.48634385
 H      1.42310913    -17.59279965     25.79496808
 H      4.05808062    -17.65431233     26.54861915
 H      4.31897853    -18.53312062     25.02287510
 H      2.63915938    -19.99582561     26.80543437
 H      2.89299971    -18.57291482     27.84425901
 H      5.31640937    -19.12637832     27.92029532
 H      5.21853755    -20.21909024     26.81958133
 H      5.57141315    -20.30586572     25.78384667
 H      4.56034410    -21.63774308     26.39385384
 H      6.00822521    -22.27135073     28.12413158
 H      7.17134724    -20.99942812     27.67957933
 H      6.92863501    -22.84062147     25.55734839
 H      5.76117411    -23.62827333     26.64588239
 H      7.01130189    -24.21443672     28.36518661
 H      8.49011101    -23.55065239     27.62980875
 H      8.64872667    -24.86178350     25.79743989
 H      7.18082061    -25.77086700     26.22997390
 H      8.42413119    -26.53142455     28.29041645
 H      9.83217220    -25.58160981     27.75793251
 H      9.15519698    -27.71346130     25.94954876
 H      7.86243600    -27.97976056     27.14375160
 H      9.04897736    -28.50158474     28.96590285
 H     10.59696681    -28.34318701     28.10166589
 H     10.14066448    -30.11445931     26.58559382
 H      8.55731223    -30.40382325     27.34554831
 H      9.67689893    -31.00781980     29.45353705
 H     11.26120550    -30.71901738     28.69535997
 H     10.66682104    -32.63106331     27.13275121
 H      9.11429594    -32.79996316     27.98680350
 H     10.62303082    -33.39346975     30.00478665
 H     12.03274028    -33.15800208     28.94387154
 H     11.21443763    -35.06961265     27.56031930
 H      9.82605538    -35.25085732     28.65932420
 H     11.31798590    -35.79691553     30.51767972
 H     12.72864260    -35.62461233     29.44594004
 H     11.97676104    -37.48195164     28.06077461
 H     10.54971626    -37.69635903     29.10281075
 H     12.00885898    -38.25149118     31.00253652
 H     13.44092267    -38.03918800     29.96697502
 H     12.54244518    -39.98875185     28.61384115
 H     11.15950547    -40.08242608     29.73051907
 H     12.88478924    -40.63998183     31.51859001
 H     14.15587553    -40.50479431     30.27990899
 H     13.43243509    -42.26093780     28.94093047
 H     12.07220249    -42.60589143     30.03593774
 H     13.45776063    -43.17296485     31.87863231
 H     14.92357879    -42.87280682     30.91450112
 H     13.73548146    -44.94609520     29.62400526
 H     12.46960570    -44.82221238     30.86918728
 H     14.27584118    -45.43298206     32.53802974
 H     15.44180716    -45.51901477     31.19587164
 H     14.68373098    -47.14494880     29.94791939
 H     13.30804079    -47.46145385     31.03215540
 H     14.78841358    -48.07956509     32.85427256
 H     16.20754335    -47.78244089     31.82177338
 H     15.69042675    -49.47195746     30.25758018
 H     14.22426436    -49.91818042     31.16285340
 H     15.14279018    -50.60558953     33.10581798
 H     16.79434689    -50.28340315     32.52545340
 H     15.63058629    -52.28894972     30.93193418
 H     14.22392326    -52.03569807     31.99279674
 H     15.66700592    -52.83552960     33.89398714
 H     17.01289288    -53.05168200     32.74937668
 H     15.78321442    -54.75053811     31.51897701
 H     14.40566682    -54.57927991     32.63311340
 H     15.34813318    -55.23430587     34.56652369
 H     16.91894710    -55.53900800     33.78680135
 H     14.71342787    -57.19871318     32.86098799
 H     13.83791656    -56.21076084     34.05501345
 H     15.17638276    -57.10390393     35.87744474
 H     16.08614518    -58.11668336     34.73076395
 H     13.77242851    -59.22142228     34.34139610
 H     13.09778308    -58.08266046     35.53149768
 H     14.51474294    -59.07382761     37.28486155
 H     15.18997449    -60.21302879     36.09551312
 H     13.07317033    -61.26562650     35.69584284
 H     12.28357603    -60.18339970     36.86784653
 H     13.96214050    -61.47489088     38.47499710
 H     14.50567031    -62.36324487     37.03150508
 H     12.19128858    -63.30195737     36.84994610
 H     11.72348049    -62.38049274     38.29919597
 H     13.47134424    -63.85693003     39.48259615
 H     13.78670359    -64.64525534     37.91819263
 H     11.67725017    -65.55880849     37.62023633
 H     11.10528455    -64.88147047     39.16371785
 H     12.30555065    -65.80655366     40.68576583
 H     13.22443333    -66.78087772     39.51332654
 H     10.56108675    -67.58535618     39.36563608
 H     10.30503834    -66.34531505     40.61663723
 H     11.77221911    -67.66388048     42.13733602
 H     11.99663628    -68.87416336     40.85159929
 H      9.39879471    -69.13766955     41.22022305
 H      9.53358902    -67.87092670     42.46338824
 H     11.04671550    -69.94011670     43.42141658
 H     10.58267459    -70.78052846     41.92253674
 H      8.19522201    -70.61131048     42.85909977
 H      8.86603992    -69.77742918     44.28139087
 H     10.17180227    -71.33436821     45.16796694
 H      9.75450345    -72.52238025     43.90989073
 H      7.42345522    -72.53473032     44.58647900
 H      7.77301740    -71.34782066     45.86605642
 H      9.23821867    -73.51260353     46.60071640
 H      8.59039354    -74.28342674     45.13292184
 H      6.33797036    -73.93252282     46.48008335
 H      7.32784489    -73.19595840     47.76300499
 H      8.43195910    -75.46529457     47.99199396
 H      7.37950765    -76.07268035     46.69134215
 H      5.43263119    -75.60672355     48.22049408
 H      6.57393383    -75.01720378     49.45263100
 H      7.39578887    -77.50168154     49.34870281
 H      6.14604026    -77.78373460     48.11304867
 H      4.38974970    -77.27115254     49.75288205
 H      5.63059499    -76.98678480     50.99694982
 H      6.34825703    -79.32941260     50.84185735
 H      5.11187730    -79.62939756     49.59701163
 H      3.65715424    -78.97661940     51.80045099
 H      5.22828188    -78.79263987     52.61652460
 H      5.89626480    -81.01824604     52.40981249
 H      4.38534934    -81.44647049     51.57194319
 H      3.18088021    -80.81202787     53.69333388
 H      4.74922706    -80.41012606     54.43294849
 H      5.41461259    -82.79356178     54.19738345
 H      3.83420090    -83.15168633     53.46096485
 H      2.75838651    -82.49617932     55.61274880
 H      4.36559264    -82.15262979     56.29621705
 H      4.80294009    -84.65049118     55.95074372
 H      3.15805785    -84.80117432     55.28747628
 H      2.53965136    -84.06444208     57.73856976
 H      4.28708931    -84.00499048     58.07202561
 H      4.93767358    -86.07637223     57.80137297
 H      3.29553373    -86.63876281     57.40721536
 H      2.26691068    -86.15921519     59.38665832
 H      3.77276357    -85.52479174     60.09247744
 H      4.79026358    -87.77020654     59.87651544
 H      3.27503587    -88.38360001     59.17217169
 H      1.70788380    -88.31718907     60.32710278
 H      2.59230140    -87.63039009     61.71071375
 H      4.00365245    -89.59263388     61.89050252
 H      3.16290230    -90.34374521     60.51310003
 H      1.06096920    -90.39134957     61.73421365
 H      1.84785736    -89.64259089     63.14433213
 H      3.30626087    -91.62545589     63.36166945
 H      2.91557651    -92.22602092     62.02168162
 H      3.41179018    -92.38469209     61.05676485
 H      1.68872449    -92.82807654     61.10893303
 H      2.66890608    -94.48895229     62.94428158
 H      4.25947983    -93.76613401     62.60387660
 H      3.82475163    -94.80747023     60.24389710
 H      2.27040377    -95.40266321     60.87478117
 H      3.41482728    -96.81473744     62.50260508
 H      4.99110006    -96.24692367     61.90159068
 H      4.88154548    -97.03981087     59.77103605
 H      3.27186839    -97.74868086     60.04436676
 H      3.75835073    -99.26321879     61.64099174
 H      5.48250770    -98.82100917     61.64122363
 H      5.25523013    -99.72816313     59.16284644
 H      3.54037360   -100.03248739     59.53016167
 H      5.10235188   -101.65151617     61.19888852
 H      6.46513302   -100.87064039     60.36143569
 H      5.25694831   -102.19037913     58.35192404
 H      4.08237736   -102.73602745     59.57295543
 H      5.32898697   -103.92986596     60.94882459
 H      6.80620764   -103.64703692     59.99693516
 H      5.63018780   -104.89983902     58.12603482
 H      4.22137102   -105.10234156     59.19491025
 H      5.11490616   -106.35147110     60.83531836
 H      6.70999424   -106.38551982     60.04614070
 H      5.87528417   -107.56298484     58.12467777
 H      4.23765356   -107.58936680     58.82162587
 H      4.73917352   -108.87388180     60.68780037
 H      6.23128831   -108.81070502     60.56498276
 H      7.36664707   -108.56453645     60.68674285
 H      7.38257717   -109.47834051     59.15933490
 H      6.43932237   -110.94074306     61.49522201
 H      6.76511270   -109.36746405     62.26132935
 H      9.12891064   -109.51062374     61.77627225
 H      8.89187327   -111.09147515     60.99333624
 H      8.14293358   -111.91262015     63.27824038
 H      8.42387605   -110.27596290     63.91909219
 H     10.87065896   -110.68351385     63.30899562
 H     10.40845698   -112.29357312     62.70704450
 H      9.89259524   -112.18803653     65.46109978
 H     10.50673363   -110.52365546     65.31640566
 H     12.46182431   -110.51104403     64.72577327
 H     12.58350885   -112.28595776     64.66973069
 H     12.10353712   -112.02675513     67.23289651
 H     12.03408676   -110.26860422     66.96391942
 H     14.45805985   -110.40871813     66.28453896
 H     14.41318158   -112.16289367     66.58306997
 H     13.94215697   -111.38954129     69.02886477
 H     14.03545505   -109.71169974     68.44200033
 H     16.40686515   -110.08752535     67.83445041
 H     16.28735426   -111.76155013     68.42743004
 H     15.85206126   -110.44814463     70.68923629
 H     16.03032172   -108.95049180     69.74397133
 H     18.47658979   -110.15225288     69.56871273
 H     17.75785307   -111.43765820     70.56842138
 H     17.46725020   -109.78439733     72.40047778
 H     18.19026173   -108.52750471     71.36812999
 H     20.31162027   -109.75074618     71.31332614
 H     19.61250447   -111.02108868     72.34566992
 H     19.05963327   -110.43743235     74.13459657
 H     19.58389088   -108.75393567     73.89116373
 H     21.92766865   -109.70147380     73.65007308
 H     21.25758109   -111.33062142     73.90527370
 H     20.69425622   -110.20061649     76.25101895
 H     21.45730032   -108.72610354     75.60926983
 H     23.60344318   -109.69804068     75.37789049
 H     23.00900805   -111.25308169     76.00778017
 H     22.49976674   -110.18947871     78.16758531
 H     23.09332345   -108.63240278     77.54190836
 H     25.35165328   -109.68743218     77.31184610
 H     24.68420141   -111.21180733     77.94355415
 H     24.16363515   -110.20929191     80.08169921
 H     24.81440163   -108.64751268     79.52887440
 H     27.01839280   -109.40917803     79.23030422
 H     26.57113469   -111.04760179     79.76302780
 H     25.95869150   -110.44213383     81.94045508
 H     26.35198669   -108.73469884     81.62700444
 H     28.63881257   -110.46355782     81.43998600
 H     27.42193773   -111.70520728     81.82180914
 H     27.34627360   -110.23633253     84.04725105
 H     28.58812489   -109.21098326     83.28914095
 H     30.14649359   -111.12615676     83.28211907
 H     28.89699732   -112.14233627     84.04001414
 H     28.86079139   -110.77533745     86.03502016
 H     30.11138870   -109.70996515     85.34999835
 H     31.36957994   -112.10988328     85.57053510
 H     29.82294497   -112.70923314     86.21626468
 H     30.01666970   -111.18656229     88.13399952
 H     31.56455458   -110.57905609     87.49897566
 H     32.58965542   -112.77679178     87.73524321
 H     31.06398566   -113.43182904     88.37674505
 H     31.10995705   -112.00539207     90.30719546
 H     32.64166171   -111.27847463     89.76521895
 H     34.11076726   -112.75723960     89.71635983
 H     33.00941213   -114.03225050     90.29049458
 H     32.91745584   -112.51263149     92.41165604
 H     34.03326032   -111.40418524     91.57823301
 H     35.71322378   -113.28881260     91.61759966
 H     34.51106951   -114.30575287     92.44761427
 H     34.57338255   -112.71281422     94.36085804
 H     35.77352692   -111.72997781     93.48795900
 H     37.21557681   -113.88890097     93.73090090
 H     35.83630331   -114.63117054     94.57642273
 H     36.29971232   -112.74659099     96.30815316
 H     37.63330386   -112.20386023     95.26161429
 H     38.87279908   -114.22559385     95.51487938
 H     37.61789049   -114.89825377     96.58305527
 H     38.34365626   -112.88115640     98.08911456
 H     39.51361878   -112.45198719     96.81818255
 H     40.60381868   -114.69648852     97.33421585
 H     39.35390109   -114.97515727     98.57046680
 H     40.40654985   -112.90361348     99.69991351
 H     41.55766984   -112.82059392     98.34481308
 H     42.67905157   -114.68965626     98.49476102
 H     41.77805315   -115.22428267     99.93373395
 H     42.25196348   -113.72468087    101.44413064
 H     43.30862956   -112.81035061    100.34153205
 H     44.84043250   -114.68766134    100.14227010
 H     43.82419131   -115.65083394    101.24127832
 H     44.39374062   -113.89008265    102.99436603
 H     45.37004850   -113.04394910    101.76996920
 H     46.94405611   -114.60885013    101.35876783
 H     46.23497898   -115.73867640    102.53731307
 H     46.40310087   -114.72966824    104.44513029
 H     47.19392798   -113.30305065    103.73265476
 H     49.08317571   -114.84039387    103.07959977
 H     48.20081736   -116.19666093    103.82138819
 H     48.59548726   -114.71951331    105.97433468
 H     49.42473371   -113.55387447    104.91513541
 H     51.15316099   -115.17117808    104.36783892
 H     50.37186965   -116.38113399    105.41371520
 H     50.90937605   -114.71113198    107.30098644
 H     51.64053744   -113.64549603    106.07702169
 H     53.33488266   -114.93398470    105.35672312
 H     52.91098373   -116.25151326    106.47596164
 H     53.31159882   -114.95987094    108.43140405
 H     53.76888669   -113.54891965    107.44734564
 H     55.69292397   -114.99154505    106.61212537
 H     55.10433623   -116.31143347    107.65122388
 H     55.45852405   -115.12436919    109.67647747
 H     56.07885936   -113.71505904    108.78356333
 H     57.94933525   -114.89398523    107.89241766
 H     57.45188693   -116.38246159    108.73220928
 H     58.07475122   -114.37269902    110.61924649
 H     58.39583730   -113.39973831    109.16373357
 H     60.25828198   -115.17473769    108.78211120
 H     59.72450700   -115.96173491    110.28676608
 H     60.43683884   -113.80505185    111.44057854
 H     60.91992215   -113.16102056    109.85308968
 H     62.45210974   -115.45932969    110.64084233
 H     61.39049839   -115.37106487    112.06683578
 H     61.85566492   -113.47975426    112.99983045
 H     63.08982885   -113.06995322    111.78444196
 H     64.53585457   -114.82838729    112.24322788
 H     63.46637584   -115.44410028    113.52595133
 H     63.86129047   -113.30423952    114.76159284
 H     64.91737728   -112.75521230    113.43814416
 H     66.42632654   -114.69197331    114.02012702
 H     65.29430796   -115.14955156    115.31528058
 H     65.76437949   -112.99425855    116.44357705
 H     66.89038983   -112.56188399    115.13460050
 H     68.43495663   -114.20116964    115.40001083
 H     67.55470325   -114.90579782    116.77729794
 H     68.47912467   -112.24062435    117.30078757
 H     69.09098223   -112.38755145    115.63576222
 H     70.55107871   -114.02393184    115.77912054
 H     70.27090437   -114.24258710    117.52324178
 H     70.97096700   -112.20716339    118.26599590
 H     71.37374074   -111.66802816    116.61815696
 H     72.95090004   -113.03196541    115.98281144
 H     72.93857942   -113.91718392    117.52699507
 H     73.70725040   -111.17864212    117.85153542
 H     73.44342320   -111.14480424    116.09155903
 H     75.23174212   -112.73671716    115.70958047
 H     75.55339625   -112.81943212    117.45828385
 H     76.16883491   -110.41354549    117.41271967
 H     75.83590938   -110.37077002    115.66469292
 H     77.58796095   -111.94714949    115.17292465
 H     78.00277635   -112.05971848    116.90021243
 H     78.65226456   -110.00317848    117.37766067
 H     78.38317945   -109.43734971    115.71161815
 H     80.08795443   -110.96007407    114.86247442
 H     80.39224802   -111.55584134    116.51193902
 H     81.13420604   -109.12387807    116.95801894
 H     80.75252127   -108.75494382    115.25905722
 H     82.06055816   -109.93642896    114.06700288
 H     82.86411548   -110.66345187    115.47909352
 H     83.68152162   -108.44980267    116.16744825
 H     82.88150935   -107.71373020    114.75803548
 H     83.97515566   -108.69553629    113.07178598
 H     85.01039040   -109.62766240    114.17980070
 H     85.97994100   -107.57062871    115.07316419
 H     84.96094369   -106.60509497    113.97878960
 H     86.11240901   -107.63046577    112.04310479
 H     87.12028979   -108.58684490    113.15566130
 H     87.86947758   -106.09555882    113.78591198
 H     86.72109785   -105.50018721    112.96130836
 H     85.76156290   -105.07315682    112.27024504
 H     86.62962838   -105.80999716    110.90210934
 H     88.39666938   -103.96924374    111.73323922
 H     87.20261677   -103.55273319    112.98584610
 H     85.48530124   -102.82955376    111.81030341
 H     86.32565366   -103.08048426    110.26139788
 H     87.96803939   -101.31463781    111.12927427
 H     86.99536998   -101.20799034    112.61615261
 H     85.16884206   -100.36368886    110.96063849
 H     86.35599413   -100.57422707    109.65120721
 H     87.91039017    -99.04385379    110.34129267
 H     86.93610896    -98.59824867    111.76272817
 H     85.10433437    -97.76150045    110.63910805
 H     85.12122124    -98.26799584    109.72522456
 H     84.84752494    -99.07233093    108.82026461
 H     86.30304752    -98.40579759    108.04215537
 H     85.34823064    -96.18888076    107.92850757
 H     83.85423710    -96.77174459    108.70085446
 H     83.58008536    -98.24133254    106.64350988
 H     85.09719870    -97.56523132    106.00357169
 H     83.72355109    -95.34940656    106.02794544
 H     82.35579186    -96.28589784    106.67639393
 H     82.53226295    -97.49708826    104.37486958
 H     83.89453868    -96.41815647    103.98967131
 H     81.86607911    -94.67328062    104.22415900
 H     80.84416071    -96.08528512    104.58498127
 H     80.81291762    -97.33929070    102.91939663
 H     81.86349439    -96.27467503    101.95443622
 H     79.76237335    -94.67993464    102.31300418
 H     79.03616743    -96.01254331    103.24308254
 H     79.09142687    -97.32666424    101.07006348
 H     79.81912442    -95.91099800    100.27343806
 H     77.60131337    -94.75089828    100.85077073
 H     77.06064947    -96.26926909    101.60608478
 H     77.20292290    -97.35541980     99.36599704
 H     77.74165056    -95.81015919     98.66584789
 H     75.78706375    -94.61909589     99.13222360
 H     75.03567442    -96.04879220     99.88032066
 H     75.17651712    -97.16214512     97.63246892
 H     74.62828348    -95.24168735     97.32891946
 H     74.02085974    -94.32390984     97.37440641
 H     73.13230578    -95.70553362     98.05986555
 H     72.99043666    -97.08806777     96.34097927
 H     73.85748220    -95.97158837     95.25932662
 H     73.00621217    -94.25787908     94.92855676
 H     71.58373920    -94.61981156     95.93545408
 H     70.92149183    -96.45908893     94.51592066
 H     72.31824465    -96.16653839     93.45207744
 H     71.11859384    -93.89297367     93.04719811
 H     69.84923989    -94.43924658     94.16906848
 H     69.00289632    -96.19527142     93.15296743
 H     70.10062583    -96.03213954     91.76133365
 H     68.53296918    -93.74964241     91.79728761
 H     67.79507881    -94.48275829     93.24169945
 H     67.00920167    -96.34448005     91.73292179
 H     67.78763735    -95.52361561     90.35869979
 H     66.61086515    -93.61100063     90.28961884
 H     65.59399150    -94.09617842     91.66760184
 H     64.54512122    -95.86902395     90.96033518
 H     65.31880890    -95.80489182     89.35859827
 H     64.12253403    -93.56704962     89.09353058
 H     63.43484313    -93.78820755     90.72031792
 H     62.35643190    -95.85312679     89.37661141
 H     63.26287905    -95.25707985     87.96546001
 H     61.81454155    -93.16842817     88.16521715
 H     61.00908958    -93.90961013     89.56884213
 H     60.15943965    -95.71310727     88.11166270
 H     60.96945601    -94.96293458     86.71546032
 H     59.86817156    -92.99317138     86.62473793
 H     58.84677623    -93.41536977     88.02000377
 H     58.02364347    -95.30055277     86.42043741
 H     59.15197801    -94.66322389     85.20021622
 H     58.24169529    -92.59555513     84.90564269
 H     56.95148968    -92.92034626     86.08807530
 H     55.84195032    -94.58460064     85.18838966
 H     56.89701720    -94.63418056     83.75568509
 H     55.79581659    -92.18846772     83.55161988
 H     54.92930776    -92.58117325     85.05601726
 H     53.83720030    -94.43163754     83.63397698
 H     54.81142075    -93.87163612     82.25355691
 H     54.02575811    -91.79671414     81.97490780
 H     52.87200516    -91.96655335     83.31962912
 H     51.51826253    -93.49526049     82.83104735
 H     52.27030478    -93.80952874     81.24866478
 H     52.04847672    -92.01394473     80.11234869
 H     51.18641514    -91.16826604     81.41999699
 H     49.74538554    -93.45061282     80.46202227
 H     51.16386547    -93.59920939     79.39708076
 H     50.83257202    -91.57379350     78.26525277
 H     49.37064720    -91.22611438     79.21927673
 H     48.19838028    -93.13994034     78.37086650
 H     49.59990514    -93.58669211     77.36866512
 H     49.39883849    -91.51596618     76.08786302
 H     47.99324385    -91.03581161     77.06869020
 H     46.82928682    -93.07425805     76.12399201
 H     48.30130878    -93.44660328     75.19513409
 H     47.59871728    -91.09973247     74.12347679
 H     46.22641806    -91.11469167     75.25698362
 H     45.73895453    -93.27183484     73.69998036
 H     47.24367273    -92.84225683     72.85171595
 H     46.18629632    -90.70840115     72.14863524
 H     44.69876508    -91.17208139     73.00916885
 H     44.46148949    -93.10040515     71.45943477
 H     45.95409690    -92.60274587     70.62713371
 H     45.59153024    -90.69066843     69.78587269
 H     43.91475133    -90.62742351     70.37974072
 H     43.15127735    -92.47088071     69.14928244
 H     44.75964049    -92.71320191     68.42629206
 H     44.42571796    -90.41570258     67.37989681
 H     42.83736314    -90.32534112     68.17816395
 H     41.94976875    -92.18986601     66.98319038
 H     43.48381199    -92.39676944     66.10445893
 H     42.84026588    -90.01238321     65.20818572
 H     41.37943138    -90.11466362     66.21999990
 H     41.19253259    -92.14162414     64.33461827
 H     42.76605640    -91.52865218     63.77198618
 H     41.16685388    -89.42259075     63.30885727
 H     39.85116040    -90.41962300     63.97454790
 H     40.93573681    -91.54254238     61.58115785
 H     41.99631275    -90.11590451     61.67143358
 H     40.42811003    -88.47921824     61.44605604
 H     39.10934802    -89.66692292     61.31007441
 H     39.95455211    -90.62265832     59.29632457
 H     41.32938532    -89.49213077     59.29911635
 H     39.89997891    -87.56855037     59.06842002
 H     38.45873084    -88.61297149     59.05244537
 H     38.98780504    -89.86709145     57.17215741
 H     40.37498352    -88.94190998     56.85581168
 H     37.32037873    -89.48073576     57.30676207
 H     38.49757023    -90.80586887     57.46957822
 H     38.39805305    -89.74434039     54.80833122
 H     37.44537043    -88.60138794     55.42901424
 H     36.87819089    -87.67969932     55.90071999
 H     35.70841390    -88.97286722     56.25793875
 H     34.96606967    -89.89066388     54.69454420
 H     35.86613953    -88.90014564     53.52108158
 H     34.64572534    -86.89909270     54.34383058
 H     33.76689915    -87.92350130     55.50422630
 H     32.69465282    -89.21213777     53.81027999
 H     33.50192691    -88.26770711     52.53567184
 H     32.26316840    -86.25719785     53.38096138
 H     31.50201718    -87.27508347     54.62708511
 H     30.34905595    -88.72513781     53.85163583
 H     30.65081449    -88.23869596     52.16623297
 H     29.63246404    -86.09096102     52.45026300
 H     29.26920435    -86.45719780     54.15384150
 H     27.80203812    -88.31104584     52.89824876
 H     28.43224080    -87.62554327     51.38127893
 H     27.36336405    -85.49137636     51.80369555
 H     26.69704785    -86.10953115     53.33411184
 H     25.36753762    -87.77986174     52.31814241
 H     25.92376839    -87.29303611     50.69892199
 H     25.48671924    -85.50293533     50.12501353
 H     24.60267424    -85.09702566     51.61564039
 H     23.00713037    -86.97105953     50.92784993
 H     24.01499995    -87.24181550     49.48592178
 H     23.01231514    -84.69310460     49.21392770
 H     22.21752805    -85.00793578     50.77516486
 H     20.86009419    -86.68883474     50.28536398
 H     21.37248509    -86.71914395     48.58101554
 H     20.43265875    -84.39830841     48.37240887
 H     19.95941091    -84.45968636     50.08720795
 H     18.46379710    -86.18297033     49.98078132
 H     18.70972906    -86.37568241     48.22845538
 H     17.73027020    -83.96227490     48.16419675
 H     17.60064247    -84.04135391     49.93767070
 H     15.99791536    -85.88290504     49.77372747
 H     16.10567112    -85.82776749     47.99788536
 H     15.13220693    -83.47944332     48.21258927
 H     15.09695707    -83.69947189     49.97854837
 H     13.45178799    -85.56977917     49.57725509
 H     13.56869054    -85.26100327     47.82818165
 H     12.65906708    -83.04414162     48.03401125
 H     12.49609148    -83.24871269     49.79465213
 H     10.83070255    -85.13449445     48.99332691
 H     11.23928294    -84.66430942     47.32591731
 H     10.15749521    -82.41180133     48.01952873
 H      9.86497736    -83.11843837     49.62681342
 H      8.35442657    -84.76977477     48.39566509
 H      8.76198867    -83.94254831     46.87321438
 H      7.57806741    -81.93181334     48.01074196
 H      7.29962242    -82.97708642     49.42429749
 H      5.88759848    -84.45359775     48.03732469
 H      6.17337691    -83.40105674     46.63064250
 H      4.91207082    -81.67223264     48.14823672
 H      4.79271239    -82.95549681     49.37593916
 H      3.40169676    -84.27998699     47.81147557
 H      3.53752144    -82.98178102     46.60131874
 H      2.26486565    -81.60336815     48.39740829
 H      2.27079303    -83.05694753     49.42470500
 H      0.87406623    -84.19038590     47.68909270
 H      0.91071102    -82.70328778     46.71161481
 H     -0.15330409    -81.27255392     48.07449171
 H     -0.39981199    -82.52006344     49.31997175
 H     -1.81368838    -83.47254070     47.21465826
 H     -1.27085110    -82.01195499     46.35426082
 H     -2.36681061    -80.48984376     47.77246993
 H     -3.01812521    -81.81609737     48.76499565
 H     -4.21588211    -82.37887202     46.48424637
 H     -3.38349528    -80.96368583     45.79675320
 H     -4.62340870    -79.50714559     47.36977204
 H     -5.44190671    -80.93831629     48.04065065
 H     -6.50714996    -81.39182695     45.88963207
 H     -5.70693633    -79.96739738     45.18328569
 H     -7.09753999    -78.65139786     46.90309359
 H     -7.77399115    -80.19953311     47.46341292
 H     -8.78984422    -80.51881328     45.22109779
 H     -8.09677140    -78.96594860     44.69523846
 H     -9.14399887    -77.53960765     46.07061328
 H    -10.05715883    -78.84763741     46.86021045
 H    -11.01044514    -79.05018064     44.39263167
 H     -9.93256526    -77.69911978     43.96710121
 H    -11.54739311    -76.50784093     45.72357776
 H    -12.37158939    -78.07820007     45.87503512
 H    -12.99202439    -77.83715696     43.44227996
 H    -12.13487273    -76.27759944     43.40570050
 H    -13.55758043    -75.22755236     44.97636199
 H    -14.53591677    -76.70584778     45.13688404
 H    -15.20122877    -76.57677508     42.79154857
 H    -14.23540309    -75.09534640     42.58951767
 H    -15.47609160    -73.80199999     44.11069597
 H    -16.56536804    -75.16787855     44.45145870
 H    -17.45346766    -75.39658099     42.33494774
 H    -16.47698129    -74.04372861     41.71484174
 H    -17.63939880    -72.50458769     43.24837979
 H    -18.61492424    -73.85867853     43.86729400
 H    -19.60262173    -74.14512960     41.61751941
 H    -18.61824792    -72.78885898     41.01768202
 H    -19.45539710    -71.10791228     42.28062972
 H    -20.60354486    -72.19568751     43.09718862
 H    -21.66704576    -72.56841610     40.84766388
 H    -20.47080881    -71.46558093     40.12583398
 H    -21.40290818    -69.62456584     41.50943310
 H    -22.58260044    -70.75957299     42.20825469
 H    -23.64301945    -71.16488831     40.09245242
 H    -22.51756777    -70.04666219     39.28548553
 H    -23.42596989    -68.19203930     40.65187286
 H    -25.02760208    -69.49781198     40.54318838
 H    -25.72983399    -69.88508550     39.49394016
 H    -24.72369951    -68.78942645     38.51644780
 H    -24.82274908    -66.89818439     38.98620303
 H    -26.01037094    -67.14765230     40.28835001
 H    -26.99108593    -67.87341090     37.67642464
 H    -25.35263877    -67.36557551     37.20117651
 H    -25.93922982    -65.06111302     37.98825477
 H    -27.55829118    -65.64730839     38.43912277
 H    -27.92221203    -66.13214227     35.99236316
 H    -26.28327685    -65.52524510     35.65497023
 H    -26.80262570    -63.30710857     36.40536931
 H    -28.47245437    -63.79645779     36.78017089
 H    -29.28257656    -64.36422156     34.81761321
 H    -27.76105970    -63.98063212     33.97730836
 H    -27.49659785    -61.84326388     34.29616653
 H    -29.00527372    -61.69852401     35.22955506
 H    -29.93128695    -62.46266762     32.83121661
 H    -28.23053005    -62.48524815     32.30663796
 H    -27.93902467    -60.13524643     32.65284936
 H    -29.62698330    -59.97689602     33.19505549
 H    -30.38337969    -60.68885513     30.94599614
 H    -28.68657983    -60.83966542     30.42986324
 H    -28.22534295    -58.51537003     30.72232154
 H    -29.89794077    -58.21910406     31.25421406
 H    -29.98328002    -59.11063247     28.60865635
 H    -28.21301636    -59.19393441     28.77446953
 H    -28.36948716    -56.64926791     29.09549941
 H    -30.13424526    -56.78409400     28.90650881
 H    -29.65756335    -57.59903983     26.55438521
 H    -27.91681636    -57.42029630     26.88014176
 H    -28.38732649    -54.94355246     27.14714553
 H    -30.10465424    -55.26675861     26.80863431
 H    -29.26617104    -56.02798996     24.50742330
 H    -27.61033554    -55.64584055     25.03698661
 H    -27.71738241    -53.45856591     25.37953773
 H    -29.42955287    -53.38045161     24.89929076
 H    -28.57582754    -54.15988555     22.60792006
 H    -26.92845984    -54.17822950     23.28179678
 H    -27.82597004    -51.54465621     23.35836262
 H    -29.31334453    -52.21871753     22.65010764
 H    -27.09549808    -52.54816580     20.89648985
 H    -26.21851573    -51.74219761     22.21920823
 H    -26.85521250    -49.87976575     22.57069656
 H    -28.07390527    -49.91491884     21.27384697
 H    -25.93634043    -50.19272601     19.78342345
 H    -24.97730862    -50.12952839     21.28159924
 H    -25.80477745    -47.79738269     21.62162163
 H    -26.74231026    -47.92661786     20.11410806
 H    -24.54079333    -48.18060791     18.91560828
 H    -23.70229784    -48.04235276     20.47960237
 H    -24.44147597    -45.82805698     20.89668377
 H    -25.33489924    -45.79730067     19.35749061
 H    -23.08164766    -46.05527792     18.22819582
 H    -22.31479619    -46.07478856     19.83437913
 H    -23.07179057    -43.79196931     20.26911333
 H    -23.84974390    -43.73660820     18.66911632
 H    -21.52156131    -43.99918269     17.70486961
 H    -20.87472600    -44.04307558     19.36256204
 H    -21.83591943    -41.61059235     19.41506596
 H    -22.37669583    -41.86767749     17.73883961
 H    -20.02931256    -42.11368849     17.02528640
 H    -19.49350021    -41.85620602     18.70304519
 H    -20.47066674    -39.55963512     18.57857807
 H    -20.97996463    -39.88425329     16.90421091
 H    -18.19438142    -39.98322300     16.97300642
 H    -18.40599354    -39.63346273     18.70539054
 H    -19.41364281    -37.41417357     17.59470722
 H    -19.03271476    -38.15957618     16.02386814
 H    -16.67504821    -38.18253764     16.44441181
 H    -16.92430368    -37.43417209     18.04005819
 H    -17.83936200    -35.42517354     16.88451695
 H    -17.57013039    -36.22075106     15.31517396
 H    -15.30471108    -36.41303201     15.37928774
 H    -15.21407416    -35.62951144     16.97495285
 H    -16.03476432    -33.57694726     16.41889391
 H    -16.24565982    -34.04781365     14.71534626
 H    -13.62005285    -34.27052474     14.89655948
 H    -13.78344454    -33.77021431     16.59692982
 H    -14.65340704    -31.59635812     15.94907310
 H    -14.51236571    -32.03647968     14.23015861
 H    -12.11242132    -32.24769977     14.37200411
 H    -12.15559861    -31.81346379     16.09764645
 H    -13.08559935    -29.62920828     14.60814472
 H    -12.97547970    -30.62977264     13.27800544
 H    -13.19606974    -31.31951363     12.40481383
 H    -11.43059658    -31.41533874     12.61021278
 H    -10.77780438    -29.34113150     12.26216800
 H    -12.43785545    -28.77464811     11.95952348
 H    -12.31629704    -30.39740916      9.94823670
 H    -10.66100568    -30.80974445     10.45642639
 H     -9.49274070    -29.05969516     10.31479305
 H    -10.84738820    -28.07059324      9.71907985
 H    -11.40845406    -28.95108486      7.83250918
 H    -10.14857205    -30.20480422      7.92817391
 H     -8.60134062    -30.32802813      8.00365565
 H     -8.37326252    -28.56715637      7.87884502
 H     -9.25673182    -28.17942736      5.84489468
 H     -9.63896096    -29.90036242      5.59882542
 H     -7.26590153    -30.48074143      5.67789084
 H     -6.84711848    -28.76838442      5.92430689
 H     -7.57794738    -27.85230863      4.02505434
 H     -8.13992917    -29.41754636      3.39064596
 H     -5.69806570    -30.12092042      3.46610147
 H     -5.29084337    -28.50854528      4.10067458
 H     -6.23711820    -27.84755122      1.70568302
 H     -6.50997633    -29.58662525      1.44217471
 H     -4.09943570    -30.01156971      1.59339113
 H     -3.80542016    -28.27607264      1.85772322
 H     -5.37251455    -28.69341798     -0.54825965
 H     -4.99972391    -29.62702335     -0.61451714
 H     -4.85423681    -26.78432416     -0.40553428
 H     -6.28863639    -27.95300628     -0.47029813
 H     -3.68922308    -26.57424407     -1.63545752
 H     -4.12825765    -26.07487771      0.01564773
 H     -6.24197992    -25.12484614     -0.91750126
 H     -5.74356366    -25.65285365     -2.54263386
 H     -3.84010962    -24.31313446     -2.68583338
 H     -4.13703827    -23.63066208     -1.06894393
 H     -6.09669706    -22.59484514     -1.38947525
 H     -6.16470876    -23.08161278     -3.10023483
 H     -4.00705231    -21.60062746     -3.22225093
 H     -4.20592712    -21.30183555     -1.47885227
 H     -6.02574059    -20.28243548     -1.20033997
 H     -6.40073755    -20.24693419     -2.93999040
 H     -4.45321499    -18.89135105     -3.42282836
 H     -4.01275603    -18.87904116     -1.69826724
 H     -6.13262557    -17.66588240     -1.22275206
 H     -6.53056292    -17.70396377     -2.95724401
 H     -4.69146189    -16.39697180     -3.63462503
 H     -4.13097108    -16.23796151     -1.95271170
 H     -5.85450472    -15.12436875     -1.03814173
 H     -6.73923008    -15.07013741     -2.58170471
 H     -4.82746090    -13.68516824     -3.47297846
 H     -4.03306895    -13.80912227     -1.88494713
 H     -6.18437421    -12.48237148     -1.15321574
 H     -6.70026106    -12.54331440     -2.85568846
 H     -4.08981385    -11.42844795     -2.82762761
 H     -4.22875255    -11.15324316     -1.72551663
 H     -5.39272022    -11.03359127     -4.53684306
 H     -3.87551350    -11.84319141     -4.07760668
 H     -3.08478019     -9.48797530     -3.44084402
 H     -4.67402948     -8.86832494     -3.94935833
 H     -4.67985404     -9.36578059     -6.12120730
 H     -3.05480811    -10.08802605     -6.04469678
 H     -1.89520419     -8.19052017     -5.43438729
 H     -3.38051616     -7.20965438     -5.43854788
 H     -3.08779075     -8.02972047     -8.03335564
 H     -1.63027857     -8.86836360     -7.44974393
 H     -0.87118982     -6.40798201     -6.95501625
 H     -2.44234320     -5.87574881     -7.60036230
 H     -1.88156057     -6.77653377     -9.80520999
 H     -0.30252245     -7.32004899     -9.18917712
 H     -0.18758835     -4.61354725     -8.94642362
 H     -1.83617147     -4.61902527     -9.61754981
 H     -0.68393838     -5.61038856    -11.70559446
 H      0.86182943     -5.51486398    -10.82824413
 H      0.77271840     -3.13259383    -10.59050106
 H     -0.69402342     -3.05530752    -11.50008092
 H      2.03814502     -3.40238259    -10.25793524
 H      0.57386226     -2.79505248     -9.44843367
 H      1.09495005     -0.95196772    -11.40292703
 H      2.47974413     -1.99304324    -11.81130647
 H      3.41797264     -1.50434868     -9.54952443
 H      2.00617675     -0.47747882     -9.20219559
 H      3.29011228      0.74291386    -11.30400912
 H      4.44243995     -0.60833401    -11.18344039
 H      4.84075393      0.50975369     -8.82161416
 H      3.61044846      1.71071632     -9.28237861
 H      5.39993686      2.26350021    -11.12376508
 H      6.40437636      0.97274264    -10.42140275
 H      6.31485497      2.52423315     -8.31096249
 H      5.39320287      3.64661097     -9.24575303
 H      7.58476068      1.76307798     -8.16087953
 H      5.97307696      1.92386087     -7.42271213
 H      6.77390458      4.36998308     -7.01471173
 H      8.30336125      3.92904868     -7.81133323
 H      8.79219393      2.30347923     -6.04803620
 H      7.26915089      2.72439662     -5.22862476
 H      8.09746513      5.02106271     -4.88206056
 H      9.61857335      4.59495214     -5.70238137
 H     10.53730578      3.07999066     -4.50373892
 H      9.23050083      3.09647461     -3.29532848
 H      9.67990464      5.38654913     -2.68318936
 H     11.00803460      5.46387409     -3.86571138
 H     12.37849653      3.87494899     -2.94862129
 H     11.24019285      3.57061663     -1.61448741
 H     11.26079036      5.60412903     -0.61574959
 H     12.42618688      6.25145828     -1.79519118
 H     14.04607572      4.51850977     -0.90296858
 H     12.78441103      3.96725022      0.22511908
 H     12.45517305      5.75051287      1.48901581
 H     13.68335641      6.70141538      0.61975365
 H     15.32824307      4.93906405      1.49818459
 H     13.95880722      4.12722574      2.29431943
 H     13.37341727      5.80858195      3.74496916
 H     14.67956623      6.86141329      3.15016860
 H     15.21747724      5.74291013      5.30556241
 H     14.68749433      4.11352491      4.58572461
 H     13.59315846      5.10047299      5.91436196
 H     14.73159133      6.45616043      6.03864640
 H     14.56101601      3.35512914      6.55980782
 H     13.03095146      3.96588686      5.88590564
 H     12.43552926      5.37304207      7.58679681
 H     13.88957272      4.95893505      8.52623262
 H     12.81195147      2.58945917      8.52934097
 H     11.47163134      3.27138319      7.57708668
 H     11.25673063      4.64178750      9.87604440
 H     12.66746563      3.70917336     10.43131394
 H     11.54174560      1.61379897     10.31894987
 H     10.05046976      2.40771940      9.75854519
 H     10.29904765      3.49262554     12.17910324
 H     11.77831688      2.51800697     12.35273460
 H     10.46108445      0.45362078     12.20254919
 H      8.97131679      1.41198292     12.02819036
 H      9.19808343      2.39412391     14.21037556
 H     10.69926066      1.48023955     14.49241986
 H      9.98619333     -0.62016926     14.43538063
 H      8.29960319     -0.12948273     14.14744475
 H      8.16584459      1.00796941     16.27704541
 H      9.61282088     -0.41908229     16.66276122
 H     10.17449948     -1.38118342     16.77933856
 H      8.47801502     -1.82105887     16.46834544
 H      7.37930529     -0.95131150     18.12980007
 H      8.85027725     -0.28878840     18.88184482
 H      9.92738577     -2.27339714     19.30578765
 H      8.58848379     -3.21967002     18.61284047
 H      6.97732908     -2.55028282     20.17475546
 H      8.16198689     -1.53598321     21.03268834
 H      9.60885872     -3.16582304     21.70756597
 H      8.62774589     -4.44373100     20.95083912
 H      7.32820657     -2.98377704     23.10526736
 H      8.88988442     -2.12978616     23.09393015
 H     10.32761212     -3.70005096     23.63502733
 H      9.05749908     -4.93795235     23.78562509
 H      8.78014926     -2.79101386     25.68078337
 H     10.23382322     -2.19780227     24.84221395
 H     11.48665477     -4.17310788     25.60790018
 H     10.45853884     -4.94101287     25.92301933
 H      9.68571334     -5.80889054     25.83156149
 H      8.99238106     -4.89086677     27.17007893
 H      8.24024276     -4.24001648     27.63770477
 H      8.79825895     -5.90965395     28.34587857
 H      8.34771139     -6.96197552     28.13754182
 H      7.72143226     -6.42843528     27.08705311
 H      7.44619107     -6.20065349     25.97301573
 H      6.45137644     -4.98823610     26.81483196
 H      5.36642099     -7.15117845     27.83386477
 H      6.51785208     -8.09305633     26.85645022
 H      6.01264986     -7.62843630     24.80288170
 H      4.68040579     -6.54523882     25.27200388
 H      3.36943567     -8.15738950     26.31919673
 H      4.55826968     -9.43258635     25.96029093
 H      3.72981347     -8.61288760     23.50119237
 H      2.69190418     -7.46704837     24.38327140
 H      1.33417008     -8.23381642     25.53191760
 H      1.75496627     -9.91611181     25.13057057
 H      1.30595033     -9.94934319     22.92988371
 H      0.78428455     -8.24754172     22.93168482
 H     -0.86973317     -9.95096405     24.56037798
 H      0.28706915    -11.18303869     24.00174828
 H     -0.69213411    -11.29692492     21.91651773
 H     -0.61979745    -11.18515799     21.84056112
 H      0.22130533    -11.74130177     21.40070512
 H      0.57734749    -10.29142855     21.23087446
 H      0.68796564     -8.97773743     21.02175923
 H     -0.85049982     -9.05577257     20.12996261
 H     -0.05072702    -10.51740743     18.45729680
 H      1.56262060    -10.55888962     19.20806662
 H      1.77412626     -8.11750772     19.28351882
 H      1.16492485     -7.94257822     18.43839781
 H      2.90370332     -8.79833260     20.29253913
 H      1.60329242     -7.58472944     20.22646702
 H      3.02398067     -6.43700547     18.45180816
 H      4.23046523     -7.73289088     18.63440787
 H      4.64136545     -7.09244637     20.95255626
 H      3.43086635     -5.97002822     20.94981278
 H      2.43277169     -5.70628239     21.32171443
 H      3.06015850     -4.54700052     20.12558818
 H      4.89027498     -4.33052103     22.06546743
 H      3.94407500     -5.55437174     22.94590010
 H      2.17926349     -3.55583291     22.81549639
 H      3.43061232     -2.64748597     21.93385099
 H      4.70686496     -2.88949782     24.19911005
 H      3.55768562     -3.87595507     24.77509368
 H      3.09333878     -4.83770542     25.10398341
 H      1.80014833     -3.61468898     25.09149666
 H      3.26623788     -2.44725399     26.86777128
 H      4.42868995     -3.78550529     26.70635480
 H      2.94883768     -5.45175240     27.47710723
 H      1.81901135     -4.84014555     27.31448036
 H      0.77841895     -4.55277109     26.84704017
 H      0.95390155     -3.25173179     28.04902572
 H      0.53245567     -6.24909597     28.38510888
 H      0.30594663     -6.17900809     28.30595295
 H      2.01094741     -6.82156369     28.70163447
 H      0.61876155     -7.02285663     27.61096204
 H     -0.33721204     -7.56775228     30.13442462
 H      1.32425913     -7.21768155     30.66849455
 H      2.34191803     -8.97677207     29.51579033
 H      1.25430838     -9.31145140     28.65328576
 H      0.52420304     -9.43755771     27.73441459
 H     -0.54217215     -9.98715642     29.04934876
 H      1.03674650    -11.83143576     29.52618461
 H      2.14389858    -11.27426082     28.48445834
 H      3.14260360    -10.82355498     28.57909252
 H      2.42906614    -10.92512074     26.95157436
 H      2.14791751    -13.05730353     26.61970396
 H      2.82592658    -13.49154918     28.20715508
 H      4.98254635    -12.42611881     27.25095888
 H      4.03897674    -13.36213701     25.68670094
 H      4.92778651    -14.06031952     25.03929882
 H      4.71422512    -14.83183459     26.92893748
 H      6.65816995    -13.70849953     25.65490077
 H      5.54482075    -14.68362146     24.21479633
 H      7.23419142    -15.70842739     24.75110769
 H      6.41685867    -16.18789924     25.37285945
 H      6.89500679    -17.46052456     25.12873764
 H      7.87618808    -16.68085436     25.17203085
 H      8.53022706    -17.82911185     25.53044163
 H      7.57248631    -18.48804613     25.51262570
 H      8.15498468    -19.59598615     25.51897581
 H      9.35069557    -18.71572523     25.64314859
 H     10.05605309    -19.81843192     25.97270501
 H      8.85719937    -20.60501197     25.42845105
 H      9.90707048    -21.63806257     25.51565362
 H     10.60965716    -21.09011981     26.02694696
 H     10.77125748    -22.59601122     26.25051555
 H     10.36804552    -22.58052642     25.21526679
 H     11.37321946    -23.71868056     25.47831778
 H     11.64955289    -23.42340714     26.53626748
 H     11.96968521    -24.80477282     26.57999823
 H     11.86753626    -24.77571696     25.34740381
 H     12.72268272    -25.90268343     25.63584116
 H     12.63873919    -25.71966303     26.93783991
 H     13.04915846    -26.97406933     27.13649029
 H     13.39798483    -26.92096879     25.78592830
 H     14.10728999    -28.07915151     26.39575804
 H     13.62187413    -27.92046716     27.59935663
 H     14.64305882    -28.38059308     28.03373671
 H     15.29858493    -27.76630763     26.49711524
 H     14.47394497    -29.34296569     26.54595107
