1502
Collab-Geweke equil step 4600000 E=        95.2575
 C      0.00000000      0.00000000      0.00000000
 C      1.54000000      0.00000000      0.00000000
 C      2.16637443     -1.11813418     -0.85383314
 C      3.70282135     -1.05594611     -0.93787786
 C      4.33768367     -2.24227150     -1.68699860
 C      5.86807652     -2.32973219     -1.53918669
 C      6.47945947     -3.62335726     -2.10869969
 C      8.01798484     -3.61261749     -2.17521560
 C      8.62614440     -4.87491875     -2.81422850
 C     10.14506922     -4.78675784     -3.05233572
 C     10.82189412     -6.14940170     -3.29047382
 C     12.34094507     -6.06131424     -3.52780230
 C     13.04529936     -7.42930532     -3.59171975
 C     14.56525508     -7.34102941     -3.82311115
 C     15.22903204     -8.69231326     -4.14719772
 C     16.75185713     -8.60705778     -4.36011851
 C     17.45175573     -9.97687140     -4.43327992
 C     18.95187281     -9.89649504     -4.77208430
 C     19.73292042    -11.18829792     -4.46743705
 C     21.20743182    -11.14785091     -4.90990757
 C     21.95906683    -12.47650785     -4.70664530
 C     23.43897180    -12.43010307     -5.13011651
 C     24.18996201    -13.75947916     -4.92918640
 C     25.70309871    -13.67148757     -5.20172045
 C     26.48321099    -14.94338767     -4.82054470
 C     28.01325947    -14.78634811     -4.89729240
 C     28.79512572    -16.00300170     -4.36810507
 C     30.30125551    -15.96676923     -4.68726062
 C     31.07535399    -17.20456736     -4.19713070
 C     32.53599787    -17.26227250     -4.68168161
 C     33.36603947    -18.38750165     -4.03632101
 C     34.88865219    -18.19064236     -4.15672420
 C     35.71483237    -19.41618587     -3.72420896
 C     37.21192029    -19.12079679     -3.51666849
 C     38.08933685    -20.38136155     -3.40390032
 C     39.54247770    -20.09725184     -2.98050531
 C     40.41546942    -21.35933402     -2.85153236
 C     41.79104244    -21.10628491     -2.20704417
 C     42.54067692    -22.39038792     -1.80613570
 C     44.04951902    -22.18814139     -1.57355912
 C     44.81746124    -23.48951186     -1.27640653
 C     46.33493329    -23.29503792     -1.10017245
 C     47.09165061    -24.58196918     -0.72230099
 C     48.60804438    -24.38595191     -0.53865141
 C     49.34194259    -25.63399113     -0.01387381
 C     50.87080637    -25.58252168     -0.19143068
 C     51.53657486    -26.96745561     -0.29297041
 C     53.05331256    -26.91565517     -0.55454923
 C     53.88352805    -27.79686454      0.39719248
 C     55.39070504    -27.81269629      0.08133353
 C     56.19046147    -28.84676200      0.89539603
 C     57.67027244    -28.95890861      0.48407788
 C     58.51471826    -29.84502982      1.41858333
 C     59.98500786    -29.99055336      0.98422014
 C     60.81700179    -30.91719842      1.89015338
 C     62.30581455    -30.99815738      1.50481950
 C     63.19974157    -31.62986130      2.58807600
 C     64.68346153    -31.73930257      2.19033528
 C     65.51217084    -32.65645719      3.10884945
 C     66.93521425    -32.93939103      2.59261705
 C     67.65836006    -34.07521786      3.33998413
 C     68.71227297    -34.81139294      2.49209627
 C     69.45873226    -35.92532415      3.24943092
 C     70.59226067    -36.58208563      2.43987690
 C     71.03788643    -37.95218079      2.98380424
 C     72.19942733    -38.58994520      2.19915190
 C     73.58452031    -38.35666944      2.83057874
 C     74.75388701    -38.46963860      1.83487824
 C     76.13932544    -38.24097679      2.46723427
 C     77.30755147    -38.33895123      1.46861075
 C     78.69776306    -38.35790244      2.13084378
 C     79.82475635    -38.85648136      1.20731512
 C     81.13223736    -39.20111834      1.94441671
 C     82.14553208    -39.98454429      1.08938595
 C     83.40527478    -40.42514386      1.85783917
 C     84.28763648    -41.42808755      1.09158738
 C     85.51163151    -41.92009938      1.88616937
 C     86.45849904    -42.82795937      1.07942772
 C     87.85137500    -43.00088388      1.71314191
 C     88.90616945    -43.58772334      0.75677999
 C     90.34600479    -43.13028647      1.05548668
 C     91.41211853    -43.79637022      0.16591715
 C     92.82107807    -43.19387840      0.31900749
 C     93.91724682    -43.96303460     -0.44152707
 C     95.31254288    -43.31753781     -0.35162258
 C     96.40853246    -44.08620144     -1.11291297
 C     97.82208160    -43.50140979     -0.93543741
 C     98.90062162    -44.20181614     -1.78265779
 C     99.98342531    -43.25214812     -2.32787959
 C    100.84057373    -43.86004575     -3.45364913
 C    102.09505958    -43.03667612     -3.79995492
 C    102.74921966    -43.42498040     -5.13894498
 C    103.67362654    -42.34020052     -5.72231840
 C    104.07561469    -42.58232526     -7.18907712
 C    104.73223585    -41.36574871     -7.86759769
 C    104.98727148    -41.55120855     -9.37496675
 C    105.37858771    -40.25473881    -10.10820464
 C    105.56598868    -40.42630380    -11.62710106
 C    106.19190772    -39.20342338    -12.32308154
 C    106.60641781    -39.45833573    -13.78417739
 C    106.50666002    -38.21643694    -14.68934907
 C    106.46179536    -38.54018823    -16.19426510
 C    106.14204611    -37.32661174    -17.08678542
 C    105.76842888    -37.69501725    -18.53464160
 C    105.42970797    -36.48275351    -19.42193229
 C    104.77249822    -36.85330206    -20.76445570
 C    104.72060053    -35.69449014    -21.77740268
 C    104.31987515    -36.12431132    -23.20087481
 C    103.84269148    -34.96437904    -24.09443671
 C    103.23338439    -35.41594466    -25.43474763
 C    102.90802510    -34.25812444    -26.39661751
 C    102.52057170    -34.71301055    -27.81596895
 C    102.61612686    -33.60173413    -28.87782295
 C    103.21012137    -34.06743220    -30.22017008
 C    103.59970715    -32.91609295    -31.16581317
 C    104.40760419    -33.36376155    -32.39808554
 C    104.53760754    -32.28362967    -33.48804621
 C    105.40764354    -32.70498871    -34.68683474
 C    105.69962253    -31.56505251    -35.68025999
 C    106.80307574    -31.89297316    -36.70322581
 C    107.56224812    -30.65808446    -37.22313657
 C    108.71635191    -30.99205796    -38.18651922
 C    109.52242668    -29.76368714    -38.64798276
 C    110.56930566    -30.07341663    -39.73412826
 C    111.64973876    -28.98723993    -39.89060350
 C    112.92597003    -29.47136246    -40.60366669
 C    113.91042329    -28.34231727    -40.96103026
 C    115.27057199    -28.83966656    -41.48470878
 C    116.16694700    -27.72563197    -42.05658183
 C    117.57087428    -28.20282156    -42.47236818
 C    118.40722803    -27.13202358    -43.19728480
 C    119.84540519    -27.57549500    -43.52375001
 C    120.74603522    -26.44254062    -44.04994382
 C    122.22827115    -26.83543657    -44.19210367
 C    123.15174015    -25.66600279    -44.58098622
 C    124.45991977    -26.10216248    -45.26657414
 C    125.35962070    -24.93065459    -45.70212838
 C    126.66179446    -25.36649268    -46.39925725
 C    127.56241185    -24.19504080    -46.83306461
 C    128.66254225    -24.58885554    -47.83617130
 C    129.74902484    -23.51445164    -48.02803543
 C    130.42774244    -23.54976294    -49.40995277
 C    131.39875494    -22.38111351    -49.66093730
 C    132.28678467    -22.56098775    -50.90618766
 C    133.36388869    -21.47257734    -51.06992440
 C    134.38657827    -21.76587887    -52.18333369
 C    135.42780204    -20.64970925    -52.38733968
 C    136.35295092    -20.86990860    -53.59862487
 C    137.36495609    -19.73217663    -53.82886711
 C    138.20778059    -19.89282070    -55.10771047
 C    139.32942765    -18.84778811    -55.25404840
 C    140.28726512    -19.11738573    -56.42940557
 C    141.32701219    -18.00461458    -56.65802405
 C    142.11058066    -18.14083645    -57.97675983
 C    143.24852091    -17.11579845    -58.13797113
 C    144.01039405    -17.23024727    -59.47140683
 C    145.09442837    -16.15418940    -59.66779692
 C    146.12191582    -16.49288238    -60.76376982
 C    147.04681554    -15.32019198    -61.13921320
 C    148.21657725    -15.71493758    -62.05977468
 C    149.30250310    -14.63108027    -62.19250894
 C    150.54707928    -15.08426204    -62.97816563
 C    151.66695911    -14.02900420    -63.04061590
 C    152.89933329    -14.47073675    -63.85161914
 C    153.89866881    -13.33529257    -64.14092008
 C    155.07770322    -13.75240058    -65.03952943
 C    156.00743783    -12.58945589    -65.43291624
 C    157.29900433    -13.03329186    -66.14458021
 C    157.85413689    -11.99669805    -67.13901529
 C    159.13881140    -12.44566548    -67.85987566
 C    159.73338815    -11.38163282    -68.80110516
 C    160.68101397    -11.95234137    -69.87250474
 C    161.70031972    -10.93297957    -70.41427710
 C    162.78327674    -11.55021932    -71.31861065
 C    163.85713819    -10.54876039    -71.78283215
 C    164.75663899    -11.07554513    -72.91640886
 C    165.21432969     -9.99026354    -73.90851927
 C    166.17041642    -10.50355844    -75.00123447
 C    167.15466262     -9.43997516    -75.52243503
 C    168.10951763     -9.95277217    -76.61646022
 C    169.07077888     -8.88034198    -77.16186860
 C    170.07091025     -9.40879993    -78.20688986
 C    171.06392525     -8.34761930    -78.71621970
 C    172.23550113     -8.92613684    -79.53128253
 C    173.33008875     -7.89764650    -79.87140830
 C    174.28535342     -8.34717758    -80.99256449
 C    175.53287312     -7.45749915    -81.14672967
 C    176.53342305     -7.95951372    -82.20431239
 C    177.88883740     -7.22882551    -82.18093172
 C    178.84197807     -7.64034131    -83.31837518
 C    180.24659266     -7.01751020    -83.21474469
 C    181.02267399     -6.99768110    -84.54474641
 C    182.12710344     -5.92640597    -84.60959379
 C    181.59867632     -4.48003114    -84.59049830
 C    182.66526820     -3.42815065    -84.23338601
 C    182.30497227     -1.99671413    -84.67244905
 C    183.25616203     -0.91582859    -84.12607511
 C    182.88143984      0.51800565    -84.54476669
 C    183.87823934      1.59057232    -84.06770118
 C    183.54700635      3.01387757    -84.55358891
 C    184.60301440      4.06773167    -84.17170078
 C    184.48223766      5.38800286    -84.95521655
 C    185.36027347      6.52645839    -84.40333603
 C    185.43767266      7.75964354    -85.32250072
 C    185.33823318      9.10361115    -84.57720691
 C    185.47288657     10.33711669    -85.48931029
 C    185.82522960     11.63520603    -84.73936466
 C    185.63165134     12.91389827    -85.57547087
 C    186.04051961     14.20711146    -84.84606947
 C    186.00653566     15.46471838    -85.73425295
 C    186.59029518     16.72170748    -85.06283412
 C    186.84238092     17.89047509    -86.03341902
 C    187.44221661     19.14149001    -85.36501882
 C    187.41372618     20.40010329    -86.25196918
 C    188.26127881     21.56670089    -85.71131719
 C    188.37151939     22.76109191    -86.67717283
 C    189.14833083     23.96078330    -86.10367083
 C    188.93593746     25.27358791    -86.88022290
 C    189.60744648     26.49943187    -86.23370745
 C    189.27993804     27.83319261    -86.93042871
 C    190.04161979     29.04278041    -86.35742063
 C    189.61904721     30.39372152    -86.96404287
 C    190.38580735     31.60255790    -86.39624582
 C    190.12894393     32.91893655    -87.15306049
 C    190.55783358     34.17987725    -86.37996140
 C    190.03205358     35.49475678    -86.98514501
 C    189.83378163     36.62287387    -85.95575681
 C    189.13100938     37.87083998    -86.52170006
 C    189.18575504     39.09664026    -85.59109993
 C    188.08465357     40.13858932    -85.86224142
 C    188.06017582     41.30122476    -84.85264761
 C    186.67672896     41.95682320    -84.68571811
 C    186.69538288     43.25775377    -83.86180569
 C    185.35593546     44.01767425    -83.86059344
 C    185.38299752     45.33346372    -83.06086491
 C    184.09391353     46.16714041    -83.18270764
 C    184.10260936     47.45994434    -82.34593865
 C    182.80323976     48.28031173    -82.44711169
 C    182.89911971     49.68496382    -81.82312487
 C    181.53828161     50.38072708    -81.63435743
 C    181.63383345     51.78370506    -81.00656556
 C    180.27566504     52.49140104    -80.84487147
 C    180.15864172     53.33700302    -79.56312936
 C    178.74334914     53.88458368    -79.30101806
 C    178.61449092     54.68697230    -77.99290183
 C    177.16364554     55.03653079    -77.61282741
 C    177.01443875     55.64908726    -76.20779649
 C    175.55675932     55.93169845    -75.79926055
 C    175.41673466     56.72798926    -74.48856835
 C    174.01573161     57.32757013    -74.26654757
 C    173.66898590     57.57837764    -72.78720210
 C    172.29415929     58.23706474    -72.56906663
 C    172.29112596     59.76327537    -72.77466799
 C    170.99557952     60.45512600    -72.31152423
 C    171.12795328     61.97926811    -72.13526297
 C    169.94337916     62.62963477    -71.39674597
 C    169.88703359     64.16273012    -71.53107327
 C    168.68659269     64.81044015    -70.81622128
 C    168.54210752     66.32109465    -71.07822705
 C    167.29339929     66.95186250    -70.43444164
 C    167.23309053     68.48586807    -70.55605487
 C    165.82113011     69.07350479    -70.37535938
 C    165.80256755     70.59227903    -70.12123293
 C    164.39847541     71.16548696    -69.85372977
 C    164.40486523     72.53859782    -69.15650259
 C    163.00345708     73.14274410    -68.94995363
 C    162.97660540     74.35065029    -67.99504965
 C    161.57920246     74.97018429    -67.80785276
 C    161.52311756     76.07785255    -66.73943080
 C    160.10103197     76.39677513    -66.24187581
 C    159.40633230     75.21886278    -65.53369867
 C    160.03741181     74.84121661    -64.18065690
 C    159.25451515     73.76755498    -63.40224600
 C    159.52724198     73.76911112    -61.88658850
 C    159.15803321     72.45026551    -61.18236471
 C    159.35800371     72.47809035    -59.65565663
 C    158.89143290     71.19713513    -58.93937078
 C    159.17873106     71.18544128    -57.42645207
 C    158.47246286     70.04933677    -56.66352890
 C    158.28559212     70.32600440    -55.16015458
 C    157.60489004     69.17797693    -54.39185932
 C    157.04701323     69.58892548    -53.01654308
 C    156.32581893     68.45253377    -52.26814970
 C    155.90057033     68.81813057    -50.83388939
 C    155.19517418     67.67591645    -50.07932781
 C    154.93216414     67.97637785    -48.59199844
 C    154.28930972     66.80840239    -47.82117322
 C    154.49532303     66.87536862    -46.29648504
 C    153.97305881     65.64042910    -45.53901262
 C    154.38232879     65.59646106    -44.05504332
 C    153.94562667     64.31412805    -43.32257262
 C    154.57650576     64.14355821    -41.92812022
 C    154.23969899     62.80361429    -41.24789123
 C    154.57644985     62.76164650    -39.74574691
 C    154.13664240     61.46479811    -39.04122319
 C    155.02220315     61.07078423    -37.84450468
 C    154.68423067     59.69467332    -37.24143472
 C    155.57300486     59.29851409    -36.04781069
 C    154.98885216     58.16855058    -35.17973921
 C    155.55580076     58.12116727    -33.74868222
 C    155.17283433     56.85205009    -32.96492313
 C    155.09473099     57.05690843    -31.44060921
 C    154.59565470     55.82212449    -30.66741357
 C    154.29130213     56.09379788    -29.18243442
 C    154.09408956     54.81970482    -28.34017906
 C    153.52368473     55.08065648    -26.93371450
 C    153.19428496     53.80030460    -26.14390765
 C    152.27072424     54.03122936    -24.93340803
 C    152.18977279     52.83278914    -23.96967161
 C    151.10023308     52.96974001    -22.88997365
 C    151.31776128     52.06569774    -21.66237883
 C    150.04894653     51.83715793    -20.82007325
 C    150.08031336     50.54866797    -19.97721516
 C    148.90701231     50.41836818    -18.98828311
 C    148.92577519     49.11906893    -18.16180297
 C    147.76888607     49.00223662    -17.15207143
 C    147.58785536     47.58896889    -16.56768953
 C    146.44935628     47.47863247    -15.53655147
 C    146.39456879     46.12376287    -14.80653318
 C    145.29577843     46.03567324    -13.73112629
 C    145.04204425     44.60881106    -13.21027767
 C    143.79848786     44.48226405    -12.31074815
 C    143.36319357     43.02924228    -12.04457783
 C    142.21906635     42.89535772    -11.02249769
 C    141.37168095     41.62097654    -11.19422594
 C    140.02370961     41.66015337    -10.45056040
 C    139.22428360     40.34650422    -10.53328862
 C    137.97510805     40.31570579     -9.63317090
 C    137.21969020     38.97390390     -9.65578824
 C    135.73360847     39.08510750     -9.26746514
 C    134.98767903     37.73790411     -9.25222425
 C    133.46305152     37.86802227     -9.07849969
 C    132.72486150     36.51911687     -8.99406200
 C    131.20099825     36.64922901     -8.81375220
 C    130.53462484     35.40495020     -8.19786527
 C    128.99719823     35.40907628     -8.28676079
 C    128.33005334     34.17207894     -7.65719327
 C    126.96309576     33.81702815     -8.27116877
 C    126.20798575     32.70578429     -7.51847630
 C    124.76039839     32.49529448     -7.99991673
 C    123.92849763     31.56650140     -7.09610007
 C    122.48444620     31.34663198     -7.58392474
 C    121.70134416     30.29901056     -6.77100374
 C    120.37640419     29.86244684     -7.42334275
 C    119.67643946     28.69676500     -6.70026929
 C    118.45389781     28.13744923     -7.45137367
 C    117.62018582     27.13484338     -6.63204112
 C    116.39112037     26.58434128     -7.37899864
 C    115.50255689     25.65938696     -6.52664046
 C    114.53556881     24.78754764     -7.34909426
 C    113.71069890     23.79896405     -6.50417288
 C    112.60954620     23.06713739     -7.29378828
 C    111.68198375     22.20218495     -6.42024081
 C    110.51205725     21.56299646     -7.19115589
 C    109.54883792     20.74988332     -6.30647769
 C    108.35288003     20.15036340     -7.06927557
 C    107.20773319     19.66819497     -6.15946662
 C    106.12515365     18.85476777     -6.89292262
 C    105.05661388     18.25178897     -5.96220282
 C    104.00564749     17.39236971     -6.68916098
 C    103.06847580     16.61704337     -5.74460907
 C    101.68853124     16.30185612     -6.35124734
 C    100.78372793     15.45078288     -5.44096975
 C     99.35728590     15.25102034     -5.98590834
 C     98.48627825     14.31128936     -5.13159496
 C     96.98992582     14.34195089     -5.49434732
 C     96.08675965     13.60151045     -4.49053516
 C     94.59534358     13.59768543     -4.87428437
 C     93.70122349     12.80220237     -3.90508058
 C     92.29546104     12.49866410     -4.45580415
 C     91.50954011     11.46298354     -3.63039876
 C     90.06847377     11.23304336     -4.12238992
 C     89.55284754      9.79870660     -3.90237250
 C     88.02120627      9.66358451     -3.98849466
 C     87.50940115      8.22059462     -3.82285741
 C     86.04406670      8.12509920     -3.35887942
 C     85.36950914      6.78015850     -3.68706628
 C     84.01303249      6.57272628     -2.98810777
 C     83.26081301      5.30831558     -3.44311484
 C     81.76128964      5.31129200     -3.09237161
 C     81.04720358      3.97833653     -3.38376619
 C     79.51229997      4.05537102     -3.28509205
 C     78.79875150      2.71991509     -3.56617216
 C     77.26639954      2.78738441     -3.42853000
 C     76.54024495      1.50519288     -3.87606146
 C     75.15191183      1.31609266     -3.23702136
 C     74.66451639     -0.14462941     -3.21867114
 C     73.34963386     -0.35655286     -2.44551372
 C     72.84341465     -1.81092557     -2.45743608
 C     71.49822311     -2.01188231     -1.73516458
 C     71.14893065     -3.48636786     -1.46041534
 C     69.74468521     -3.69683569     -0.86426266
 C     69.30012272     -5.17040189     -0.81359866
 C     67.85837175     -5.37279218     -0.31161027
 C     67.28330180     -6.77086881     -0.60533851
 C     66.13595585     -7.18627270      0.33414906
 C     65.56619942     -8.58757557      0.04548343
 C     64.91152171     -9.26115378      1.26584793
 C     64.94507528    -10.80024051      1.22478488
 C     64.18104822    -11.47445037      2.37947260
 C     63.84525086    -12.95612848      2.12753986
 C     63.00143132    -13.60513515      3.24035563
 C     62.79493948    -15.12127849      3.06637143
 C     61.83385526    -15.74471825      4.09556528
 C     61.17576967    -17.05495387      3.62460247
 C     60.29909301    -17.73477965      4.69271994
 C     59.33822929    -18.79862338      4.13006780
 C     58.30658877    -19.31350693      5.15095604
 C     57.53536671    -20.56289503      4.68636387
 C     56.25096447    -20.84071222      5.48931374
 C     55.27944516    -21.81610525      4.79912632
 C     54.02617372    -22.14555036      5.63121803
 C     52.91045025    -22.84525533      4.83298617
 C     51.54127075    -22.84482713      5.53793107
 C     50.45152635    -23.63537991      4.79021224
 C     49.07833803    -22.93873572      4.76490013
 C     48.00173250    -23.70495659      3.97406127
 C     46.68888329    -22.92277826      3.78373518
 C     45.47701331    -23.80779340      3.43773032
 C     44.18560618    -23.01835472      3.15373350
 C     42.99717756    -23.89654176      2.72011510
 C     41.85913674    -23.11687814      2.03558042
 C     40.53235357    -23.89371338      1.94741339
 C     39.44735490    -23.18765774      1.11322916
 C     38.24768057    -24.08532724      0.75746100
 C     37.17523512    -23.38711778     -0.09925617
 C     36.13811264    -22.59514605      0.71851993
 C     35.30100191    -21.60966628     -0.11794601
 C     34.11989202    -20.98450620      0.64739987
 C     33.16634256    -20.16003486     -0.23724155
 C     31.95571794    -19.58024694      0.51763195
 C     31.07995973    -18.63996529     -0.33120135
 C     29.75226777    -18.24381393      0.34103237
 C     28.84594246    -17.35935820     -0.53527380
 C     27.41815566    -17.18635019      0.01526509
 C     26.47719084    -16.40323095     -0.91903116
 C     24.98086415    -16.65087514     -0.65205029
 C     24.03964634    -15.84210139     -1.56396808
 C     22.54821336    -16.17991630     -1.38200997
 C     21.61011223    -15.39989455     -2.32176119
 C     20.11441239    -15.68662982     -2.09314607
 C     19.17221503    -14.81191614     -2.94093149
 C     17.69926265    -14.86292004     -2.49437814
 C     16.85586437    -13.66935865     -2.97985787
 C     15.37352766    -13.74137033     -2.56864964
 C     14.52071113    -12.57077143     -3.09210182
 C     13.12232775    -12.47991782     -2.45345518
 C     12.22520468    -11.38661260     -3.06292536
 C     10.83039001    -11.28905180     -2.41749999
 C     10.07948671     -9.98450088     -2.74290917
 C      8.55355499    -10.07702789     -2.55697604
 C      7.81722079     -8.73767313     -2.74549865
 C      6.30950319     -8.80318066     -2.43874728
 C      5.57840858     -7.45742821     -2.60015049
 C      4.10538440     -7.48711881     -2.15191148
 C      3.31088593     -6.22234560     -2.52703936
 C      1.82534546     -6.27340723     -2.12434567
 C      0.92085790     -5.33693264     -2.94685257
 C     -0.58346975     -5.51798426     -2.67150075
 C     -0.94354305     -5.57874035     -1.17542056
 C     -2.44461789     -5.78537184     -0.90032466
 C     -2.83771512     -5.62692762      0.58020565
 C     -4.35652260     -5.66260783      0.83229838
 C     -4.75845009     -5.33826031      2.28310953
 C     -6.26531762     -5.08404499      2.47370018
 C     -6.68059827     -4.84887520      3.93788499
 C     -8.20277893     -4.87805198      4.16964942
 C     -8.65965613     -4.11529644      5.42705437
 C    -10.18876739     -4.04418315      5.59546352
 C    -10.65737518     -3.00284629      6.62872258
 C    -10.06699397     -1.59693891      6.41314322
 C     -9.73064541     -0.85193403      7.71830121
 C     -8.67957418      0.26113042      7.55115814
 C     -7.61945740     -0.03504536      6.47411017
 C     -6.66779763      1.14226025      6.19145281
 C     -5.71390003      0.90586803      5.00578925
 C     -4.73164897     -0.26157283      5.21522828
 C     -3.76991898     -0.49050096      4.03443731
 C     -2.88863644     -1.74516138      4.17854943
 C     -1.61369238     -1.71762302      3.31520751
 C     -0.87088948     -3.06515060      3.25185697
 C      0.31229160     -3.08244804      2.26626916
 C      1.21119515     -4.32688794      2.38850553
 C      2.40271089     -4.33718333      1.41291123
 C      3.54339939     -5.28518006      1.82731676
 C      4.81939438     -5.13879634      0.97760587
 C      5.89908154     -6.19390174      1.28195471
 C      7.30674488     -5.80972445      0.78952021
 C      8.37439873     -6.89116428      1.03892581
 C      9.80405924     -6.45800932      0.66469646
 C     10.90254288     -7.39721508      1.19651054
 C     12.26579314     -7.22331786      0.50159435
 C     13.23627641     -8.39831096      0.72330009
 C     14.67384513     -8.12215011      0.24504141
 C     15.57906142     -9.36792215      0.22969521
 C     16.94896166     -9.13862931     -0.43543496
 C     17.88696081    -10.35847480     -0.37432392
 C     19.36423396    -10.02743755     -0.65659749
 C     20.31089581    -11.23622696     -0.53718434
 C     21.72533445    -10.98115090     -1.09026618
 H     -0.36333333      0.00000000      1.02766186
 H     -0.36333333     -0.88998127     -0.51383093
 H     -0.36333333      0.88998127     -0.51383093
 H      1.88274777     -1.00167751      0.25935716
 H      1.88274777     -1.01013252      0.22417910
 H      1.82362666     -0.99746777     -1.88148268
 H      1.82362666     -2.07773944     -0.46681672
 H      4.09881975     -2.04588597     -0.71137326
 H      3.98382214     -0.09588200     -1.37079292
 H      3.93935978     -2.25976951     -2.70145999
 H      4.05954641     -3.16153625     -1.17154542
 H      6.10509066     -2.42697771     -0.47972097
 H      6.30298116     -1.40800574     -1.92568160
 H      6.23369927     -3.68070222     -3.16908334
 H      6.03568426     -4.47100043     -1.58652671
 H      8.40366221     -3.46650795     -1.16625328
 H      8.32794472     -2.78005886     -2.80677794
 H      8.23980703     -4.96526543     -3.82945306
 H      8.31442600     -5.73973790     -2.22854986
 H     10.63335090     -4.61935459     -2.09230595
 H     10.34013698     -3.94090597     -3.71156495
 H     10.36407543     -6.61128812     -4.16520977
 H     10.64788316     -6.77605771     -2.41576105
 H     12.79836801     -5.59968422     -2.65272403
 H     12.51544644     -5.43445694     -4.40227311
 H     12.60398692     -8.00433813     -4.40577171
 H     12.87534288     -7.94677186     -2.64755706
 H     15.00357560     -6.76766746     -3.00626894
 H     14.73888234     -6.82175062     -4.76560948
 H     14.76764268     -9.09310945     -5.04973983
 H     15.04802836     -9.37162234     -3.31420501
 H     17.20366816     -8.21281302     -3.44987796
 H     16.94459204     -7.92346352     -5.18695110
 H     17.02066281    -10.53819220     -5.26224183
 H     17.26540487    -10.50729256     -3.49945619
 H     19.44513385     -9.30013012     -4.00452816
 H     19.05901767     -9.40477881     -5.73895303
 H     19.29343371    -11.99950337     -5.04786547
 H     19.63288753    -11.40664196     -3.40422526
 H     21.69731951    -10.32156927     -4.39476808
 H     21.23785174    -10.97454216     -5.98561139
 H     21.44976194    -13.24986051     -5.28165330
 H     21.92599575    -12.73039729     -3.64714237
 H     23.93943308    -11.65993117     -4.54319765
 H     23.48493328    -12.16856274     -6.18727506
 H     23.68908927    -14.52839093     -5.51740507
 H     24.14392818    -14.02281921     -3.87247788
 H     26.13058194    -12.93079444     -4.52590112
 H     25.84745588    -13.34872619     -6.23278112
 H     26.07960247    -15.77781348     -5.39407214
 H     26.33682946    -15.12929198     -3.75653716
 H     28.31010827    -13.98611145     -4.21935282
 H     28.27908967    -14.51444780     -5.91881309
 H     28.51022468    -16.87559509     -4.95590791
 H     28.51866377    -16.16109368     -3.32566768
 H     30.72459426    -15.06684086     -4.24115161
 H     30.42133350    -15.92665408     -5.76988338
 H     30.64574774    -18.08724540     -4.67085841
 H     30.95571534    -17.27779764     -3.11619411
 H     33.05155038    -16.37140010     -4.32300075
 H     32.53556207    -17.26771821     -5.77166792
 H     32.89020065    -19.34041771     -4.26789904
 H     33.36873585    -18.23555150     -2.95696755
 H     35.15193643    -17.24995956     -3.67309493
 H     35.14500578    -18.13935894     -5.21490795
 H     35.42792613    -20.26118474     -4.35011768
 H     35.47920355    -19.63841934     -2.68344418
 H     37.30664897    -18.35466626     -2.74714235
 H     37.62057537    -18.74576783     -4.45499376
 H     37.97801717    -20.95962623     -4.32113415
 H     37.73571557    -20.97053292     -2.55777439
 H     39.52606041    -19.60305379     -2.00911519
 H     39.99086236    -19.43247678     -3.71883133
 H     40.43238185    -21.86454388     -3.81723260
 H     39.96326966    -22.01423578     -2.10673772
 H     41.63205280    -20.69612265     -1.20975323
 H     42.32712008    -20.37964039     -2.81754275
 H     42.68748582    -22.99512856     -2.70103005
 H     41.92422479    -22.93897633     -1.09399981
 H     44.17834932    -21.45367003     -0.77854052
 H     44.49032409    -21.80740101     -2.49487755
 H     44.68852889    -24.16440393     -2.12257267
 H     44.39049457    -23.94278735     -0.38178886
 H     46.49817134    -22.60423479     -0.27298180
 H     46.73406935    -22.86350527     -2.01808856
 H     46.92960454    -25.31848390     -1.50931250
 H     46.68290052    -24.95695645      0.21599955
 H     48.76552621    -23.65133064      0.25105173
 H     49.02054968    -24.00791323     -1.47407973
 H     49.18479502    -26.44725192     -0.72240153
 H     48.91198179    -25.90420951      0.95060311
 H     51.24897151    -24.71190689      0.34440606
 H     51.08910587    -25.47811189     -1.25423072
 H     51.10962412    -27.49111350     -1.14830396
 H     51.31594307    -27.52153475      0.61939899
 H     53.52352834    -26.36838863      0.26245534
 H     53.22158108    -26.38493633     -1.49163152
 H     53.55154298    -28.82907046      0.28567187
 H     53.70041380    -27.46469820      1.41907051
 H     55.76519313    -26.79108901      0.14596506
 H     55.52414284    -28.18500858     -0.93438194
 H     55.78560911    -29.83652181      0.68427975
 H     56.06453442    -28.62098566      1.95429518
 H     58.13761468    -27.98307202      0.61611642
 H     57.71317681    -29.24302700     -0.56736682
 H     58.08358967    -30.84613009      1.42371986
 H     58.46913080    -29.42464462      2.42322161
 H     60.43376552    -28.99763561      0.95539461
 H     60.00582235    -30.42779883     -0.01401989
 H     60.35805020    -31.90584035      1.88304064
 H     60.79703854    -30.51463393      2.90289386
 H     62.72902524    -29.99515735      1.55944245
 H     62.37541668    -31.36663701      0.48135563
 H     62.84055353    -32.64046339      2.78241423
 H     63.11258536    -31.03248452      3.49562477
 H     65.05663254    -30.73709596      1.97956215
 H     64.75281364    -32.34965422      1.28991251
 H     65.07530148    -33.65468790      3.08091016
 H     65.45758409    -32.26425580      4.12437806
 H     67.45942233    -31.98880337      2.49418437
 H     66.85693653    -33.41412127      1.61455581
 H     67.06806986    -34.98540974      3.23411527
 H     67.72351536    -33.80495370      4.39393483
 H     69.45797214    -34.08603988      2.16668009
 H     68.21474917    -35.23688629      1.62058868
 H     68.72639106    -36.65489824      3.59511575
 H     69.96039026    -35.47918143      4.10814852
 H     71.31222349    -35.80970555      2.16935419
 H     70.16271676    -37.01145014      1.53475914
 H     70.17745255    -38.62125032      2.97382889
 H     71.38218524    -37.81832728      4.00930000
 H     72.97023467    -37.83333535      2.05253136
 H     71.88389690    -38.71837253      1.16375489
 H     73.57815373    -38.77761765      3.83599511
 H     73.75861857    -37.28217763      2.88765010
 H     74.60684568    -37.72970322      1.04812893
 H     74.73906839    -39.46936240      1.40078986
 H     76.28456608    -38.98323072      3.25213187
 H     76.15620395    -37.24239628      2.90387152
 H     77.15771334    -37.58970478      0.69125736
 H     77.29441461    -39.33327368      1.02223613
 H     78.74661497    -39.21633673      2.80077218
 H     78.81546747    -37.44017681      2.70706018
 H     79.86882860    -38.20243547      0.33646404
 H     79.58319076    -39.87039312      0.88836527
 H     80.91824063    -39.98062052      2.67563607
 H     81.48165449    -38.30611315      2.45917236
 H     82.39342527    -39.38311856      0.21477972
 H     81.67691019    -40.91519447      0.76941132
 H     83.09567817    -41.05885281      2.68890048
 H     83.89978193    -39.53421143      2.24488192
 H     84.60133945    -40.96400304      0.15653872
 H     83.69078360    -42.31410025      0.87514308
 H     85.15757041    -42.40168984      2.79765792
 H     86.12202094    -41.05515547      2.14577828
 H     86.81390777    -42.26928554      0.21359391
 H     85.89516087    -43.69864512      0.74378442
 H     87.72505811    -43.43324751      2.70571722
 H     88.31233312    -42.01709632      1.80134421
 H     89.00003623    -42.92122568     -0.10058218
 H     88.55863926    -44.56478243      0.42110410
 H     90.59815262    -43.43359660      2.07161877
 H     90.38275411    -42.04345321      0.98103567
 H     91.18649133    -43.56090450     -0.87415412
 H     91.35734149    -44.87481624      0.31442184
 H     93.12797041    -43.29987306      1.35952765
 H     92.77142377    -42.13606835      0.06079760
 H     93.66004658    -43.96849952     -1.50073346
 H     93.93975937    -44.98672059     -0.06781571
 H     95.59801636    -43.26321930      0.69892699
 H     95.25150536    -42.31043868     -0.76408562
 H     96.12277317    -44.13990857     -2.16341626
 H     96.46972137    -45.09354239     -0.70106331
 H     98.06805397    -43.51560985      0.12635162
 H     97.81437494    -42.47170888     -1.29286802
 H     98.62248467    -44.11338551     -2.83285771
 H     98.92740040    -45.25453402     -1.50128978
 H    100.47239675    -42.76840276     -1.48230443
 H     99.49765291    -42.49783857     -2.94686448
 H    100.18060247    -44.13560510     -4.27620915
 H    101.33123528    -44.75313179     -3.06667552
 H    102.71135999    -42.95792930     -2.90436977
 H    101.77688244    -42.04153956     -4.11070647
 H    102.01589004    -43.28259399     -5.93270425
 H    103.03212336    -44.47648874     -5.08999919
 H    104.46472427    -42.13926127     -4.99990038
 H    103.08529565    -41.43588107     -5.87779537
 H    103.16801008    -42.61947774     -7.79154998
 H    104.59124724    -43.54075259     -7.24941043
 H    105.62825314    -41.10209607     -7.30568995
 H    104.02727033    -40.53493416     -7.83808839
 H    104.03162373    -41.74169059     -9.86338663
 H    105.64160860    -42.41267790     -9.50843394
 H    106.28834416    -39.86427634     -9.65215391
 H    104.57108295    -39.53330582     -9.98342284
 H    104.62890507    -40.78932911    -12.04922300
 H    106.35007416    -41.16474860    -11.79446067
 H    107.16846238    -39.01724955    -11.87611364
 H    105.54437427    -38.34334136    -12.15261357
 H    105.72027007    -39.75556815    -14.34497600
 H    107.33394488    -40.26989491    -13.79744675
 H    107.15388883    -37.44090706    -14.27977821
 H    105.47357475    -37.86890568    -14.68180863
 H    105.59428067    -39.17253114    -16.38310552
 H    107.37049650    -39.08255647    -16.45541436
 H    106.90783967    -36.56866443    -16.92193365
 H    105.17000597    -36.93109819    -16.79215516
 H    104.89137690    -38.34169165    -18.50833472
 H    106.60506357    -38.23530789    -18.97761837
 H    106.29807053    -35.82448557    -19.44894684
 H    104.58752821    -35.95504137    -18.97432404
 H    103.84941743    -37.39435383    -20.55640564
 H    105.45661605    -37.49983829    -21.31406802
 H    105.74093234    -35.36559191    -21.97450405
 H    104.15443586    -34.87590541    -21.33301928
 H    103.33256758    -36.58389417    -23.15496869
 H    105.04545643    -36.85668382    -23.55479898
 H    104.65002874    -34.23604481    -24.17082910
 H    102.97798738    -34.49991731    -23.62045135
 H    102.37944040    -36.05957385    -25.22351054
 H    103.98819586    -35.98142634    -25.98118163
 H    103.83043409    -33.71597485    -26.60478927
 H    102.19866285    -33.59274783    -25.90450050
 H    101.64248701    -35.35462780    -27.74252123
 H    103.35206703    -35.28141086    -28.23266620
 H    103.64366403    -33.23890156    -28.90272073
 H    101.95099222    -32.78947105    -28.58469396
 H    102.58121125    -34.86543963    -30.61482969
 H    104.21301177    -34.45263266    -30.03596517
 H    104.33878316    -32.29354272    -30.66153362
 H    102.70726277    -32.32537606    -31.37244468
 H    103.80783709    -34.08025442    -32.95934966
 H    105.32123125    -33.84700825    -32.05188010
 H    105.03048634    -31.41455721    -33.05228993
 H    103.53610343    -32.00638965    -33.81702567
 H    104.96471260    -33.59380096    -35.13619535
 H    106.40582280    -32.94274881    -34.31912794
 H    106.21605986    -30.76806872    -35.14527464
 H    104.74946761    -31.19059261    -36.06116077
 H    106.49466669    -32.77124416    -37.27034478
 H    107.72033590    -32.11603880    -36.15827121
 H    108.02204177    -30.15514604    -36.37240585
 H    106.84413971    -29.98844314    -37.69642381
 H    108.30449179    -31.52666568    -39.04247824
 H    109.42453004    -31.63457145    -37.66329828
 H    109.94128456    -29.27779451    -37.76675270
 H    108.84244178    -29.07734896    -39.15262166
 H    110.05287304    -30.48923941    -40.59928072
 H    111.26641428    -30.81163433    -39.33767624
 H    112.16685108    -28.87832726    -38.93727624
 H    111.15780217    -28.04880072    -40.14639686
 H    112.65015179    -29.82602245    -41.59676316
 H    113.34869613    -30.29490189    -40.02817955
 H    114.20274151    -27.83814570    -40.03991078
 H    113.39918332    -27.63612507    -41.61526742
 H    115.09562840    -29.43770501    -42.37904918
 H    115.72740081    -29.46191593    -40.71515491
 H    116.34944342    -26.99442653    -41.26909618
 H    115.63648002    -27.24781209    -42.88022796
 H    117.45891119    -28.97647556    -43.23198898
 H    118.06365510    -28.62306702    -41.59563515
 H    118.51928898    -26.27607740    -42.53177862
 H    117.86931524    -26.82651084    -44.09473218
 H    119.79552277    -28.45967768    -44.15922837
 H    120.34683722    -27.82747242    -42.58931259
 H    120.79216530    -25.66106002    -43.29148480
 H    120.29658217    -26.04122501    -44.95825971
 H    122.29537643    -27.67565277    -44.88321410
 H    122.59754622    -27.14006966    -43.21285161
 H    123.07317201    -24.89704011    -43.81246592
 H    122.81106407    -25.26274558    -45.53462317
 H    124.20522732    -26.65340555    -46.17176077
 H    125.00326155    -26.75560019    -44.58400630
 H    125.61434261    -24.34685956    -44.81759454
 H    124.79841621    -24.30821263    -46.39906132
 H    126.39932311    -25.94482721    -47.28511161
 H    127.22624217    -25.99415382    -45.70966297
 H    127.82489821    -23.61792414    -45.94642079
 H    126.99863673    -23.56620381    -47.52213765
 H    128.18450832    -25.00100488    -48.72483124
 H    129.29027129    -25.35112963    -47.37465807
 H    130.21765766    -23.32463380    -47.06239965
 H    129.27015202    -22.60266138    -48.38499390
 H    129.66208550    -23.40280938    -50.17171001
 H    130.88745231    -24.52933859    -49.54109541
 H    132.17545048    -22.41067956    -48.89675808
 H    130.84136899    -21.44821273    -49.57657484
 H    131.63931653    -22.66174732    -51.77724019
 H    132.87199064    -23.47202884    -50.78113525
 H    134.00366640    -21.48801457    -50.18757176
 H    132.86597390    -20.50554300    -51.14081467
 H    133.84863505    -21.86038467    -53.12661824
 H    134.88369419    -22.70807496    -51.95259081
 H    135.96983260    -20.51146201    -51.45182347
 H    134.89967774    -19.73042680    -52.64052834
 H    135.73557782    -20.93069453    -54.49487010
 H    136.88323274    -21.81180363    -53.45814371
 H    137.98446978    -19.63879256    -52.93691296
 H    136.81061089    -18.80670144    -53.98474230
 H    137.53144167    -19.92799167    -55.96177642
 H    138.75718285    -20.83182450    -55.04041253
 H    139.99266492    -18.93403983    -54.39336439
 H    138.87539162    -17.85691420    -55.26501076
 H    139.70505001    -19.12660308    -57.35083956
 H    140.74657351    -20.09453869    -56.28004728
 H    141.92031968    -17.89806849    -55.74987530
 H    140.79516166    -17.07396595    -56.85583240
 H    141.39888256    -18.11974249    -58.80207240
 H    142.63006734    -19.09905298    -57.96936497
 H    143.94575845    -17.24469449    -57.31011509
 H    142.81716940    -16.11560623    -58.09733367
 H    143.30026971    -17.08487494    -60.28546476
 H    144.43835430    -18.23057939    -59.53687179
 H    145.81392976    -16.23988504    -58.85350336
 H    144.61664531    -15.17525364    -59.62896232
 H    145.58893352    -16.61848224    -61.70624239
 H    146.61247086    -17.42877359    -60.49625648
 H    147.58851401    -15.01112406    -60.24526701
 H    146.42814525    -14.49526519    -61.49254429
 H    147.80410725    -16.13362001    -62.97774719
 H    148.81276782    -16.47230628    -61.55080565
 H    149.70243403    -14.42324072    -61.20005845
 H    148.83966992    -13.72952038    -62.59385071
 H    150.23209213    -15.37828109    -63.97938283
 H    150.98110216    -15.94348723    -62.46683774
 H    151.97237026    -13.79260478    -62.02133216
 H    151.26798800    -13.13361762    -63.51727608
 H    152.57865107    -14.69086793    -64.86985545
 H    153.30442029    -15.37380119    -63.39502398
 H    154.24200543    -12.93008113    -63.18906733
 H    153.38048271    -12.55714439    -64.70133829
 H    154.67642143    -14.10607233    -65.98926056
 H    155.61381353    -14.56361261    -64.54696391
 H    156.41059407    -12.14936420    -64.52083929
 H    155.41723134    -11.84403011    -65.96592346
 H    157.02305203    -13.57299274    -67.05049041
 H    157.84644000    -13.69916250    -65.47747416
 H    158.06220217    -11.07600175    -66.59392156
 H    157.09352341    -11.80662420    -67.89627288
 H    158.92214847    -13.36337439    -68.40665490
 H    159.90285145    -12.64257686    -67.10783264
 H    159.96316113    -10.49338777    -68.21261122
 H    158.98583311    -11.13467013    -69.55494260
 H    160.12451214    -12.67032607    -70.47491962
 H    161.50240938    -12.46090707    -69.36775678
 H    162.30285209    -10.57417542    -69.57982259
 H    161.15156897    -10.09874996    -70.85135099
 H    162.29111468    -12.02654983    -72.16654093
 H    163.32319651    -12.30183502    -70.74271094
 H    164.34345329    -10.13391169    -70.89994021
 H    163.36399867     -9.74909545    -72.33550692
 H    164.12444330    -11.32035181    -73.76992998
 H    165.25801144    -11.97738348    -72.56510662
 H    165.76863150     -9.23203706    -73.35539892
 H    164.32853667     -9.53895262    -74.35549711
 H    165.66105708    -11.28746754    -75.56171603
 H    167.05372354    -10.91906526    -74.51623693
 H    167.75252834     -9.08550455    -74.68278798
 H    166.57792502     -8.61131014    -75.93327322
 H    167.51072409    -10.30626264    -77.45585928
 H    168.68625889    -10.78204376    -76.20685291
 H    169.67002472     -8.50370791    -76.33292277
 H    168.47633966     -8.06757615    -77.57918587
 H    169.50672902     -9.82080310    -79.04358151
 H    170.66425584    -10.19794711    -77.74505900
 H    171.62735787     -7.96828975    -77.86372175
 H    170.49515318     -7.53423907    -79.16678706
 H    171.82615412     -9.45391886    -80.39266581
 H    172.77882282     -9.62862444    -78.89929146
 H    173.72638554     -7.49756710    -78.93814235
 H    172.87602748     -7.09198388    -80.44832780
 H    173.69660948     -8.53101503    -81.89127710
 H    174.76956302     -9.27230328    -80.67986095
 H    176.08072092     -7.46914140    -80.20448382
 H    175.20430498     -6.44104466    -81.36343976
 H    176.02247408     -8.00300716    -83.16615410
 H    176.85906998     -8.96021102    -81.92030710
 H    178.33457939     -7.36482293    -81.19557961
 H    177.70935108     -6.16792813    -82.35523432
 H    178.35361090     -7.42638387    -84.26906951
 H    179.02851830     -8.71129727    -83.23865006
 H    180.68945669     -7.32633893    -82.26785702
 H    180.14247062     -5.93260841    -83.23045151
 H    180.44575850     -6.42346637    -85.26969190
 H    181.12799943     -8.02432974    -84.89545872
 H    182.83503382     -6.11467328    -83.80244449
 H    181.94573226     -5.19882126    -83.81850277
 H    181.03303981     -4.33389897    -83.67028054
 H    180.93917648     -4.34472507    -85.44773353
 H    183.46756591     -3.49026190    -84.96861426
 H    183.05971721     -3.66202947    -83.24454292
 H    181.36997417     -1.71480798    -84.18829257
 H    182.16937288     -1.99383846    -85.75397784
 H    184.26438506     -1.13802857    -84.47566559
 H    183.23194999     -0.95664788    -83.03710883
 H    181.87631169      0.72990759    -84.18019163
 H    182.89173295      0.57092201    -85.63343280
 H    184.85822527      1.35703660    -84.48386056
 H    183.92730953      1.55304809    -82.97945302
 H    182.55579293      3.27950035    -84.18611037
 H    183.54179371      3.01141481    -85.64357366
 H    185.55705818      3.77032103    -84.60695631
 H    184.68982101      4.08794220    -83.08535086
 H    183.49446613      5.80888200    -84.76741834
 H    184.58706463      5.16701713    -86.01742021
 H    186.40070153      6.20303218    -84.43503705
 H    185.06925697      6.71346785    -83.36968383
 H    184.42789623      8.14425188    -85.46577661
 H    185.84672944      7.44611108    -86.28295371
 H    186.15688158      9.15902124    -83.85968024
 H    184.38690228      9.13132142    -84.04588623
 H    184.67951744     10.29964370    -86.23580959
 H    186.44189615     10.29170970    -85.98636021
 H    186.77325319     11.48593934    -84.22257579
 H    185.04053909     11.83293010    -84.00911402
 H    184.58709480     12.96800142    -85.88218651
 H    186.26660178     12.84524144    -86.45877386
 H    187.09381583     14.13013146    -84.57636378
 H    185.43924051     14.29498654    -83.94117090
 H    184.99176430     15.59035303    -86.11181753
 H    186.68903391     15.31236828    -86.57036633
 H    187.62750715     16.51786517    -84.79686486
 H    186.01657767     16.92508623    -84.15862989
 H    185.89444309     18.15964838    -86.49931557
 H    187.54146311     17.55510901    -86.79952194
 H    188.39235429     18.86397857    -84.90859163
 H    186.75299657     19.48071181    -84.59171144
 H    186.37664060     20.61367633    -86.51069694
 H    187.97937711     20.19223131    -87.16022479
 H    189.29449148     21.22970996    -85.62759928
 H    187.88536343     21.83465224    -84.72390153
 H    187.36680229     23.13227189    -86.87933360
 H    188.82302941     22.41076539    -87.60534848
 H    190.15575665     23.62859776    -85.85297981
 H    188.64103479     24.29694573    -85.19937799
 H    187.87286941     25.51378284    -86.86311387
 H    189.25680268     25.11826210    -87.91028086
 H    190.67872689     26.30900894    -86.16892029
 H    189.19936022     26.62460801    -85.23076352
 H    188.20010560     27.97888478    -86.90152021
 H    189.61020519     27.76847067    -87.96717105
 H    191.11035476     28.85529314    -86.46112255
 H    189.79010693     29.13710043    -85.30103765
 H    188.55537279     30.53708731    -86.77392980
 H    189.79417266     30.35641347    -88.03923550
 H    191.44830788     31.45674019    -86.59100157
 H    190.21566610     31.64175408    -85.32032035
 H    189.06209030     33.13774412    -87.10782124
 H    190.42777025     32.78081820    -88.19215921
 H    191.62514852     34.10731762    -86.17097833
 H    190.00504088     34.21084166    -85.44104637
 H    188.94287055     35.45463896    -86.99821711
 H    190.40494560     35.57534505    -88.00620185
 H    190.79309307     36.82442674    -85.47910390
 H    189.12020028     36.28119268    -85.20598643
 H    188.15177785     37.57253890    -86.89616244
 H    189.73171308     38.25906408    -87.34421882
 H    190.23197298     39.34424763    -85.41160449
 H    188.70790467     38.83240181    -84.64773517
 H    187.11619922     39.65479470    -85.73520223
 H    188.18587293     40.48443991    -86.89095032
 H    189.02568437     41.80587655    -84.88757355
 H    187.90246073     40.88712428    -83.85678279
 H    185.97474303     41.19454175    -84.34771996
 H    186.35907697     42.33867352    -85.65596939
 H    187.35406138     43.96935311    -84.35967015
 H    187.08870408     43.03034875    -82.87100532
 H    184.58989728     43.36137276    -83.44761177
 H    185.10298682     44.26805452    -84.89084909
 H    186.14463338     45.98203731    -83.49371952
 H    185.64665712     45.10196001    -82.02888156
 H    183.26043053     45.56414951    -82.82241879
 H    183.93988888     46.40840088    -84.23445371
 H    184.94073661     48.07484547    -82.67387054
 H    184.23820955     47.18952754    -81.29875798
 H    181.97680544     47.65680832    -82.10601081
 H    182.64822933     48.54934482    -83.49195280
 H    183.69120409     50.23323028    -82.33313098
 H    183.15389455     49.57508762    -80.76902952
 H    180.92237246     49.75854007    -80.98501989
 H    181.06121159     50.47103305    -82.61024114
 H    182.25083683     52.40736563    -81.65344601
 H    182.10956306     51.69066945    -80.03028398
 H    179.64098315     51.87396817    -80.20921783
 H    179.81961702     52.58716210    -81.83023943
 H    180.94070521     54.09606053    -79.58069085
 H    180.30781248     52.68141673    -78.70519306
 H    178.05903897     53.04020917    -79.21824560
 H    178.45356466     54.50535204    -80.14882204
 H    179.30494647     55.52919422    -78.03799481
 H    178.88925027     54.03593344    -77.16298877
 H    176.60514038     54.10716046    -77.50128026
 H    176.73026046     55.62614155    -78.42068664
 H    177.60886417     56.56182392    -76.16692825
 H    177.39663598     54.93367865    -75.47963731
 H    175.00557096     54.99164653    -75.82362850
 H    175.12619742     56.62419159    -76.52256525
 H    175.92958184     57.68202160    -74.61067511
 H    175.89252714     56.15937202    -73.68957151
 H    173.29247907     56.51223604    -74.25118294
 H    173.79286894     57.99531227    -75.09874506
 H    174.40597438     58.26728031    -72.37445389
 H    173.72300932     56.62778944    -72.25657648
 H    171.53067264     57.58568948    -72.99438816
 H    172.05382120     58.82919149    -73.45208618
 H    172.61336808     59.97234247    -73.79474199
 H    172.99814374     60.20511332    -72.07252478
 H    170.85948504     60.25210977    -71.24928005
 H    170.16189820     60.03211986    -72.87200729
 H    171.42376417     62.41049094    -73.09163256
 H    171.90351446     62.17251564    -71.39414204
 H    169.86461093     62.17591026    -70.40880385
 H    169.03403813     62.42776340    -71.96282621
 H    169.80931131     64.41142987    -72.58947191
 H    170.81126855     64.57634390    -71.12757188
 H    168.74331253     64.56107153    -69.75664677
 H    167.77145527     64.39550195    -71.23865447
 H    168.42494074     66.47320220    -72.15118336
 H    169.45156052     66.81645648    -70.73820954
 H    167.34653497     66.79437601    -69.35718837
 H    166.41176229     66.44916786    -70.83207753
 H    167.24173511     68.74638910    -71.61442817
 H    168.11610503     68.90304853    -70.07196206
 H    165.45727568     68.79348611    -69.38677479
 H    165.17083694     68.64346057    -71.13712100
 H    166.27391325     71.08761322    -70.97010115
 H    166.37669172     70.79557962    -69.21726927
 H    163.98574548     70.66622308    -68.97709440
 H    163.77163906     70.95529010    -70.72032857
 H    164.94729582     73.24152630    -69.78876883
 H    164.92072275     72.43583849    -68.20181335
 H    162.41879143     72.45235087    -68.34198712
 H    162.53184841     73.25618128    -69.92607722
 H    163.62676540     75.12458327    -68.40299536
 H    163.35777853     74.02971987    -67.02561130
 H    160.91490692     74.20338164    -67.40932406
 H    161.21517000     75.29552981    -68.78239402
 H    162.21304363     76.86996505    -67.03039438
 H    161.83958574     75.65198841    -65.78728185
 H    159.42110240     75.64486177    -66.64240307
 H    159.50215441     76.71354720    -67.09575000
 H    160.17516356     74.55535007    -65.13778280
 H    159.34568751     74.38561813    -66.23378835
 H    159.98995208     75.71113743    -63.52561083
 H    161.07960694     74.57173750    -64.35185943
 H    159.20004953     72.86951681    -64.01760032
 H    158.24807093     74.14337102    -63.21803865
 H    159.25429926     74.74711916    -61.49022689
 H    160.59222164     73.59784163    -61.72979216
 H    159.73877601     71.64615042    -61.63429029
 H    158.09564453     72.26367988    -61.33925986
 H    158.73638052     73.27268911    -59.24298555
 H    160.40668351     72.69390177    -59.45121570
 H    159.45290585     70.35470044    -59.34329147
 H    157.82985236     71.05758889    -59.14351192
 H    158.66890286     72.03610257    -56.97417941
 H    160.25418903     71.28710994    -57.28100912
 H    158.80212292     69.09854608    -57.08236217
 H    157.39732749     70.15647934    -56.80741914
 H    157.69213064     71.23360375    -55.04985097
 H    159.26875882     70.47841150    -54.71489585
 H    158.21591631     68.28210555    -54.50213792
 H    156.62334088     69.00489603    -54.83311237
 H    156.31481496     70.38227544    -53.16681462
 H    157.87136762     69.96527910    -52.41082219
 H    157.03289322     67.63611200    -52.12117541
 H    155.49620711     68.10798230    -52.88550576
 H    155.22967845     69.67577411    -50.88340342
 H    156.79351102     69.08743274    -50.26976772
 H    155.87634947     66.82647384    -50.02885527
 H    154.30380349     67.39404479    -50.63978000
 H    154.30714219     68.86704954    -48.52756614
 H    155.88910947     68.16814919    -48.10663324
 H    154.95554086     65.94803424    -47.88444008
 H    153.33808039     66.56699872    -48.29550121
 H    154.06105635     67.80651753    -45.93251504
 H    155.56649729     66.87079952    -46.09482979
 H    154.49413809     64.76081555    -45.91697609
 H    152.90555108     65.54321954    -45.73669304
 H    153.99267540     66.48896606    -43.56544647
 H    155.47091460     65.59754493    -43.99954774
 H    154.39672070     63.46020398    -43.82797133
 H    152.85979767     64.23890381    -43.38102519
 H    154.29379479     65.00060786    -41.31685889
 H    155.66022556     64.12066723    -42.04269503
 H    154.59654651     61.99571177    -41.88668178
 H    153.15679435     62.73413253    -41.14498429
 H    154.01404919     63.55050717    -39.24624283
 H    155.64422249     62.94666054    -39.62856587
 H    154.63339126     60.62518743    -39.52742733
 H    153.05723989     61.36286877    -39.15347578
 H    154.99593087     61.88197282    -37.11691768
 H    156.04290250     60.93699461    -38.20279670
 H    154.80409158     58.94071605    -38.01943330
 H    153.64634974     59.71176076    -36.90885212
 H    155.45663019     60.05203297    -35.26885869
 H    156.60981059     59.28025538    -36.38366852
 H    154.84905697     57.28991831    -35.80947142
 H    154.02350666     58.49660767    -34.79426989
 H    155.34028554     59.07285862    -33.26294901
 H    156.63499014     57.98173852    -33.81200600
 H    155.54726732     55.98605793    -33.51077798
 H    154.08567774     56.80137230    -32.90473750
 H    154.34847868     57.82452395    -31.23573388
 H    156.06972282     57.39522039    -31.08984441
 H    155.27596129     54.99434714    -30.86758248
 H    153.59949106     55.56973468    -31.03081058
 H    153.52484807     56.86671718    -29.12547894
 H    155.20385788     56.45117725    -28.70533696
 H    155.00547364     54.22480941    -28.39999958
 H    153.26309287     54.25480783    -28.76259581
 H    152.55729266     55.57311988    -27.04172453
 H    154.21006972     55.73994094    -26.40237690
 H    154.10908071     53.21683312    -26.03993760
 H    152.46031591     53.22733221    -26.71055752
 H    151.33624982     54.46234326    -25.29257145
 H    152.75939821     54.73403009    -24.25859777
 H    153.19322125     52.62193062    -23.59990158
 H    151.81853616     51.97119155    -24.52458868
 H    150.13611316     53.07528617    -23.38739982
 H    151.30760672     53.86614112    -22.30554126
 H    152.27812913     52.32106929    -21.21451840
 H    151.33808974     51.02926644    -21.99927187
 H    149.29378854     51.37548131    -21.45622661
 H    149.68889772     52.80566572    -20.47300336
 H    150.93477138     50.60118010    -19.30249746
 H    150.20138482     49.70087262    -20.65151831
 H    147.97676549     50.43389128    -19.55617385
 H    148.93339382     51.27183802    -18.31079272
 H    149.85656134     49.08647690    -17.59552132
 H    148.88939757     48.27455777    -18.84997269
 H    146.82858342     49.04529256    -17.70168685
 H    147.82709411     49.84638856    -16.46496204
 H    148.51209563     47.30523605    -16.06432525
 H    147.39580408     46.89998301    -17.39019470
 H    145.51802831     47.77080869    -16.02169193
 H    146.66229335     48.16404885    -14.71620874
 H    147.34192049     45.97507788    -14.28834640
 H    146.26032859     45.33867152    -15.55065087
 H    144.33201425     46.20560817    -14.21110621
 H    145.47622467     46.81620648    -12.99200044
 H    145.97054536     44.22957117    -12.78347233
 H    144.74759089     43.98356658    -14.05316945
 H    142.92699208     44.79777179    -12.88437693
 H    143.92731757     45.14238600    -11.45299416
 H    144.18948198     42.50673587    -11.56256692
 H    143.14334624     42.55649139    -13.00179972
 H    141.35773412     43.44789607    -11.39787505
 H    142.54855946     43.33257130    -10.07995932
 H    142.02749759     40.75663338    -11.08974891
 H    140.93851046     41.62960224    -12.19442039
 H    139.44937613     42.50688735    -10.82643619
 H    140.22245222     41.79898523     -9.38786238
 H    139.83003708     39.54897065    -10.10305273
 H    139.03010504     40.12900909    -11.58356980
 H    137.31961512     41.13500772     -9.92842225
 H    138.29315279     40.45892995     -8.60048780
 H    137.90134185     38.19115753     -9.32298326
 H    136.90850618     38.77300110    -10.68092364
 H    135.24649416     39.76451189     -9.96691444
 H    135.67250385     39.49589676     -8.25968618
 H    135.48094392     37.08109754     -8.53570845
 H    135.04975225     37.30046427    -10.24866456
 H    133.07396745     38.46592757     -9.90264946
 H    133.26787649     38.37855501     -8.13543923
 H    133.12066905     35.96446239     -8.14330069
 H    132.91911996     35.96405630     -9.91181546
 H    130.80182872     37.20590461     -9.66161774
 H    131.01067520     37.20226395     -7.89395358
 H    130.98139162     35.22551729     -7.21995767
 H    130.73123481     34.55317415     -8.84895826
 H    128.71481438     35.46412357     -9.33810715
 H    128.62602871     36.29071029     -7.76421447
 H    128.61243685     34.12843137     -6.60531189
 H    128.70064435     33.28450852     -8.17001005
 H    127.10436283     33.62611766     -9.33498116
 H    126.29675749     34.66966533     -8.14038980
 H    126.04747709     33.03519391     -6.49191589
 H    126.82756516     31.80900113     -7.51962233
 H    124.78546256     32.23629736     -9.05840257
 H    124.21576675     33.43012961     -7.86740387
 H    123.89764095     31.99899624     -6.09605203
 H    124.42130550     30.59506184     -7.05678628
 H    122.52254754     30.90974948     -8.58181349
 H    121.98704670     32.31542166     -7.63018792
 H    121.66594739     30.62761759     -5.73231972
 H    122.23265291     29.34933914     -6.83373506
 H    120.59964427     29.43940035     -8.40277908
 H    119.74662175     30.74397144     -7.54329464
 H    119.46886455     29.00434255     -5.67537480
 H    120.35293484     27.84212832     -6.69318838
 H    118.78364058     27.78583772     -8.42899274
 H    117.73206428     28.94401871     -7.57983390
 H    117.26846677     27.63724014     -5.73093557
 H    118.26364474     26.29984497     -6.35484393
 H    116.73571775     26.08447547     -8.28425375
 H    115.74988830     27.42342165     -7.64893486
 H    115.15373987     26.22188804     -5.66060396
 H    116.10685338     24.81593346     -6.19270643
 H    115.12389983     24.16870165     -8.02658688
 H    113.88839562     25.44624594     -7.92821722
 H    113.12742898     24.36946669     -5.78138457
 H    114.40060044     23.14086791     -5.97592546
 H    113.08055360     22.51372222     -8.10618208
 H    111.93124315     23.81319791     -7.70779149
 H    111.20394633     22.84823814     -5.68390157
 H    112.29026637     21.45624715     -5.90870483
 H    110.92440789     20.93414335     -7.98021275
 H    109.91786027     22.36124081     -7.63594337
 H    109.13660429     21.41482493     -5.54752045
 H    110.11616444     19.95444560     -5.82323917
 H    108.73822084     19.49405523     -7.84957810
 H    107.79291491     20.96693110     -7.52507844
 H    106.85165200     20.51800913     -5.57712472
 H    107.60193804     18.90642992     -5.48684745
 H    106.59790111     17.98088158     -7.34117786
 H    105.69935058     19.48010967     -7.67761316
 H    104.56921968     19.06657123     -5.42678078
 H    105.55454217     17.59490668     -5.24898962
 H    104.52087568     16.57527198     -7.19412752
 H    103.50360464     18.01705952     -7.42795433
 H    102.54618093     17.33622714     -5.11367106
 H    103.67615112     15.96095475     -5.12140893
 H    101.83792538     15.70551686     -7.25133672
 H    101.20692351     17.24343887     -6.61501982
 H    100.63203867     15.99121104     -4.50661020
 H    101.29191685     14.50827813     -5.23718355
 H     99.42680108     14.75943963     -6.95627736
 H     98.89638389     16.23128110     -6.10739164
 H     98.41418787     14.72925241     -4.12749841
 H     98.97511243     13.33812614     -5.08582926
 H     96.88459738     14.05108259     -6.53952747
 H     96.62605651     15.36090711     -5.36233462
 H     96.21160331     14.06382748     -3.51136356
 H     96.40698513     12.56063369     -4.44437002
 H     94.49295856     13.11667632     -5.84703694
 H     94.25636323     14.63137891     -4.94262255
 H     93.79837981     13.23993358     -2.91157566
 H     94.05221984     11.77048818     -3.88346151
 H     92.40432444     11.92126888     -5.37388014
 H     91.80271111     13.44516671     -4.67813344
 H     91.40485865     11.84275318     -2.61407362
 H     92.07929021     10.53388570     -3.61421093
 H     90.10996983     10.88787519     -5.15546156
 H     89.53542047     12.18276054     -4.07776419
 H     89.58936622      9.58132562     -2.83489328
 H     90.21068888      9.11242583     -4.43562992
 H     87.70300202      9.99431724     -4.97716140
 H     87.57709189     10.30765577     -3.22952520
 H     87.83175116      7.85226623     -2.84893510
 H     87.95223674      7.60762654     -4.60788402
 H     85.41782296      8.62845780     -4.09545860
 H     85.95487502      8.63276906     -2.39845443
 H     85.93538016      5.98531616     -3.20114896
 H     85.39695998      6.63753894     -4.76734685
 H     83.34308833      7.37601185     -3.29471357
 H     84.17133107      6.62291615     -1.91083226
 H     83.88930680      4.44227687     -3.23557570
 H     83.08569487      5.38130072     -4.51647723
 H     81.29931984      6.17540496     -3.56985742
 H     81.66255549      5.39810275     -2.01032935
 H     81.53355504      3.19478418     -2.80272576
 H     81.15016768      3.75953585     -4.44660421
 H     79.15956104      4.79700133     -4.00179263
 H     79.24917745      4.37165968     -2.27572194
 H     79.15211985      1.98387187     -2.84404254
 H     79.06164795      2.39616323     -4.57323233
 H     76.89150701      3.53096659     -4.13183728
 H     77.02694178      3.09642053     -2.41105437
 H     76.90278347      0.67610576     -3.26837702
 H     76.78259832      1.32162611     -4.92280311
 H     74.53214959      2.17201328     -3.50421915
 H     75.27483986      1.28032116     -2.15456624
 H     75.38452552     -0.73915848     -2.65633492
 H     74.62048303     -0.50420136     -4.24671252
 H     72.57687671      0.25681965     -2.90889320
 H     73.50152540     -0.03294867     -1.41580051
 H     73.60972885     -2.44424554     -2.01048154
 H     72.68384255     -2.10981835     -3.49343794
 H     70.75099280     -1.38488118     -2.22159694
 H     71.61597041     -1.69844233     -0.69786474
 H     71.93733515     -3.91594667     -0.84236972
 H     71.10775171     -4.01232088     -2.41423803
 H     69.01158879     -3.29558572     -1.56402555
 H     69.68624778     -3.14969004      0.07665004
 H     70.01662683     -5.72389784     -0.20666860
 H     69.30367111     -5.56461180     -1.82981023
 H     67.18462802     -4.83424252     -0.97804381
 H     67.78392250     -4.95757538      0.69345307
 H     67.92115107     -7.51197367     -0.12366238
 H     67.29572544     -6.92689039     -1.68404278
 H     65.33159465     -6.45725316      0.23599827
 H     66.51093695     -7.17799042      1.35758474
 H     66.37293519     -9.31336880      0.14796071
 H     65.19283049     -8.60150482     -0.97848025
 H     64.09731684     -8.62489691      1.61275948
 H     65.66200993     -9.35139701      2.05116543
 H     65.98617411    -11.11915969      1.17474707
 H     64.42035809    -11.13071454      0.32837048
 H     63.14043876    -11.15301844      2.33572947
 H     64.62323095    -11.14696303      3.32039049
 H     64.77846841    -13.49739582      1.97186498
 H     63.23333510    -13.02070659      1.22782391
 H     62.06637286    -13.05193094      3.32828051
 H     63.55531948    -13.53358391      4.17640495
 H     63.77348089    -15.60128507      3.05410824
 H     62.29458662    -15.29188671      2.11314541
 H     60.86522894    -15.25383243      4.00125635
 H     62.23630904    -15.56580635      5.09262170
 H     61.96398317    -17.77675986      3.41055673
 H     60.61489679    -16.84845251      2.71307693
 H     59.51068713    -17.03993445      4.98204038
 H     60.92348945    -17.95662679      5.55817526
 H     59.93054540    -19.56690095      3.63306559
 H     58.68274741    -18.31847544      3.40349952
 H     57.71489970    -18.46617641      5.49741677
 H     58.84517384    -19.74895125      5.99262959
 H     58.25526999    -21.35874896      4.49542989
 H     57.01085603    -20.31814171      3.76273821
 H     55.59333139    -19.97672764      5.39366135
 H     56.52355719    -20.97572473      6.53600607
 H     55.79730844    -22.76239100      4.64272646
 H     54.99633873    -21.39321240      3.83522156
 H     53.49367558    -21.21582900      5.83162743
 H     54.34727253    -22.59061538      6.57297845
 H     53.30923961    -23.77646521      4.43059930
 H     52.61486348    -22.19185235      4.01213722
 H     51.24370817    -21.81013242      5.70811731
 H     51.64866464    -23.35421019      6.49558207
 H     50.78515135    -24.66822323      4.69006712
 H     50.32756220    -23.19601159      3.80042016
 H     49.19419644    -21.97037083      4.27812886
 H     48.74981094    -22.79125302      5.79369496
 H     47.87871659    -24.68865302      4.42717099
 H     48.34727521    -23.81885145      2.94657492
 H     46.91426002    -21.99957250      3.24988459
 H     46.28625234    -22.68421625      4.76815201
 H     45.33453095    -24.52509422      4.24598666
 H     45.69526064    -24.34139198      2.51266781
 H     44.37121817    -22.34800818      2.31451737
 H     43.94031728    -22.43235439      4.03947441
 H     42.79274438    -24.61353900      3.51523901
 H     43.27887576    -24.43076826      1.81272975
 H     42.26385501    -22.62640155      1.15029186
 H     41.49222456    -22.36346525      2.73260587
 H     40.21486863    -24.14577024      2.95922891
 H     40.70822465    -24.80950148      1.38305400
 H     39.82982721    -23.04669743      0.10231614
 H     39.24629410    -22.21600134      1.56440361
 H     37.79387419    -24.43444325      1.68497261
 H     38.61544552    -24.93949018      0.18890616
 H     37.64091310    -23.05388411     -1.02672549
 H     37.09267598    -22.35186242      0.23169752
 H     36.66462332    -21.83472218      1.29527122
 H     35.63810488    -23.28521986      1.39814510
 H     34.77286403    -22.17463767     -0.88604607
 H     35.97920911    -20.89950534     -0.59102785
 H     34.51547124    -20.45066893      1.51148022
 H     33.46620939    -21.78869221      0.98516289
 H     32.76532883    -20.81425526     -1.01137568
 H     33.73809544    -19.35627072     -0.70109698
 H     32.32562450    -18.93642454      1.31560554
 H     31.39292724    -20.40765594      0.94979048
 H     30.71185364    -19.19841187     -1.19186116
 H     31.69931693    -17.81103935     -0.67380673
 H     29.98050531    -17.74316851      1.28196902
 H     29.18494322    -19.15272166      0.54135607
 H     28.61718273    -17.90437099     -1.45109585
 H     29.39085464    -16.44796942     -0.78132506
 H     27.48482623    -16.73432587      1.00487565
 H     26.96023123    -18.17217549      0.09621993
 H     26.41632125    -16.93511707     -1.86850051
 H     26.90332419    -15.41357688     -1.08363730
 H     24.76336104    -16.36009582      0.37568498
 H     24.78167786    -17.71503880     -0.77846435
 H     24.25196449    -16.10952896     -2.59910261
 H     24.24382775    -14.78204082     -1.41336414
 H     22.27570640    -15.98102221     -0.34553464
 H     22.40789251    -17.23909871     -1.59774749
 H     21.88979986    -15.62639421     -3.35063083
 H     21.74559087    -14.33467927     -2.13451285
 H     19.86779209    -15.42134100     -1.06508952
 H     19.94266499    -16.75230907     -2.24457445
 H     19.39757386    -14.98556172     -3.99314848
 H     19.36215049    -13.76683252     -2.69634049
 H     17.64284022    -14.52441152     -1.45981133
 H     17.35745827    -15.89599676     -2.55779937
 H     16.88327271    -13.65091139     -4.06935706
 H     17.30081204    -12.75400549     -2.58966541
 H     15.32107990    -13.77807256     -1.48053100
 H     14.94657833    -14.65423070     -2.98398108
 H     14.57462762    -12.56739646     -4.18076230
 H     14.93912520    -11.64181260     -2.70471938
 H     13.24429206    -12.36056941     -1.37689554
 H     12.59102327    -13.40940180     -2.65808919
 H     12.10368593    -11.59599248     -4.12570157
 H     12.72282031    -10.42509078     -2.93661432
 H     10.95797115    -11.07555107     -1.35625521
 H     10.11248371    -11.01902291     -3.19196429
 H      9.96213702     -9.91722946     -3.82448377
 H     10.67996471     -9.14616461     -2.38975415
 H      8.35007236    -10.33981751     -1.51888335
 H      8.17553186    -10.86246930     -3.21140732
 H      8.01830798     -8.37491051     -3.75350025
 H      8.20857059     -8.02609130     -2.01845213
 H      6.04725110     -7.94265519     -1.82326393
 H      5.85642224     -9.53975963     -3.10227502
 H      5.70452823     -7.12007904     -3.62893102
 H      6.03499110     -6.73590549     -1.92262752
 H      4.07287026     -7.77083999     -1.09998699
 H      3.58122693     -8.23539597     -2.74641987
 H      3.33713120     -6.11000070     -3.61091657
 H      3.79374020     -5.36345110     -2.06093638
 H      1.76744874     -6.40670516     -1.04407736
 H      1.36475164     -7.12738344     -2.62101253
 H      1.00118256     -5.61799479     -3.99692496
 H      1.27649869     -4.31491961     -2.81605123
 H     -0.70546309     -6.33064162     -1.95539626
 H     -0.85325243     -6.54779753     -2.90559887
 H     -0.61866959     -4.64983961     -0.70669822
 H     -0.40987963     -6.41738307     -0.72822738
 H     -2.75254431     -6.72190772     -1.36527829
 H     -2.99278776     -4.95828663     -1.35147857
 H     -2.56562828     -4.62147854      0.90136122
 H     -2.27848360     -6.35845949      1.16349051
 H     -4.74072686     -6.61842330      0.47606268
 H     -4.81694155     -4.85244440      0.26683432
 H     -4.39430298     -4.33966209      2.52456028
 H     -4.28459935     -6.06672885      2.94106019
 H     -6.80594705     -5.97692699      2.15972318
 H     -6.55372747     -4.24378335      1.84213061
 H     -6.13659993     -3.98221558      4.31347377
 H     -6.40557624     -5.72982472      4.51787708
 H     -8.57809609     -5.85321290      3.85932990
 H     -8.55037556     -3.85238491      4.29327645
 H     -8.34769402     -3.07546682      5.32941210
 H     -8.17231839     -4.56093726      6.29423727
 H    -10.57498179     -5.06185886      5.65268747
 H    -10.60705287     -3.54544834      4.72116332
 H     -9.78389315     -2.45747746      6.98607670
 H    -10.21767071     -3.25546708      7.59357630
 H    -10.35865554     -1.25108505      5.42146856
 H     -8.98077031     -1.66925460      6.46781132
 H     -9.00621865     -1.44618071      8.27523635
 H    -10.64567350     -0.75356413      8.30237908
 H     -9.05934671      0.98581551      6.83094682
 H     -8.64732279      0.54701479      6.49981139
 H     -8.12885191     -0.17148500      5.52017020
 H     -7.10327600     -0.95596216      6.74534623
 H     -6.15322143      1.39708618      7.11793815
 H     -7.26374938      1.99299107      5.86100072
 H     -6.31391098      0.72826339      4.11329642
 H     -5.76897923     -0.14618386      4.72605171
 H     -5.30994815     -1.17132618      5.37653203
 H     -4.13207613     -0.05038758      6.10067348
 H     -3.19166034      0.42076037      3.88172930
 H     -4.36357463     -0.69759385      3.14405227
 H     -3.54093570     -2.61436092      4.26279806
 H     -2.29669710     -1.64557133      5.08837888
 H     -1.02268274     -0.84858876      3.60432175
 H     -1.90933680     -1.62462036      2.27019799
 H     -1.54913153     -3.81126053      2.83784284
 H     -0.59191428     -3.35075606      4.26610662
 H      1.02260955     -2.31346964      2.56994767
 H     -0.06760950     -2.85335145      1.27063373
 H      0.59985593     -5.21059200      2.20566275
 H      1.60924024     -4.36391191      3.40255155
 H      3.01171669     -3.45412405      1.60634921
 H      2.01325274     -4.29426091      0.39576816
 H      3.14266486     -6.29692717      1.88960329
 H      3.90599812     -4.97699260      2.80795055
 H      5.17612873     -4.11287544      1.06885785
 H      4.56418083     -5.34360085     -0.06211580
 H      5.47545893     -7.18102586      1.09694158
 H      6.17541390     -6.10825790      2.33286173
 H      7.59518462     -4.87538758      1.27109796
 H      7.26438647     -5.66416393     -0.28988607
 H      8.97024007     -6.99999585      0.13270907
 H      8.42624053     -7.08080868      2.11104867
 H     10.06173474     -5.57921122      1.25581172
 H      9.81799823     -6.20040318     -0.39433365
 H     11.48828280     -7.75387398      0.34927788
 H     10.82805533     -7.43087090      2.28344149
 H     12.59523479     -6.19435162      0.64580488
 H     12.13500652     -7.41712015     -0.56303494
 H     12.76935583     -9.30553502      0.33985560
 H     13.40850295     -8.50316266      1.79448828
 H     15.36467838     -8.57118120      0.95863829
 H     14.64338534     -7.89933082     -0.82150618
 H     15.13286462    -10.10765281     -0.43499039
 H     15.62583287     -9.77010150      1.24170519
 H     17.46510638     -8.34656747      0.10708940
 H     16.78147045     -8.82394630     -1.46549384
 H     17.39739975    -11.19279187     -0.87666345
 H     18.71598815    -10.12031353      0.29207902
 H     19.98001669    -10.56797642      0.06224140
 H     19.43340943     -9.59146941     -1.65321504
 H     19.98791258    -11.99612648     -1.24875622
 H     21.21577330    -10.91337466     -0.02234153
 H     22.36171263    -10.59250614     -0.29523280
 H     21.67278830    -10.25488968     -1.90136638
 H     22.14263108    -11.91551604     -1.46566637
