1502
Collab-Geweke equil step 3700000 E=       140.6205
 C      0.00000000      0.00000000      0.00000000
 C      1.54000000      0.00000000      0.00000000
 C      2.16637443      0.74399956      1.19403506
 C      3.68617735      0.95960469      1.07028728
 C      4.21498237      2.16491962      1.86977536
 C      5.75125593      2.24176326      1.94433139
 C      6.27831080      3.26802741      2.96442700
 C      7.64630796      2.90317910      3.57028961
 C      7.61199845      1.67717730      4.50160183
 C      7.37451356      2.02267552      5.98343580
 C      6.52099578      0.98721393      6.73903272
 C      5.06395872      0.89857626      6.24833285
 C      4.26040518      2.19918375      6.43359449
 C      2.81848816      2.12632316      5.89771515
 C      2.19545974      3.50003047      5.58728993
 C      1.93911613      4.36759815      6.83357011
 C      1.09685147      5.62698270      6.55763386
 C      0.68514142      6.39569158      7.82695711
 C     -0.49901890      7.35823475      7.61989435
 C     -1.01898146      8.00028432      8.91951402
 C     -2.15557532      9.01695850      8.70473976
 C     -2.81174978      9.50764263     10.00868154
 C     -3.88562323     10.59157722      9.80015904
 C     -4.18017863     11.43144788     11.05692250
 C     -5.33754064     12.43258152     10.88416653
 C     -5.49663916     13.41497912     12.05940379
 C     -6.75657822     14.29627205     11.97293795
 C     -6.71843065     15.53504217     12.88704590
 C     -5.59257831     16.52947472     12.54769295
 C     -5.64873226     17.83896942     13.35619178
 C     -4.30256449     18.58235010     13.43875986
 C     -4.41013220     20.01241708     13.99995290
 C     -3.10211266     20.82033334     13.91075528
 C     -3.29237119     22.34006176     14.07146372
 C     -2.03228001     23.08136494     14.55544702
 C     -2.08287337     24.60606620     14.34490871
 C     -0.98575237     25.37937523     15.09983828
 C     -0.96234714     26.88913662     14.79706320
 C     -0.69662602     27.77139764     16.03100314
 C     -0.92858114     29.27432693     15.78810321
 C     -2.35621257     29.62120203     15.32642565
 C     -2.65264180     31.13193396     15.28875945
 C     -3.89175647     31.50651116     14.45456118
 C     -4.57818447     32.81003675     14.90315638
 C     -5.92152255     33.08403131     14.20175081
 C     -5.81636654     33.19788905     12.66956980
 C     -7.12243701     33.63902043     11.98314206
 C     -6.91378635     34.31477719     10.61514436
 C     -8.14182765     35.09281776     10.10704257
 C     -8.10929621     35.39850677      8.59803762
 C     -9.37787081     36.09590639      8.07272604
 C     -9.12893964     37.02733064      6.87185879
 C    -10.30010533     37.97864444      6.56368191
 C    -10.04981394     38.91242935      5.36493258
 C    -11.20383980     39.89226999      5.08255582
 C    -10.89271645     40.92690138      3.98513149
 C    -12.11521437     41.74684724      3.53259684
 C    -11.79698790     42.80659436      2.46149088
 C    -13.01670513     43.63638698      2.01952471
 C    -12.69046591     44.72469855      0.97993542
 C    -13.90627414     45.56833695      0.55369064
 C    -13.57768169     46.66472050     -0.47663460
 C    -14.81393210     47.40710261     -1.01714707
 C    -14.50386790     48.38910751     -2.16219142
 C    -15.71278943     49.23190169     -2.60918886
 C    -15.33732665     50.47977546     -3.42982200
 C    -16.54880704     51.26026496     -3.97273213
 C    -16.20490461     52.23720755     -5.11243134
 C    -17.40283831     53.06875910     -5.60748373
 C    -17.09922029     53.92648845     -6.84994759
 C    -18.19126717     54.96133185     -7.17878305
 C    -17.68436692     56.17278728     -7.98316349
 C    -18.79023200     57.16853086     -8.37959398
 C    -18.29684799     58.33805259     -9.25159807
 C    -19.31648185     59.48261814     -9.39964027
 C    -18.67921371     60.88189476     -9.48632498
 C    -19.70005244     62.02886238     -9.60445022
 C    -19.08682325     63.43227352     -9.44324498
 C    -20.10751504     64.57927955     -9.56226362
 C    -19.47581117     65.98369912     -9.54977700
 C    -20.43168250     67.10448442     -9.99894323
 C    -19.80954813     68.51259641     -9.95687821
 C    -20.71198904     69.61388720    -10.54369930
 C    -19.99905126     70.96290873    -10.75217144
 C    -20.95348725     72.16780698    -10.84636349
 C    -20.28259690     73.52270977    -10.55354171
 C    -21.22435959     74.73245076    -10.69917748
 C    -20.66220457     76.03862322    -10.10799625
 C    -21.35206805     77.31154191    -10.63274989
 C    -20.84573933     78.61210678     -9.98177965
 C    -21.76062186     79.82817513    -10.21793153
 C    -21.26220177     81.12528812     -9.55409774
 C    -21.90560153     82.40531252    -10.11905284
 C    -21.62209681     83.66910580     -9.28595524
 C    -22.15358894     84.96866255     -9.91862291
 C    -22.11047928     86.18678378     -8.97738850
 C    -22.39889274     87.52861240     -9.67589664
 C    -22.34472475     88.74797499     -8.73684356
 C    -22.62904496     90.09025131     -9.43616915
 C    -22.90360562     91.25546157     -8.46740629
 C    -23.37014786     92.54931737     -9.16013678
 C    -23.78225846     93.66811363     -8.18542668
 C    -24.21268767     94.97474664     -8.87755446
 C    -24.66271545     96.08022074     -7.90441418
 C    -24.94356889     97.43454918     -8.58155215
 C    -25.62060417     98.46675298     -7.66080326
 C    -26.26694175     99.64632508     -8.41077487
 C    -26.66566688    100.82364559     -7.50163534
 C    -27.29850796    102.00928582     -8.25354587
 C    -26.97902961    103.38407041     -7.63750943
 C    -27.66099570    104.56488911     -8.35318356
 C    -27.30560393    105.94325188     -7.76546527
 C    -27.96846141    107.12563123     -8.49635449
 C    -27.60485281    107.22219167     -9.98969466
 C    -28.50368179    108.18094648    -10.79249954
 C    -28.01494678    108.44211687    -12.22934612
 C    -28.89042521    109.43343156    -13.01829016
 C    -28.57447547    109.48673321    -14.52458850
 C    -29.21211343    110.68232758    -15.25641631
 C    -28.67523277    110.90228546    -16.68294275
 C    -29.64834070    111.65493190    -17.60932512
 C    -28.99130384    112.21817991    -18.88315958
 C    -29.83990455    113.27846575    -19.60929372
 C    -29.13061949    113.93470585    -20.80840323
 C    -29.82985561    115.20278560    -21.33246677
 C    -29.17775462    115.80246976    -22.59212672
 C    -29.73680629    117.18082573    -22.99112053
 C    -31.12067305    117.12446869    -23.66442335
 C    -32.03184114    118.31848169    -23.32426797
 C    -33.44359247    118.22215150    -23.93195099
 C    -34.39356563    119.35132662    -23.49136669
 C    -35.75632922    119.33892661    -24.20852891
 C    -36.88851018    120.01591870    -23.41389190
 C    -38.29717072    119.50948344    -23.77555307
 C    -39.40012145    119.98398073    -22.81121288
 C    -40.82035319    119.55512643    -23.22428166
 C    -41.89260964    119.82413449    -22.15213392
 C    -43.31581001    119.41257077    -22.57250993
 C    -44.32732265    119.38097985    -21.41171530
 C    -45.79914497    119.43321582    -21.86183804
 C    -46.81127140    119.36726638    -20.70302367
 C    -48.28327056    119.39975872    -21.15442451
 C    -49.23822626    120.04194506    -20.13106909
 C    -50.68791713    120.18452535    -20.63073621
 C    -51.70470177    120.50567212    -19.51960447
 C    -53.17037511    120.50417923    -19.99225596
 C    -54.18689753    120.82898754    -18.88194892
 C    -55.64665857    120.89303324    -19.36836012
 C    -56.65539303    121.28470958    -18.27262091
 C    -58.12787604    121.18683188    -18.71286375
 C    -59.12780400    121.74621037    -17.68386434
 C    -60.40042086    122.34670057    -18.30953026
 C    -61.53803634    122.59281036    -17.30113501
 C    -62.81095295    123.19251272    -17.92694680
 C    -63.92395569    123.50143512    -16.90842245
 C    -64.99507395    124.47828393    -17.42810706
 C    -66.09753147    124.80235455    -16.40284336
 C    -67.19093569    125.74660580    -16.93618827
 C    -68.24307402    126.14403285    -15.88421076
 C    -69.58752061    126.59721702    -16.48311597
 C    -70.71238259    126.76158609    -15.44423757
 C    -72.02801424    127.31025896    -16.02705095
 C    -73.16723846    127.43000057    -14.99776473
 C    -74.39946059    128.19627056    -15.51357372
 C    -75.62146556    128.11872971    -14.57960837
 C    -76.89136064    128.77379297    -15.15394156
 C    -78.16677343    128.48783382    -14.33960160
 C    -79.40982168    129.25070408    -14.83403059
 C    -80.72209971    128.81724479    -14.15459008
 C    -81.99190080    129.25747910    -14.90652023
 C    -83.27402843    129.20478609    -14.05506725
 C    -84.55062443    129.60080821    -14.81996537
 C    -85.84805466    129.41664434    -14.01104110
 C    -87.13205913    129.51502148    -14.85558503
 C    -88.40767103    129.76371759    -14.02941039
 C    -89.67770508    129.95267521    -14.87965067
 C    -90.98658331    129.90524424    -14.06959629
 C    -92.25894811    130.03863643    -14.92685608
 C    -93.56670678    129.80821573    -14.14693713
 C    -94.80523282    129.61973100    -15.04255242
 C    -96.13101615    129.52058257    -14.26533420
 C    -97.38098252    129.46684884    -15.16327449
 C    -98.71116289    129.50912685    -14.38839853
 C    -99.95837393    129.33655624    -15.27512508
 C   -101.17234626    128.73955383    -14.53928590
 C   -102.47822148    128.77401761    -15.35482386
 C   -103.65973089    128.05644071    -14.67606108
 C   -105.03587656    128.66099680    -15.01122524
 C   -106.14874702    128.27287804    -14.02002235
 C   -107.56053937    128.69658209    -14.46602375
 C   -108.67990395    128.25517642    -13.50488695
 C   -110.08040792    128.75820254    -13.90131266
 C   -111.20230385    128.30190002    -12.95013575
 C   -112.62234909    128.54979861    -13.49200086
 C   -113.66529899    127.52550453    -13.00756601
 C   -114.96733889    127.52059214    -13.82992114
 C   -116.11064945    126.71298895    -13.18787905
 C   -117.24979872    126.35739977    -14.16127274
 C   -117.97353330    125.04051109    -13.82420824
 C   -119.07387407    124.65520306    -14.83038313
 C   -119.77323988    123.32035720    -14.51309144
 C   -120.81253365    122.89202577    -15.56570754
 C   -121.76897496    121.78406355    -15.08691768
 C   -122.78668024    121.33224899    -16.15075017
 C   -123.61329528    120.09860847    -15.74278123
 C   -124.25414350    119.35391109    -16.92867304
 C   -125.08751480    118.12504210    -16.52004941
 C   -125.44645956    117.19357033    -17.69270409
 C   -126.30595605    115.98113492    -17.28913729
 C   -126.68172468    115.06049751    -18.46507296
 C   -127.21922289    113.68288836    -18.03508611
 C   -126.12003065    112.64166242    -17.75361679
 C   -126.61645436    111.39580679    -16.99664437
 C   -125.48893996    110.54539903    -16.38254511
 C   -125.98856447    109.37238651    -15.51882236
 C   -124.88112106    108.38884522    -15.09714046
 C   -125.40709239    107.08755306    -14.46342690
 C   -124.31045297    106.21182050    -13.82933347
 C   -123.08568317    105.98782564    -14.73562549
 C   -122.01980795    105.05622574    -14.12929912
 C   -120.85204504    104.73729064    -15.08124985
 C   -119.67746185    104.00348461    -14.40783835
 C   -118.61842391    103.47831896    -15.39487416
 C   -117.28471894    103.08594669    -14.73239771
 C   -116.08480111    103.07642689    -15.69764720
 C   -114.71594623    103.01512104    -14.99474045
 C   -113.52232056    102.88137478    -15.95857120
 C   -112.14799942    102.99878980    -15.27369520
 C   -110.95424524    102.82185585    -16.23037975
 C   -109.58916327    102.74700272    -15.52147339
 C   -108.40463432    102.48317319    -16.46956893
 C   -107.05907326    102.27868727    -15.74897824
 C   -105.83123527    102.38802792    -16.67204837
 C   -104.64002659    101.51483330    -16.23598294
 C   -103.38498145    101.68473366    -17.11210825
 C   -102.13020264    100.99091668    -16.55019355
 C   -100.81354483    101.45569887    -17.19980091
 C    -99.56470438    101.20172407    -16.33522336
 C    -98.24014447    101.58789763    -17.01933668
 C    -96.98630250    101.04865856    -16.30610351
 C    -95.67864165    101.74554439    -16.72559516
 C    -94.44669762    101.30800755    -15.91166924
 C    -93.10170730    101.69412791    -16.55471830
 C    -91.87494401    101.37645815    -15.67965386
 C    -90.52970948    101.75893242    -16.32436890
 C    -89.30079938    101.17590732    -15.60224585
 C    -87.97808721    101.35938462    -16.36929774
 C    -86.80480064    100.54066990    -15.79946897
 C    -85.42060490    101.00546733    -16.28892328
 C    -84.24614375    100.46288173    -15.45355398
 C    -82.85938553    100.77261579    -16.04732705
 C    -81.71271583     99.95999762    -15.41772375
 C    -80.32115695    100.59318192    -15.60276839
 C    -79.15399153     99.60593279    -15.41658555
 C    -77.89224320     99.96874153    -16.22154578
 C    -76.79112730     98.89295510    -16.17879856
 C    -75.50268820     99.28539936    -16.92546594
 C    -74.41379487     98.19650392    -16.91069985
 C    -73.16164047     98.55162622    -17.73386297
 C    -71.94689654     97.64954898    -17.44706368
 C    -70.86149042     97.69480321    -18.53859730
 C    -69.62880597     96.82388687    -18.23266630
 C    -68.56096663     96.83794538    -19.34222544
 C    -67.59943032     95.63570377    -19.30144533
 C    -66.43248064     95.73273863    -20.30165164
 C    -65.39786221     94.59980573    -20.16888200
 C    -64.19081538     94.73980306    -21.11494685
 C    -63.03467080     93.77157513    -20.80275397
 C    -62.06315759     93.55639406    -21.97810888
 C    -60.72615259     92.90724776    -21.57483887
 C    -60.08009570     92.06077973    -22.68735960
 C    -58.89961165     91.19469072    -22.20992141
 C    -58.18580606     90.43060037    -23.34051749
 C    -57.06072666     89.49860015    -22.85351447
 C    -56.15582377     88.96705599    -23.98055110
 C    -55.09788423     89.97671628    -24.46320009
 C    -53.80180066     89.32626202    -24.98154036
 C    -52.77685432     89.00592231    -23.87769822
 C    -51.31230622     89.04565729    -24.35216634
 C    -50.28654390     88.74181914    -23.24442357
 C    -48.82079299     88.91935053    -23.68220989
 C    -47.79844970     88.70029360    -22.55153386
 C    -46.48542024     89.48409365    -22.73377297
 C    -45.42346120     89.18563390    -21.65917315
 C    -44.00990506     89.67750104    -22.02183796
 C    -42.93686084     89.32730125    -20.97420434
 C    -41.55835457     89.95326502    -21.25614374
 C    -40.37191308     89.10112065    -20.76848959
 C    -38.99296141     89.67023948    -21.15084550
 C    -37.83525600     89.14336927    -20.28267158
 C    -36.53576579     89.96007865    -20.40881033
 C    -35.39931294     89.47488224    -19.48975681
 C    -34.20591085     90.44443916    -19.40401975
 C    -33.18104097     90.08141566    -18.31339805
 C    -31.99768038     91.06197137    -18.21456383
 C    -31.04974268     90.78267163    -17.03346020
 C    -29.82158750     91.71040837    -16.98306779
 C    -28.82770078     91.37322010    -15.85608365
 C    -27.47443386     92.09829190    -15.97666359
 C    -26.56164656     91.92939502    -14.74788648
 C    -25.15456177     92.52949713    -14.92562183
 C    -24.31714756     92.55609771    -13.63348026
 C    -22.90471954     93.14254132    -13.81439729
 C    -22.16525356     93.41461725    -12.49123261
 C    -20.74182955     93.97367606    -12.67266388
 C    -20.08434953     94.44979482    -11.36398861
 C    -18.63894108     94.95259457    -11.53599686
 C    -17.87016978     95.11421747    -10.21143326
 C    -16.34241682     95.20761621    -10.38127893
 C    -15.56277760     95.19777420     -9.05324812
 C    -14.04415030     95.00384205     -9.21986583
 C    -13.26238019     95.01175215     -7.89307538
 C    -11.74118151     94.84075526     -8.06134494
 C    -10.94178348     95.02917831     -6.75863255
 C     -9.42422652     94.82243319     -6.91949682
 C     -8.66646668     94.68146937     -5.58625670
 C     -7.21384819     94.19373319     -5.73992180
 C     -6.35622794     94.37113552     -4.47318745
 C     -4.92816315     93.80881500     -4.59978361
 C     -4.12243336     93.84426324     -3.28786024
 C     -2.68469121     93.30878402     -3.42112508
 C     -1.93666618     93.18226767     -2.08095637
 C     -0.43315621     92.88349704     -2.22858393
 C      0.31435252     92.75436350     -0.88837678
 C      1.81333451     92.43346611     -1.03561082
 C      2.49584060     92.01238692      0.27910502
 C      3.97199955     91.60500728      0.11602039
 C      4.66517882     91.22037242      1.43630768
 C      6.16653141     90.91100546      1.28854955
 C      6.86247895     90.53879983      2.61094132
 C      8.39002790     90.38320972      2.49267922
 C      8.99475182     89.36906644      3.48132597
 C     10.24577693     88.64540751      2.94948584
 C     10.88757841     87.67818737      3.96150167
 C     12.07476494     86.87679453      3.39585366
 C     12.65433882     85.83992070      4.37594894
 C     14.05403238     85.32685099      3.98966225
 C     14.45765849     84.01794149      4.69353858
 C     15.66137460     83.30562637      4.04912046
 C     15.99374145     81.94122997      4.68122389
 C     17.18590472     81.22052487      4.02477061
 C     17.45295306     79.81185696      4.58685592
 C     18.20208260     78.88131396      3.61500478
 C     18.61857389     77.53392372      4.23361172
 C     19.27292666     76.56161244      3.23459558
 C     19.79275844     75.26120804      3.87516041
 C     20.28528522     74.21520304      2.85786454
 C     20.46040829     72.80296704      3.44652522
 C     20.79873901     71.72547336      2.39955832
 C     21.50247443     70.48553592      2.98171947
 C     21.24513655     69.18986672      2.19012705
 C     21.32996305     67.90887228      3.04069021
 C     20.84890631     66.64024970      2.31214291
 C     20.99982762     65.34877321      3.13731636
 C     20.41554323     64.09777989      2.45524053
 C     20.43244838     62.83684953      3.33919123
 C     19.78109162     61.60434448      2.68477112
 C     19.80644378     60.34093842      3.56497700
 C     19.04335452     59.14486248      2.96606370
 C     19.25794669     57.82177458      3.72434372
 C     18.43666089     56.64239493      3.17103254
 C     18.67719587     55.31147297      3.90750363
 C     17.52045415     54.30366575      3.77381298
 C     17.86303538     52.88725099      4.27181634
 C     16.74080911     51.85644907      4.04898097
 C     17.10510062     50.42785800      4.49397450
 C     16.11934275     49.34956898      4.00696916
 C     16.32552343     47.97090051      4.66146346
 C     15.18941058     46.96920388      4.38316247
 C     15.38087453     45.60037564      5.06231694
 C     14.35302769     44.53783852      4.63087081
 C     14.84644595     43.08780246      4.79066392
 C     15.70107605     42.58359750      3.61296075
 C     15.87427277     41.05385115      3.57450302
 C     16.56738855     40.53375704      2.30143875
 C     16.27234635     39.05533568      1.98708165
 C     17.25541154     38.41939721      0.98669918
 C     16.57315482     37.72536488     -0.20680193
 C     17.51024294     36.81355899     -1.02048238
 C     16.83713704     36.14774967     -2.23507136
 C     17.63925192     34.97627291     -2.83160629
 C     16.92757337     34.25660415     -3.99229164
 C     17.83852840     33.30847324     -4.79404517
 C     17.12945922     32.59683187     -5.96125872
 C     18.05609680     31.70165860     -6.80482710
 C     19.08275971     30.90662297     -5.97688893
 C     18.65017840     29.46254036     -5.66208924
 C     19.68991922     28.65792272     -4.86013570
 C     19.36495810     27.15727115     -4.74162356
 C     20.20477441     26.41607692     -3.68476989
 C     19.70272863     24.99464945     -3.36997794
 C     20.12543293     24.47371605     -1.98377830
 C     19.64512637     23.04257004     -1.67926767
 C     20.12191083     22.49774321     -0.32006191
 C     19.83961255     20.99814177     -0.11244878
 C     20.06290407     20.51282552      1.33192272
 C     19.71618028     19.02901003      1.55479982
 C     20.20012801     18.46866130      2.90513455
 C     19.83404637     16.99096158      3.13748719
 C     20.44504047     16.02458860      2.10578497
 C     20.19503114     14.53704080      2.41610236
 C     21.07200745     13.57061934      1.59845812
 C     20.65651171     12.09270939      1.71988911
 C     21.17063461     11.20134121      0.57414027
 C     20.91712449      9.69753790      0.78840228
 C     21.43286223      8.80601777     -0.35650228
 C     21.60073953      7.32479074      0.02999958
 C     21.90760522      6.39764148     -1.16072613
 C     21.90634887      4.89939452     -0.80455979
 C     20.57227071      4.39471140     -0.22393049
 C     20.37550296      2.87164099     -0.33855587
 C     19.05818413      2.36229119      0.27531210
 C     18.62395854      0.97588190     -0.23548866
 C     17.52327813      0.31228096      0.61288416
 C     16.90608368     -0.94246616     -0.03231400
 C     15.96297254     -1.72632285      0.89919557
 C     14.64856372     -0.99171578      1.22212267
 C     13.58670704     -1.87687890      1.90075855
 C     12.25865988     -1.15246367      2.18905236
 C     11.17966742     -2.05078624      2.82181757
 C      9.74418992     -1.51923926      2.65311022
 C      8.67172123     -2.38126942      3.34471337
 C      7.22594789     -1.97782308      3.00037267
 C      6.16263228     -2.62108670      3.90986255
 C      4.72978602     -2.12035318      3.64944457
 C      3.72872915     -2.47916321      4.76332989
 C      2.31471200     -1.91083720      4.54160699
 C      1.36551843     -2.10837916      5.73810552
 C      0.03725063     -1.33844028      5.61769468
 C     -0.60895879     -0.98874618      6.97110793
 C     -0.54529704      0.50809945      7.32747902
 C     -1.20989137      0.86089511      8.67114922
 C     -0.95214455      2.30589657      9.13712923
 C     -1.88221756      2.77336388     10.27204707
 C     -1.77507419      4.27620373     10.59078315
 C     -2.55855844      4.70807184     11.84427523
 C     -2.29653025      6.16279167     12.27639959
 C     -2.89141325      6.52504146     13.64989488
 C     -2.92218097      8.03714312     13.94007056
 C     -3.79727508      8.42580908     15.14620034
 C     -4.48351664      9.79732162     15.00610798
 C     -5.16466735     10.29156536     16.29581990
 C     -6.00746934     11.56698899     16.10986466
 C     -6.58398240     12.13346022     17.42072050
 C     -7.48931703     13.36403096     17.22664613
 C     -8.14099033     13.87334412     18.52569271
 C     -9.22954680     14.93988252     18.30401582
 C    -10.00521350     15.31776824     19.57961119
 C    -10.69390108     16.69341218     19.50951717
 C     -9.71804813     17.87568518     19.36274667
 C     -9.09708296     18.34404245     20.69189817
 C     -7.77292319     19.11303443     20.52803163
 C     -6.69760433     18.34688017     19.73537975
 C     -5.41233408     19.15589146     19.48007380
 C     -4.57613007     18.64487053     18.29212580
 C     -3.22251184     19.36005205     18.12529328
 C     -2.14484293     18.50706740     17.43056534
 C     -0.85689813     19.28001548     17.09093398
 C      0.11097329     18.51151709     16.17211129
 C      0.95159288     19.41567247     15.25153444
 C      1.54904389     18.68692844     14.03350963
 C      0.51446925     18.32083306     12.95312568
 C      0.34460033     16.80565543     12.73637402
 C     -0.72701550     16.43840013     11.69312761
 C     -1.46099486     15.11698047     11.98761762
 C     -1.78079967     14.89674372     13.47785944
 C     -1.77831299     13.41777909     13.90711160
 C     -2.33112901     13.17584952     15.32396181
 C     -1.24611520     12.89549774     16.38025150
 C     -1.70851134     13.12925216     17.83047516
 C     -0.64444104     12.78749904     18.88998410
 C     -1.03946657     13.18338870     20.32484514
 C     -0.93451215     14.69322053     20.60943680
 C     -2.03790985     15.23382240     21.53780264
 C     -1.99476613     16.75995542     21.73943752
 C     -0.62889337     17.29085819     22.21286528
 C     -0.67576205     18.72123278     22.78157599
 C     -1.22106038     19.77014504     21.79464500
 C     -1.18051538     21.21382409     22.32919798
 C     -2.03147504     22.20695997     21.51608743
 C     -1.49389284     22.47843046     20.09872751
 C     -2.05823255     23.75536602     19.44868424
 C     -3.58247081     23.72625635     19.23085316
 C     -4.08708482     24.74978065     18.19675322
 C     -5.59296932     24.64263451     17.89272760
 C     -6.02585863     23.26865920     17.34830251
 C     -7.55113964     23.09640040     17.22402565
 C     -8.00641059     21.63239145     17.07909064
 C     -7.25767318     20.84898975     15.98489044
 C     -7.68866734     19.37553563     15.86332986
 C     -9.19614094     19.18232533     15.61474767
 C     -9.61133898     17.71622467     15.39167940
 C    -11.13421477     17.50178998     15.31126123
 C    -11.55919766     16.02159083     15.31108195
 C    -10.78154411     15.14675810     14.31032092
 C    -11.06689691     13.63921374     14.44254720
 C     -9.93746592     12.73873725     13.90857369
 C    -10.33026968     11.25597652     13.77173135
 C    -11.33444386     10.77332497     14.83487842
 C    -11.79336853      9.31537045     14.64684451
 H     -0.36333333      0.00000000      1.02766186
 H     -0.36333333     -0.88998127     -0.51383093
 H     -0.36333333      0.88998127     -0.51383093
 H      1.88274777      0.84318370      0.59972095
 H      1.88274777      0.99407424      0.28712430
 H      3.25086594      0.67036878      1.11306179
 H      2.99896485      1.34342785      0.82582463
 H      3.91936200      1.96509069      1.42060545
 H      4.05706820      1.33967200      2.02217426
 H      5.18615666      1.89963900      2.28756322
 H      5.29070738      2.04536881      1.99870679
 H      6.04840455      3.28388925      1.82695963
 H      6.03605028      2.40919395      2.98306097
 H      6.75982728      2.72602583      3.77835340
 H      6.87256761      2.73759167      3.70846784
 H      7.48707717      2.55300108      4.59015279
 H      7.83975895      1.84933341      3.37007481
 H      8.34018881      1.83117818      5.29791993
 H      6.69020964      1.71348012      5.08219420
 H      6.30589821      1.94949279      6.18543958
 H      6.99811969      1.13221483      6.48693100
 H      5.55362065      1.43739986      6.96178367
 H      5.74037938      0.63056398      6.06706632
 H      4.41088483      1.24524756      7.04921581
 H      4.73775715      1.89805944      5.96071173
 H      3.30621539      1.94940813      6.89752766
 H      3.22535814      1.93471051      6.65000045
 H      2.26079970      2.97288755      6.29823022
 H      2.85976127      1.89768239      4.83276449
 H      2.81434987      3.99599037      4.83956084
 H      2.53491919      4.20889244      6.34252632
 H      2.89057281      4.52936477      7.34018807
 H      1.26278398      3.82607372      7.49495208
 H      0.49613738      5.83818361      7.44230146
 H      1.62011852      6.23422441      5.81902091
 H      1.59045589      6.69744833      8.35369097
 H      0.10287314      5.72577965      8.45963527
 H     -1.35607094      6.77849694      7.27716140
 H     -0.22153821      8.08340692      6.85489121
 H     -0.20133476      8.55645046      9.37802586
 H     -1.33827893      7.20365102      9.59146976
 H     -2.98630950      8.50484629      8.21922787
 H     -1.78750114      9.81015250      8.05399813
 H     -2.04366484      9.97700515     10.62337198
 H     -3.21937486      8.64362846     10.53348752
 H     -4.66494531     10.18272777      9.15704223
 H     -3.41970174     11.44554395      9.30847014
 H     -3.25629105     11.91950836     11.36729114
 H     -4.51934196     10.76026563     11.84596155
 H     -6.23766328     11.87468458     10.62603818
 H     -5.08478394     13.11147447     10.06972291
 H     -4.56911261     13.97797328     12.16348111
 H     -5.67516612     12.83792727     12.96672913
 H     -7.62990958     13.64443844     11.95045951
 H     -6.70921026     14.87224657     11.04875744
 H     -5.68145905     15.85582577     12.98648325
 H     -6.60637407     15.19740149     13.91735755
 H     -5.73061501     16.86588336     11.52013512
 H     -4.63843403     16.00973898     12.63477594
 H     -5.57935452     17.59108061     14.41536026
 H     -6.60497226     18.32325014     13.15825935
 H     -3.97895518     18.81895900     12.42515577
 H     -3.57400832     17.92098445     13.90769629
 H     -4.83263768     19.95605206     15.00315382
 H     -5.07836805     20.58400454     13.35586547
 H     -2.80969825     20.88452502     12.86267454
 H     -2.33240844     20.28934043     14.47084630
 H     -3.74543307     22.52772020     15.04492109
 H     -3.96347106     22.68647777     13.28551149
 H     -1.23497906     22.91034910     13.83214572
 H     -1.74137998     22.66832638     15.52130225
 H     -2.94181669     24.99887936     14.88898057
 H     -2.20733991     24.80103857     13.27973555
 H     -0.01548130     25.01829458     14.75881802
 H     -1.09489050     25.17668443     16.16525149
 H     -1.48055421     27.40845155     15.60321048
 H     -0.80078143     27.02170618     13.72728667
 H      0.26927392     27.49107772     16.45119124
 H     -1.48071575     27.58090247     16.76381614
 H     -1.51273482     29.38777875     14.87487095
 H     -0.26545286     29.59823107     14.98595173
 H     -3.05518875     29.28596389     16.09268128
 H     -2.55435530     29.08904985     14.39602062
 H     -1.94712979     31.60268442     14.60410859
 H     -2.50940999     31.53442817     16.29154710
 H     -4.75729588     30.99787555     14.87909779
 H     -3.73351629     31.16268706     13.43238456
 H     -3.85513692     33.62208903     14.82651873
 H     -4.88654983     32.69497675     15.94227716
 H     -6.59402941     32.25248335     14.41237488
 H     -5.84115594     32.75351080     13.16618459
 H     -5.41260635     32.26203304     12.28323934
 H     -5.13331802     34.01359401     12.43256740
 H     -7.40632157     34.61347521     12.38056809
 H     -7.89739918     32.91011988     12.22028680
 H     -6.40288522     33.61002265      9.95909476
 H     -6.28818845     35.19557173     10.75981033
 H     -8.38463022     35.86483179     10.83720779
 H     -8.97697863     34.39754753     10.02205938
 H     -8.05487121     34.45328885      8.05794411
 H     -7.21791035     35.98931815      8.38715100
 H     -9.49964981     37.03622707      8.61037545
 H    -10.23231491     35.44948714      8.27314420
 H     -8.70267757     36.43563107      6.06174012
 H     -8.41661335     37.79461948      7.17510638
 H    -10.48149243     38.59534586      7.44395350
 H    -11.18422043     37.37686619      6.35319811
 H     -9.86679007     38.29746025      4.48378828
 H     -9.16631503     39.51424648      5.57787815
 H    -11.35648997     40.50684831      5.96973754
 H    -12.10485234     39.31224740      4.88293071
 H    -10.66476423     40.39113275      3.06367083
 H    -10.02136358     41.50377965      4.29505994
 H    -12.51325263     42.27524508      4.39888852
 H    -12.86785597     41.05737032      3.15016749
 H    -11.38275160     42.29951479      1.59006756
 H    -11.05521486     43.49359739      2.86879861
 H    -13.42096508     44.14455557      2.89498949
 H    -13.76636815     42.95568296      1.61610508
 H    -12.26727123     44.24158219      0.09925111
 H    -11.95372564     45.40178231      1.41222160
 H    -14.31506126     46.05287139      1.44038081
 H    -14.65448903     44.90022362      0.12719439
 H    -13.16338794     46.18742899     -1.36469625
 H    -12.83320778     47.33164734     -0.04181603
 H    -15.33021319     47.87048335     -0.17641399
 H    -15.47175650     46.67811370     -1.49037242
 H    -14.05491764     47.82867389     -2.98222667
 H    -13.79261447     49.12933072     -1.79573794
 H    -16.06653444     49.80523974     -1.75230617
 H    -16.49874319     48.55411348     -2.94232522
 H    -14.79791696     50.15527297     -4.31967328
 H    -14.68796886     51.10821019     -2.82031051
 H    -17.15934458     51.57704923     -3.12716034
 H    -17.12895691     50.59280111     -4.60992765
 H    -15.76892473     51.66703776     -5.93275320
 H    -15.47387689     52.95477659     -4.73988181
 H    -17.79062492     53.64498201     -4.76743093
 H    -18.17189518     52.38344893     -5.96385641
 H    -16.78589219     53.26316552     -7.65612883
 H    -16.28593041     54.60945266     -6.60455105
 H    -18.30255121     55.62614692     -6.32219868
 H    -19.12715398     54.42940588     -7.34986975
 H    -17.26281416     55.80973409     -8.92049248
 H    -16.90622568     56.66835290     -7.40263707
 H    -19.26352628     57.53555650     -7.46888837
 H    -19.52699956     56.63965610     -8.98421373
 H    -17.86311327     57.92677733    -10.16309511
 H    -17.53066213     58.87971403     -8.69692509
 H    -19.54522879     59.86849455     -8.40622483
 H    -20.22295600     59.07801704     -9.84986529
 H    -18.01328706     60.90238842    -10.34900784
 H    -18.10196266     61.05251146     -8.57760546
 H    -20.34914945     62.00148119     -8.72922262
 H    -20.29503714     61.86693549    -10.50326771
 H    -18.32975018     63.56632244    -10.21588413
 H    -18.61785110     63.49063482     -8.46102348
 H    -20.86505056     64.44547983     -8.79003467
 H    -20.57591448     64.52069788    -10.54474525
 H    -18.78136686     66.05461921    -10.38692540
 H    -18.93045891     66.10591704     -8.61395987
 H    -21.29213944     67.10973050     -9.32984956
 H    -20.76238718     66.88642686    -11.01441618
 H    -18.93838214     68.52211524    -10.61191959
 H    -19.49673252     68.71865949     -8.93326481
 H    -21.64239659     69.63315735     -9.97618678
 H    -20.92547411     69.36440835    -11.58306662
 H    -19.16216276     70.80670688    -11.43284656
 H    -19.62391711     71.30498357     -9.78762016
 H    -21.52801833     72.22305835     -9.92172230
 H    -21.62999085     72.00441957    -11.68526004
 H    -19.47549795     73.66783057    -11.27161638
 H    -19.87020946     73.49013774     -9.54508959
 H    -22.05591851     74.60484842    -10.00612092
 H    -21.60277823     74.75113785    -11.72120983
 H    -19.72608713     76.26987184    -10.61623656
 H    -20.46992883     75.87972737     -9.04692031
 H    -22.41244311     77.25271371    -10.38730339
 H    -21.23108558     77.34541973    -11.71548510
 H    -19.77625329     78.69780824    -10.17401615
 H    -21.01771939     78.54714831     -8.90739459
 H    -22.74513765     79.60094866     -9.80903447
 H    -21.84244442     79.99200366    -11.29243852
 H    -20.27456196     81.35682112     -9.95292110
 H    -21.18943711     80.95456311     -8.48001288
 H    -22.98402997     82.33912275     -9.97513963
 H    -21.68388336     82.45868069    -11.18492943
 H    -20.54302639     83.81740724     -9.24455836
 H    -22.00570850     83.50862611     -8.27838969
 H    -23.23251380     84.87387137    -10.04124338
 H    -21.68615825     85.09028714    -10.89576978
 H    -21.07588163     86.35052574     -8.67589842
 H    -22.71395178     85.96194054     -8.09797593
 H    -23.39158838     87.47587872    -10.12296994
 H    -21.65493973     87.67416404    -10.45912626
 H    -21.34872672     88.79774293     -8.29683097
 H    -23.08368306     88.60632048     -7.94818989
 H    -23.62408955     90.04224846     -9.87852872
 H    -21.88796891     90.23047664    -10.22308919
 H    -22.03105889     91.38105254     -7.82632196
 H    -23.76882975     90.99701750     -7.85691969
 H    -24.28862982     92.33379024     -9.70606621
 H    -22.59571015     92.86136756     -9.86082994
 H    -22.92542519     93.90650944     -7.55526465
 H    -24.59825154     93.29837022     -7.56450389
 H    -25.06081199     94.75570560     -9.52625019
 H    -23.37830784     95.33472206     -9.47949134
 H    -23.83344603     96.30476672     -7.23360023
 H    -25.50668971     95.70474474     -7.32577335
 H    -25.72898387     97.29045965     -9.32348308
 H    -24.03122198     97.76535473     -9.07782909
 H    -24.96987877     98.64045394     -6.80378259
 H    -26.56858580     98.05136112     -7.31892545
 H    -27.01956382     99.24857280     -9.09154881
 H    -25.49128711    100.15464814     -8.98354668
 H    -25.76955509    101.18701633     -6.99859921
 H    -27.37599445    100.45858548     -6.75983627
 H    -28.19276040    101.65291433     -8.76483045
 H    -26.57991328    102.37189961     -8.98855126
 H    -25.89710367    103.51649482     -7.63730714
 H    -27.34642792    103.39356150     -6.61133771
 H    -28.73966691    104.41346905     -8.31268191
 H    -27.33371073    104.57077607     -9.39287096
 H    -26.22614374    106.07752331     -7.83501294
 H    -27.60673195    105.95719825     -6.71797904
 H    -29.04974460    106.99877975     -8.44310631
 H    -28.01983265    106.88662633     -9.55858688
 H    -27.91609397    106.29905798    -10.47862527
 H    -26.52345160    107.33063273    -10.07283290
 H    -28.42099713    109.17568169    -10.35458961
 H    -29.53357651    107.83311784    -10.71229912
 H    -27.97415639    107.48873019    -12.75611931
 H    -27.01464444    108.87210423    -12.17829601
 H    -28.90175082    110.38246824    -12.48228539
 H    -29.90267234    109.03222397    -13.06817204
 H    -28.72361868    108.49073412    -14.94153228
 H    -27.53140074    109.77893879    -14.64587745
 H    -28.84609398    111.60038407    -14.79674028
 H    -30.29361211    110.62133616    -15.13500517
 H    -28.86909141    110.00122853    -17.26484931
 H    -27.60012989    111.07131990    -16.62227031
 H    -29.85747526    112.62930494    -17.16778245
 H    -30.57215433    111.08023643    -17.67560844
 H    -28.55924904    111.38790450    -19.44179309
 H    -28.20025695    112.90634920    -18.58522026
 H    -30.01794154    114.10495559    -18.92131307
 H    -30.79155118    112.82490462    -19.88633344
 H    -28.87269769    113.15356568    -21.52352306
 H    -28.21965571    114.41268951    -20.44815800
 H    -29.87491779    115.92943207    -20.52126130
 H    -30.84161039    114.93520393    -21.63718356
 H    -29.19786101    115.04952452    -23.38001579
 H    -28.14373662    116.05391615    -22.35615746
 H    -29.57623839    117.86910133    -22.16130450
 H    -30.80353231    117.19582056    -22.76757918
 H    -31.82056504    116.65842612    -22.97084169
 H    -31.03964186    116.51404253    -24.56381973
 H    -31.53214306    119.23293615    -23.64391602
 H    -32.17687222    118.34218297    -22.24421971
 H    -33.91598110    117.31336558    -23.55904732
 H    -33.34679270    118.16278971    -25.01602017
 H    -33.95589389    120.30371587    -23.79052913
 H    -34.48476406    119.31843706    -22.40568666
 H    -36.24159420    118.38416777    -24.00591240
 H    -35.58078191    119.43715879    -25.27980552
 H    -36.60661536    121.05291547    -23.23148296
 H    -36.99739828    119.49617455    -22.46199411
 H    -38.33615737    118.43750247    -23.58206708
 H    -38.46562738    119.69353593    -24.83661246
 H    -39.41555625    121.07385166    -22.81778013
 H    -39.15531183    119.63010594    -21.80974352
 H    -40.85001168    118.46648514    -23.26989426
 H    -41.02875142    119.96598079    -24.21214241
 H    -41.90529553    120.89337325    -21.94078694
 H    -41.61883702    119.27850360    -21.24911926
 H    -43.31266034    118.34529260    -22.79388603
 H    -43.58227379    119.96921425    -23.47097813
 H    -44.37457909    120.37682352    -20.97107689
 H    -43.97117588    118.67023071    -20.66599743
 H    -45.99089724    118.57582268    -22.50697995
 H    -45.95276418    120.35350449    -22.42537146
 H    -46.62614481    120.21068611    -20.03783850
 H    -46.65148702    118.43517184    -20.16101931
 H    -48.45903054    118.54831657    -21.81188530
 H    -48.45255422    120.32506198    -21.70511219
 H    -48.91151951    121.06653659    -19.95337584
 H    -49.17699401    119.47480845    -19.20224904
 H    -51.06526551    119.19167754    -20.87560641
 H    -50.68176978    120.80251751    -21.52859360
 H    -51.41130202    121.44304328    -19.04700326
 H    -51.67329090    119.70227984    -18.78361929
 H    -53.40044736    119.51674769    -20.39243807
 H    -53.27710517    121.24953342    -20.78039035
 H    -53.95601550    121.81724527    -18.48428054
 H    -54.08078052    120.08555441    -18.09191958
 H    -55.90705011    119.92631335    -19.79934608
 H    -55.71883007    121.66410230    -20.13539583
 H    -56.37910233    122.26622354    -17.88740176
 H    -56.59327738    120.54901770    -17.47074866
 H    -58.32862827    120.15797659    -19.01162004
 H    -58.27507549    121.84837356    -19.56655862
 H    -58.89073689    122.79601806    -17.51122891
 H    -59.01031188    121.18954363    -16.75412366
 H    -60.90030950    121.56720575    -18.88450781
 H    -60.10513138    123.15704161    -18.97605222
 H    -61.17539727    123.27939811    -16.53615777
 H    -61.79938354    121.64033012    -16.84007208
 H    -63.17339286    122.50543707    -18.69158029
 H    -62.55002980    124.14488973    -18.38846292
 H    -63.53363972    124.21104416    -16.17889627
 H    -64.19428789    122.57365317    -16.40419915
 H    -65.45401165    124.04311342    -18.31585860
 H    -64.50471021    125.41460129    -17.69447751
 H    -65.62869964    125.24392206    -15.52346014
 H    -66.58987723    123.87100595    -16.12304804
 H    -67.65621790    125.27723705    -17.80296705
 H    -66.71886077    126.68129760    -17.23883741
 H    -67.73248129    126.64189552    -15.05987598
 H    -68.72270484    125.23588663    -15.51907419
 H    -69.99078980    125.77831167    -17.07882395
 H    -69.40357105    127.45795707    -17.12606941
 H    -70.39617080    127.50371653    -14.71119424
 H    -70.86383948    125.80275697    -14.94844777
 H    -72.37307939    126.62368358    -16.80012552
 H    -71.82608405    128.28517843    -16.47073577
 H    -72.84040741    128.09808839    -14.20093342
 H    -73.36171057    126.44008457    -14.58503370
 H    -74.78370695    127.67643705    -16.39119998
 H    -74.08499080    129.20119592    -15.79523623
 H    -75.34007949    128.53384360    -13.61182619
 H    -75.89518566    127.07050244    -14.45962125
 H    -77.14235069    128.27312866    -16.08905612
 H    -76.67630265    129.82413198    -15.35050715
 H    -78.01718001    128.86050769    -13.32627244
 H    -78.32050681    127.40910850    -14.31100585
 H    -79.59479253    128.96931773    -15.87071159
 H    -79.20056762    130.31902975    -14.77932218
 H    -80.62319008    128.98190141    -13.08164782
 H    -80.87295262    127.75497915    -14.34677513
 H    -81.96494919    128.82551053    -15.90690854
 H    -81.98698185    130.34498214    -14.98009289
 H    -83.14095217    129.86001004    -13.19421169
 H    -83.41635332    128.17971755    -13.71290045
 H    -84.67050547    128.91979155    -15.66254761
 H    -84.42659300    130.61849695    -15.19013537
 H    -85.78214167    130.03084564    -13.11298083
 H    -85.92959962    128.36712806    -13.72825852
 H    -87.09582173    128.74424864    -15.62545260
 H    -87.15822316    130.49778554    -15.32631876
 H    -88.28485762    130.69840773    -13.48226214
 H    -88.52418747    128.94181215    -13.32301435
 H    -89.82660025    129.05372282    -15.47782691
 H    -89.52462485    130.80680567    -15.53929270
 H    -90.95484515    130.69631283    -13.32039460
 H    -91.04746636    128.93681270    -13.57307478
 H    -92.27293426    129.22217271    -15.64886120
 H    -92.21756584    130.99077221    -15.45584092
 H    -93.61839083    130.53988574    -13.34065693
 H    -93.54157883    128.80357601    -13.72483806
 H    -94.63410234    128.75754494    -15.68710619
 H    -94.92441790    130.51338171    -15.65515615
 H    -96.26040432    130.43727284    -13.68997548
 H    -96.06709733    128.67092156    -13.58556177
 H    -97.29881287    128.59579187    -15.81335748
 H    -97.40626650    130.37198058    -15.77006709
 H    -98.74276441    130.43365934    -13.81190827
 H    -98.73974612    128.65663220    -13.70977060
 H    -99.88771780    128.37444629    -15.78252251
 H    -99.96677798    130.13746474    -16.01443215
 H   -101.42949713    129.39950853    -13.71077324
 H   -100.89025630    127.76114689    -14.15038344
 H   -102.32311647    128.20949982    -16.27425962
 H   -102.70228145    129.81232605    -15.59939024
 H   -103.84385867    128.53423219    -13.71381773
 H   -103.38229112    127.01439124    -14.51712687
 H   -105.17866316    128.61062801    -16.09065795
 H   -105.03912604    129.70336525    -14.69254444
 H   -105.85725983    128.61401356    -13.02666352
 H   -106.24269816    127.18693610    -14.01820469
 H   -107.77409166    128.22241691    -15.42397093
 H   -107.57126890    129.77985996    -14.58641453
 H   -108.48378353    128.69310433    -12.52618581
 H   -108.65661511    127.16815453    -13.42780881
 H   -110.31260020    128.37728476    -14.89584190
 H   -110.05915523    129.84772986    -13.92536596
 H   -110.97554511    128.67191154    -11.95024978
 H   -111.22002228    127.21210183    -12.93891211
 H   -112.72949305    128.00941434    -14.43253529
 H   -112.73890730    129.61854674    -13.67169959
 H   -113.70249524    127.56297082    -11.91884533
 H   -113.34516717    126.53350890    -13.32625126
 H   -114.71754555    127.29159774    -14.86590611
 H   -115.41152811    128.51443116    -13.77442395
 H   -116.32521156    127.14147428    -12.20886759
 H   -115.77699233    125.68224272    -13.06814962
 H   -116.83153456    125.76938294    -14.97821295
 H   -117.66494065    127.28456383    -14.55639802
 H   -118.39348338    125.12698998    -12.82207885
 H   -117.24189654    124.23276680    -13.84309760
 H   -118.61751705    124.55320279    -15.81498163
 H   -119.81279967    125.45617059    -14.85362047
 H   -120.22474735    123.39661153    -13.52393711
 H   -119.02087990    122.53166229    -14.50924551
 H   -120.30705175    122.79424597    -16.52645057
 H   -121.57306433    123.66996560    -15.63280973
 H   -122.30121161    122.14706381    -14.20768224
 H   -121.17457391    120.91113462    -14.81713542
 H   -122.23662114    120.96027820    -17.01514170
 H   -123.38270585    122.19652901    -16.44379203
 H   -124.15642733    120.33708978    -14.82832279
 H   -122.92678774    119.27352121    -15.55294340
 H   -123.45869600    119.02726412    -17.59849766
 H   -124.91020970    120.04741332    -17.45472608
 H   -125.88337279    118.45694272    -15.85330205
 H   -124.43610735    117.42986632    -15.99042787
 H   -124.52017625    116.84345130    -18.14824323
 H   -126.01677944    117.76682723    -18.42360200
 H   -127.23218925    116.34925800    -16.84791460
 H   -125.75528807    115.40220413    -16.54771709
 H   -125.76196499    114.69249154    -18.91973077
 H   -127.23854214    115.64744024    -19.19551978
 H   -128.10796336    113.83746580    -17.42324774
 H   -126.67670465    113.36608628    -17.14435024
 H   -125.48139435    113.02415392    -16.95741082
 H   -125.53065404    112.51156010    -18.66125581
 H   -127.39477167    110.91984937    -17.59312295
 H   -127.03533167    111.71823004    -16.04339463
 H   -124.92956316    111.16957907    -15.68569730
 H   -124.82987195    110.21792450    -17.18659100
 H   -126.60480858    108.72528370    -16.14300274
 H   -126.59316673    109.77743818    -14.70734885
 H   -124.13245451    108.93939071    -14.52749314
 H   -124.42400054    107.98046045    -15.99845213
 H   -126.05049447    106.58895430    -15.18836349
 H   -125.98924545    107.34774255    -13.57940245
 H   -123.81271193    106.79394469    -13.05377865
 H   -123.34958864    106.70437259    -13.97843805
 H   -122.65324679    106.95960934    -14.97381705
 H   -123.42198299    105.50504235    -15.65318896
 H   -122.48202930    104.08890635    -13.93246258
 H   -121.67680562    105.49262731    -13.19121434
 H   -120.37009066    105.67478577    -15.35859952
 H   -121.25755283    104.25947942    -15.97307936
 H   -120.05007750    103.06550236    -13.99619909
 H   -119.29972893    104.63018818    -13.59996430
 H   -118.21897247    104.32578601    -15.95195417
 H   -119.10456925    102.78739529    -16.08363189
 H   -117.48368079    102.30680938    -13.99655858
 H   -116.87967373    103.96471921    -14.23060369
 H   -115.97682325    104.07541149    -16.12010496
 H   -116.29315980    102.36469745    -16.49647626
 H   -114.67962612    102.10647111    -14.39379439
 H   -114.62551245    103.88491575    -14.34406474
 H   -113.52516776    103.74080643    -16.62899578
 H   -113.65094827    101.96759091    -16.53870389
 H   -112.07135134    102.21308208    -14.52210458
 H   -112.08907125    103.97294444    -14.78825705
 H   -111.01835029    103.58736347    -17.00367699
 H   -111.02562001    101.83549748    -16.68874946
 H   -109.60582970    101.90121256    -14.83411523
 H   -109.44394917    103.66938437    -14.95913456
 H   -108.36638846    103.28886166    -17.20271513
 H   -107.67257479    101.87205876    -15.94162196
 H   -107.15639534    101.42628411    -15.07664107
 H   -106.84092840    103.17561608    -15.16929598
 H   -105.83022780    103.37941371    -17.12509715
 H   -105.92057063    101.63210698    -17.45224241
 H   -104.96527910    100.47461411    -16.22001889
 H   -104.34225717    101.81785384    -15.23218419
 H   -103.07720871    102.72957416    -17.07106857
 H   -103.64485753    101.42252990    -18.13768789
 H   -102.34078666     99.92561009    -16.45597971
 H   -101.91981843    101.40817400    -15.56544241
 H   -100.71247133    102.52909642    -17.03948297
 H   -100.86819036    101.25160116    -18.26912686
 H    -99.49285030    100.13122127    -16.14297161
 H    -99.68744199    101.73294172    -15.39137841
 H    -98.27751619    102.64941825    -17.26403510
 H    -98.14596025    101.00668191    -17.93662486
 H    -97.05122755     99.96106205    -16.27418858
 H    -96.97443730    101.44191568    -15.28958590
 H    -95.76970536    102.80845965    -16.50194690
 H    -95.54719751    101.61009671    -17.79912968
 H    -94.31749877    100.23293122    -16.03664338
 H    -94.63270699    101.53192374    -14.86125881
 H    -93.07281896    102.77823409    -16.66416805
 H    -93.04577672    101.22801376    -17.53844050
 H    -91.86441562    100.30491003    -15.48022022
 H    -91.97417845    101.91995080    -14.74004316
 H    -90.53861824    102.83004002    -16.52623303
 H    -90.43191144    101.21314461    -17.26279908
 H    -89.38538993    100.08919749    -15.60472930
 H    -89.30348733    101.53820059    -14.57422038
 H    -87.81361768    102.42651668    -16.51855909
 H    -88.07217682    100.86736122    -17.33736804
 H    -87.07587898     99.48539312    -15.83120919
 H    -86.64583669    100.84399952    -14.76466386
 H    -85.28567001    102.04688177    -15.99677856
 H    -85.39729413    100.92707524    -17.37585073
 H    -84.27442051     99.37383500    -15.48929811
 H    -84.37523137    100.79608648    -14.42379139
 H    -82.75368609    101.85469770    -16.12495666
 H    -82.80579796    100.33003142    -17.04198652
 H    -81.92088508     98.90060638    -15.56757627
 H    -81.68468560    100.17728519    -14.34996890
 H    -80.33127668    101.58263458    -15.14562397
 H    -80.12729626    100.68851844    -16.67114519
 H    -79.26479038     98.80287918    -16.14523397
 H    -79.21155567     99.19317117    -14.40940423
 H    -77.55806267    100.95765288    -15.90773419
 H    -78.15545795     99.99278195    -17.27901448
 H    -77.20073914     97.96701173    -16.58246551
 H    -76.50203837     98.73951694    -15.13909460
 H    -75.10934395    100.19656241    -16.47473076
 H    -75.75548338     99.47585345    -17.96850086
 H    -74.82025596     97.29898130    -17.37689995
 H    -74.15705347     97.98257368    -15.87319433
 H    -72.73434898     99.46914357    -17.32928431
 H    -73.46643677     98.71755897    -18.76714199
 H    -72.22412109     96.61963874    -17.67185568
 H    -71.69774115     97.73617927    -16.38946415
 H    -70.51086960     98.72273607    -18.63089612
 H    -71.30915373     97.37765550    -19.48046507
 H    -69.95836881     95.79106976    -18.11963019
 H    -69.18873984     97.16929892    -17.29718123
 H    -68.22762489     97.86597921    -19.48410477
 H    -69.01799206     96.47391040    -20.26239188
 H    -68.18703784     94.72326567    -19.40280666
 H    -67.09158223     95.63554885    -18.33698160
 H    -65.86308638     96.63477350    -20.07754616
 H    -66.84775273     95.80555413    -21.30681183
 H    -65.90769641     93.64964919    -20.32816674
 H    -64.98731648     94.62711442    -19.15952258
 H    -63.69347851     95.68525374    -20.89843114
 H    -64.55877879     94.74943509    -22.14091476
 H    -63.41209031     92.75172215    -20.87728179
 H    -62.69544337     93.95992396    -19.78415224
 H    -61.63735458     94.52169067    -22.25195967
 H    -62.62748996     93.15611038    -22.82036890
 H    -60.93809956     91.93798649    -21.12349523
 H    -60.23997622     93.55090384    -20.84173628
 H    -59.90242321     92.70478990    -23.54862808
 H    -60.77618828     91.26871859    -22.96339269
 H    -59.26093543     90.52114121    -21.43282670
 H    -58.13730584     91.85351855    -21.79406598
 H    -57.80879164     91.15710606    -24.06034358
 H    -58.91297049     89.78062452    -23.82720352
 H    -57.49213924     88.77029458    -22.16681643
 H    -56.32073433     90.10092252    -22.32652386
 H    -55.82119562     89.81394802    -24.57963197
 H    -56.77624187     88.41538943    -24.68684097
 H    -54.46765061     90.24452139    -23.61515174
 H    -55.61329409     90.86528069    -24.82776280
 H    -54.05640205     88.67176366    -25.81515300
 H    -53.52045773     88.52803036    -24.29468347
 H    -53.24171927     88.32383845    -23.16582591
 H    -52.51542430     89.93569193    -23.37244304
 H    -51.10297151     90.04458304    -24.73482325
 H    -51.19180664     88.31689647    -25.15371953
 H    -50.49229264     87.74657829    -22.85038919
 H    -50.41001722     89.47927623    -22.45132119
 H    -48.68187396     89.95137687    -24.00427067
 H    -48.62958748     88.24849695    -24.51976343
 H    -47.92173242     87.68687976    -22.16957344
 H    -48.00785684     89.41614623    -21.75667309
 H    -46.72401336     90.54669794    -22.77899959
 H    -46.02872455     89.17393545    -23.67362985
 H    -45.19400511     88.12052151    -21.69056584
 H    -45.84129606     89.43872407    -20.68477108
 H    -44.05066181     90.75617670    -22.17315783
 H    -43.70534415     89.19180960    -22.94890133
 H    -42.90510198     88.24322203    -20.86528403
 H    -43.22410664     89.77957555    -20.02497423
 H    -41.67258327     91.03698458    -21.28071411
 H    -41.21493694     89.60196339    -22.22915530
 H    -40.41726541     88.13305837    -21.26738696
 H    -40.47066743     88.96015472    -19.69216427
 H    -38.90090471     90.66600518    -20.71716791
 H    -38.94057724     89.74085111    -22.23729379
 H    -37.79804525     88.05860019    -20.38262855
 H    -38.03846836     89.40581504    -19.24443897
 H    -36.74653694     90.98754623    -20.11218613
 H    -36.21861316     89.94070220    -21.45146979
 H    -35.17728590     88.43699010    -19.73791782
 H    -35.74366732     89.53595123    -18.45738544
 H    -34.56767008     91.40071050    -19.02616344
 H    -33.80142247     90.57967285    -20.40711545
 H    -32.79711381     89.08294067    -18.52255738
 H    -33.69141827     90.08005226    -17.35027129
 H    -32.39225523     92.05456008    -17.99735805
 H    -31.48418955     91.07747349    -19.17591020
 H    -30.65098269     89.77438527    -17.14503567
 H    -31.62514106     90.84568531    -16.10985532
 H    -30.17235861     92.73947573    -16.90509339
 H    -29.26056852     91.58698349    -17.90941761
 H    -28.47911824     90.35069030    -16.00107686
 H    -29.35205553     91.44667350    -14.90332098
 H    -27.65857695     93.17251391    -15.96122337
 H    -27.02064692     91.82108628    -16.92815423
 H    -26.36927371     90.86573854    -14.60743155
 H    -27.08451235     92.32230457    -13.87591547
 H    -25.25970004     93.59486672    -15.13064282
 H    -24.67855088     92.04110941    -15.77591065
 H    -24.21039234     91.53294744    -13.27310983
 H    -24.85132803     93.14894836    -12.89099838
 H    -23.00225526     94.16449818    -14.18071815
 H    -22.37574952     92.54063609    -14.55331597
 H    -22.07874679     92.47403048    -11.94725364
 H    -22.75668544     94.11933315    -11.90669534
 H    -20.80938418     94.91012223    -13.22638306
 H    -20.16109948     93.25255386    -13.24784678
 H    -20.03567255     93.60447801    -10.67757034
 H    -20.70771620     95.23288150    -10.93237624
 H    -18.64728401     95.78607909    -12.23837421
 H    -18.03941349     94.13912886    -11.94458003
 H    -17.83901572     94.14545226     -9.71281178
 H    -18.40900638     95.82699686     -9.58717316
 H    -16.11977885     96.06691520    -11.01384322
 H    -15.99558895     94.29712847    -10.86997361
 H    -15.79316840     94.27121578     -8.52740635
 H    -15.89369840     96.04687084     -8.45522945
 H    -13.66044888     95.81659583     -9.83655417
 H    -13.87338714     94.05296498     -9.72461600
 H    -13.64396838     94.20628600     -7.26560846
 H    -13.43365777     95.96866104     -7.40003444
 H    -11.37113418     95.65675752     -8.68207458
 H    -11.55643375     93.89051864     -8.56236254
 H    -11.29104902     94.29472310     -6.03289904
 H    -11.13408678     96.03330720     -6.38068466
 H     -9.05662412     95.53909689     -7.65390924
 H     -9.25299248     93.80927381     -7.28320959
 H     -9.07404813     93.82495677     -5.04926180
 H     -8.82896288     95.58733785     -5.00222136
 H     -6.67715545     94.90702599     -6.36544101
 H     -7.22918678     93.22025621     -6.23003129
 H     -6.82203726     93.81065916     -3.66263954
 H     -6.33684727     95.43066696     -4.21800613
 H     -4.43078268     94.31899825     -5.42466282
 H     -4.99753767     92.74361585     -4.82032373
 H     -4.65710088     93.25701539     -2.54128766
 H     -4.05470534     94.88001846     -2.95510804
 H     -2.16095542     93.91352384     -4.16145647
 H     -2.73422656     92.27567591     -3.76512200
 H     -2.49712929     92.50324397     -1.43837727
 H     -1.89369953     94.16813724     -1.61801462
 H      0.02241471     93.69194168     -2.80039893
 H     -0.32188492     91.94580957     -2.77306618
 H     -0.14157553     91.94494457     -0.31822714
 H      0.20305097     93.69106156     -0.34220033
 H      2.27972446     93.23197054     -1.61264730
 H      1.91077682     91.49108080     -1.57460518
 H      1.99076795     91.12398645      0.65824381
 H      2.38830936     92.82562072      0.99687086
 H      4.51795732     92.45308190     -0.29725864
 H      4.02152149     90.76721147     -0.57949795
 H      4.12473424     90.38187653      1.87556193
 H      4.61815180     92.07593379      2.11003108
 H      6.66084889     91.79557051      0.88693420
 H      6.27858838     90.08291408      0.58868676
 H      6.36968695     89.65743171      3.02136339
 H      7.65865641     91.26034638      2.79416803
 H      8.80460427     91.32806523      2.14128984
 H      8.59940414     89.60088136      1.76314243
 H      8.53609840     88.39723934      3.29887287
 H      8.76100732     89.69671897      4.49429553
 H     11.00368645     89.39455835      2.72047452
 H      9.97278879     88.11420780      2.03767207
 H     10.14688304     86.92653022      4.23441539
 H     11.17117177     88.24709994      4.84694692
 H     12.83725876     87.58166408      3.06439916
 H     11.72147487     86.29634562      2.54358305
 H     11.86282384     85.13894626      4.64097513
 H     12.98996052     86.36421315      5.27069779
 H     14.73279490     86.17884442      3.95107937
 H     13.99060769     84.86786910      3.00304533
 H     13.72793820     83.25062926      4.43500376
 H     14.44002689     84.18813314      5.77002542
 H     16.51397368     83.98432542      4.07240982
 H     15.40908503     83.07455356      3.01420243
 H     15.12072230     81.29606726      4.58272184
 H     16.21298508     82.09713446      5.73750321
 H     18.06351362     81.86118346      4.11113718
 H     16.95340321     81.06282947      2.97159674
 H     16.55963063     79.20649255      4.43320384
 H     17.65215947     79.90104116      5.65478054
 H     19.16015635     79.34026240      3.37095352
 H     17.60571557     78.78110381      2.70813969
 H     17.71942163     77.02091025      4.57484829
 H     19.26814685     77.73417568      5.08569982
 H     20.16217239     77.03952020      2.82356493
 H     18.56214898     76.36512736      2.43191962
 H     18.95279276     74.75261647      4.34833297
 H     20.53179270     75.52363052      4.63216954
 H     21.09369748     74.65747025      2.27565380
 H     19.45638596     73.96381234      2.19617826
 H     19.49824748     72.47329586      3.83852456
 H     21.18442031     72.85785421      4.25947910
 H     21.72787995     72.00817982      1.90471071
 H     19.99205316     71.69392489      1.66719049
 H     20.84862080     70.04102886      3.73204534
 H     22.43049211     70.80816102      3.45373242
 H     21.59762608     69.33625294      1.16913625
 H     20.17155135     69.00166483      2.18038713
 H     20.58908563     67.97670685      3.83730750
 H     22.32756726     67.85204820      3.47618633
 H     21.46323062     66.50219878      1.42239711
 H     19.80999841     66.78758326      2.01707820
 H     20.42039308     65.45809419      4.05405217
 H     22.05343687     65.22230489      3.38634111
 H     20.92562239     63.95720099      1.50226790
 H     19.35383739     64.26873340      2.27732026
 H     19.85044677     63.04054417      4.23801414
 H     21.46552400     62.62569911      3.61536193
 H     20.31689299     61.38303910      1.76171055
 H     18.74389168     61.84697745      2.45358825
 H     19.27504176     60.55804231      4.49157172
 H     20.84558219     60.10064942      3.78981596
 H     19.49086121     58.90044774      2.00268465
 H     18.00427826     59.43979520      2.81965596
 H     18.92665570     57.95902339      4.75366828
 H     20.32279450     57.58922838      3.71332469
 H     18.71613405     56.48926250      2.12865775
 H     17.37996590     56.90335202      3.22931719
 H     18.41624027     55.44841229      4.95690812
 H     19.73483825     55.06083107      3.82582597
 H     17.37424435     54.08814594      2.71538306
 H     16.61828376     54.76161934      4.17935841
 H     18.14155545     52.95178212      5.32365393
 H     18.70946105     52.51614062      3.69394034
 H     16.53180909     51.80289722      2.98054698
 H     15.85076043     52.19932720      4.57656786
 H     17.34357680     50.45041772      5.55732777
 H     17.98196242     50.10683609      3.93169493
 H     16.09576783     49.37367144      2.91749071
 H     15.12997225     49.58829902      4.39716654
 H     16.20697382     48.08199003      5.73928771
 H     17.33838750     47.63443555      4.44010922
 H     15.11276682     46.82874849      3.30497046
 H     14.25892816     47.39250218      4.76147586
 H     15.44297514     45.75771374      6.13911229
 H     16.31485810     45.16757777      4.70390280
 H     14.43462823     44.39992522      3.55271439
 H     13.35657523     44.90556283      4.87574085
 H     15.09041664     42.92245118      5.84006244
 H     15.84705371     43.01727549      4.36415478
 H     16.57117496     43.23322932      3.51805873
 H     15.10199530     42.64362512      2.70433601
 H     14.88654154     40.59883062      3.50072409
 H     16.35072284     40.73940543      4.50306062
 H     17.55420036     40.99215282      2.23681854
 H     15.97067331     40.83290584      1.43973061
 H     15.19565881     38.93961329      1.86277448
 H     16.60761650     38.45202276      2.83070921
 H     18.26031354     38.48726716      1.40343129
 H     17.20947670     38.98364428      0.05524052
 H     15.97498285     38.46589928     -0.73774365
 H     15.92183163     36.94124252      0.17924239
 H     17.90269031     36.04439823     -0.35529310
 H     18.33279403     37.41932371     -1.40069128
 H     16.46545446     36.93255723     -2.89388025
 H     16.00068703     35.54751395     -1.87706513
 H     17.77135229     34.22143194     -2.05645172
 H     18.61401338     35.35171036     -3.14303335
 H     16.74186500     34.98293085     -4.78353239
 H     15.97747875     33.86927010     -3.62433437
 H     18.23222438     32.55404723     -4.11291018
 H     18.66229843     33.89148354     -5.20587272
 H     16.74192848     33.35585284     -6.64082261
 H     16.30148177     32.01524958     -5.55590038
 H     19.06752370     31.78402379     -6.40691804
 H     18.85234244     32.32280677     -7.21503173
 H     18.54797908     30.14993329     -5.40284154
 H     19.70022968     31.61509981     -5.42471921
 H     18.49106545     28.93916722     -6.60488488
 H     17.71441679     29.49893195     -5.10430267
 H     19.87059154     29.17477495     -3.91762773
 H     20.61393386     28.62086264     -5.43713094
 H     19.30817207     26.73848527     -5.74635921
 H     18.39780487     27.05382104     -4.24967568
 H     20.02634088     26.88294935     -2.71611535
 H     21.25714334     26.51902723     -3.94938444
 H     19.72057386     24.41290695     -4.29158373
 H     18.67808094     25.06601124     -3.00514292
 H     19.73032251     25.15207395     -1.22759160
 H     21.21438563     24.47100109     -1.93608512
 H     20.05612633     22.37473026     -2.43634697
 H     18.55659511     23.02747504     -1.73378234
 H     19.75005720     23.15805815      0.46339775
 H     21.21187224     22.50243575     -0.31218120
 H     20.34565630     20.44167826     -0.90135187
 H     18.76402712     20.83823553     -0.18758851
 H     19.40422424     21.07987182      1.98972160
 H     21.10092919     20.70679992      1.60206671
 H     20.33828171     18.42826092      0.89133142
 H     18.66639495     18.88058268      1.30177793
 H     19.73999902     19.05173247      3.70288722
 H     21.28351192     18.57846954      2.95331615
 H     19.39893659     16.59712921      2.21896906
 H     18.74897378     16.89606899      3.09610036
 H     21.53008091     16.11958393      2.14777462
 H     20.09310239     16.31324299      1.11537181
 H     19.11841232     14.36959129      2.44696641
 H     20.62563693     14.31345156      3.39215897
 H     22.11761483     13.79393950      1.81043289
 H     20.87198020     13.73830156      0.54017093
 H     19.62704435     11.99663237      1.37482947
 H     20.71623408     11.80501534      2.76953923
 H     22.25942422     11.25147491      0.56301437
 H     20.77934016     11.59129125     -0.36550202
 H     19.84292659      9.54184651      0.88819743
 H     21.41536542      9.39371768      1.70902665
 H     22.50715778      8.96188221     -0.45496733
 H     20.93573528      9.10955094     -1.27782329
 H     20.63206828      6.94272587      0.35218343
 H     22.30841023      7.26439705      0.85683378
 H     22.83145486      6.73633786     -1.62964680
 H     21.08803891      6.47467104     -1.87520321
 H     20.95838656      4.66275395     -0.32137381
 H     22.65923597      4.72942828     -0.03490240
 H     19.78875089      4.57256413     -0.96052067
 H     20.35577100      4.96233210      0.68107483
 H     21.18919867      2.37984433      0.19448758
 H     20.41513407      2.59933914     -1.39325065
 H     18.22976030      2.85423464     -0.23439920
 H     19.04585570      2.63094483      1.33161377
 H     19.41173070      0.26094690      0.00196230
 H     18.49877342      1.03275699     -1.31678136
 H     16.65085946      0.96572084      0.61429951
 H     17.89565409      0.20116600      1.63126013
 H     17.70061372     -1.67104256     -0.19355431
 H     16.47431435     -0.65742821     -0.99170371
 H     15.20681480     -1.03903133      1.27861071
 H     16.52857686     -2.03579135      1.77807042
 H     14.12419671     -0.79990925      0.28598726
 H     14.89434515     -0.04421519      1.70163713
 H     14.00365737     -2.25897730      2.83255962
 H     13.35924722     -2.71009809      1.23584667
 H     11.85202721     -0.79309738      1.24374514
 H     12.46556918     -0.30415932      2.84148495
 H     11.56778001     -2.44214269      3.76219448
 H     10.97842117     -2.87697399      2.13989840
 H      9.53454575     -1.43071759      1.58713028
 H      9.68636248     -0.53492626      3.11774331
 H      8.89917511     -2.42193337      4.40994159
 H      8.71663374     -3.38620986      2.92497824
 H      7.09321708     -2.06551631      1.92204413
 H      7.07858730     -0.94063970      3.30142996
 H      6.36585090     -2.32321585      4.93849035
 H      6.24637265     -3.70430664      3.82198694
 H      4.47289477     -2.34024057      2.61322238
 H      4.70941749     -1.04212189      3.80788199
 H      4.08144848     -2.03891880      5.69600021
 H      3.69998247     -3.56432528      4.86180275
 H      1.93242535     -2.30119677      3.59843345
 H      2.38715352     -0.82484517      4.48267035
 H      1.80123647     -1.61425748      6.60649112
 H      1.27855867     -3.17713349      5.93381499
 H     -0.62342513     -1.66720601      6.41989206
 H      0.26369272     -0.27569880      5.53164514
 H      0.09266861     -0.37682458      7.53800383
 H     -0.79843185     -1.91682178      7.51043681
 H     -1.05997514      1.06844650      6.54695507
 H      0.50199915      0.80846303      7.35991976
 H     -0.70855518      0.29927503      9.45940357
 H     -2.25763989      0.56413166      8.62366785
 H     -1.33616927      2.98511650      8.37602129
 H      0.12391502      2.44616136      9.23970404
 H     -1.74364815      2.10844862     11.12456464
 H     -2.91201115      2.70483286      9.92143522
 H     -2.02538172      4.83635026      9.68984919
 H     -0.74654064      4.49289979     10.87933392
 H     -2.17539673      4.14854443     12.69763106
 H     -3.60996025      4.46404651     11.69226913
 H     -2.57669388      6.82051129     11.45359145
 H     -1.23191606      6.27252022     12.48293350
 H     -2.45642753      5.86176601     14.39752654
 H     -3.96934156      6.36863392     13.60857616
 H     -3.52050719      8.52206127     13.16873398
 H     -1.90059765      8.41496168     13.89858973
 H     -3.41117676      7.91528499     16.02846631
 H     -4.64561096      9.00506601     14.78166277
 H     -5.11455632      9.77567747     14.11761461
 H     -3.71078044     10.55639800     14.88452752
 H     -4.40770455     10.36521758     17.07664169
 H     -5.91781048      9.55969617     16.58778382
 H     -6.78157059     11.36151252     15.37050907
 H     -5.35465546     12.35858669     15.74202350
 H     -5.75403130     12.36536016     18.08818105
 H     -7.21413625     11.36963152     17.87632103
 H     -8.32046452     13.07970947     16.58131277
 H     -6.90488518     14.14662797     16.74282660
 H     -7.34856556     14.13782282     19.22584555
 H     -8.74309238     13.06770406     18.94583223
 H    -10.00895104     14.50870658     17.67575126
 H     -8.77793710     15.78914594     17.79127777
 H     -9.29456765     15.70044353     20.31216978
 H    -10.48109737     14.41839513     19.97045970
 H    -11.39297364     16.68452374     18.67326449
 H    -10.17641549     17.29823603     18.76487177
 H     -9.14249034     17.73352265     18.44807567
 H     -8.99130759     17.82292255     20.17340338
 H     -8.55647426     17.50597306     21.13176397
 H     -8.68894336     19.34414984     20.54592800
 H     -7.96050646     19.99059343     19.90932110
 H     -7.40610621     18.95178352     19.51435345
 H     -7.09291755     18.12973884     18.74307078
 H     -6.48899706     17.41219747     20.25590953
 H     -4.98980192     19.44109930     20.44351714
 H     -5.67733920     20.05253426     18.91980245
 H     -5.19297650     18.68915518     17.39455166
 H     -4.29621914     17.61016241     18.48993630
 H     -2.64438421     19.21682399     19.03817562
 H     -3.41242230     20.42330288     17.97855642
 H     -2.51092068     18.23120970     16.44163177
 H     -1.98581064     17.60632613     18.02341767
 H     -0.43842560     19.67278170     18.01760298
 H     -1.11760014     20.10719062     16.43069482
 H     -0.40805559     18.28432425     15.24093331
 H      0.38985032     17.58215881     16.66872058
 H      1.53572430     20.09189720     15.87572239
 H      0.27198410     19.99444403     14.62603033
 H      1.02572615     19.02713464     13.13992232
 H      0.93070889     18.90926348     13.16383788
 H      0.04245723     19.23966925     12.60521086
 H     -0.21343298     17.63889072     13.39268567
 H      0.02915590     16.35784796     13.67874512
 H      1.30883561     16.39130362     12.44198838
 H     -0.44868497     16.89166191     10.74171504
 H     -1.68192897     16.84642734     12.02441911
 H     -1.25448572     14.83278666     13.01945475
 H     -0.72361560     14.31484752     12.01851333
 H     -2.40770164     15.72048079     13.81925535
 H     -0.84314151     14.89922694     14.03363907
 H     -0.79087368     13.00347861     13.70359569
 H     -2.52393619     12.88765290     13.31456433
 H     -3.35757018     13.54100042     15.35836152
 H     -1.56116830     13.45255566     16.04416609
 H     -0.57348661     13.75244485     16.41647914
 H     -0.68987598     12.00972237     16.07349439
 H     -2.55746273     12.47511731     18.02919390
 H     -2.02058550     14.16912216     17.92732606
 H      0.23354067     13.40673404     18.70614685
 H     -0.37711117     11.73645929     18.78066711
 H     -1.96058275     12.66101529     20.58324603
 H     -1.49845348     14.17154925     20.29370447
 H     -1.59057601     15.21915902     19.91584549
 H      0.09668792     15.00307561     20.43997814
 H     -1.97864291     14.70119756     22.48695922
 H     -3.00380638     15.03923159     21.07167143
 H     -2.10186004     17.23752343     20.76549723
 H     -1.04554461     17.13015830     21.35210261
 H      0.12015087     17.02223789     21.46796538
 H     -0.38549071     16.81275476     23.16169206
 H     -0.67711130     19.42211191     21.94679062
 H     -0.42936250     19.41716143     21.97965918
 H     -2.23297879     19.48064802     21.51125019
 H     -0.58311499     19.77342993     20.91083796
 H     -0.14512745     21.46522254     22.55913418
 H     -1.77634359     21.25862015     23.24083500
 H     -3.06620311     21.86462372     21.53169893
 H     -2.11178694     21.83373624     20.49513001
 H     -1.46053252     21.53269086     19.55783593
 H     -0.48542674     22.88270273     20.18624929
 H     -1.80064793     24.60468686     20.08145930
 H     -3.12220740     23.81512793     19.67778254
 H     -4.06461195     23.59280373     20.19926956
 H     -3.82054392     22.87977998     18.58672666
 H     -3.60062048     24.54235335     17.24363919
 H     -3.80852256     25.74700184     18.53741869
 H     -6.14193706     24.79512303     18.82196475
 H     -5.96015559     23.70337659     18.30633224
 H     -6.94018337     22.96950695     17.86076538
 H     -5.47569267     23.07611853     16.42724577
 H     -7.92933347     23.86623886     16.55140527
 H     -7.86706910     22.32386756     17.92508313
 H     -8.23780056     21.44766076     16.03007526
 H     -7.26176484     21.09875745     16.48846600
 H     -7.15202431     19.81548274     16.31474127
 H     -7.97694800     20.21944139     15.46104638
 H     -8.67760544     19.26978324     16.30933195
 H     -8.51826759     19.31810722     15.15865590
 H     -9.45917323     19.69387564     14.68888034
 H     -9.52401844     18.30047312     16.16514120
 H    -10.35905749     17.45406502     16.14020418
 H    -10.38612473     17.69221358     14.62536973
 H    -11.32340044     16.60524628     14.72090695
 H    -11.36670625     16.52895142     15.74442730
 H    -11.17822131     15.55572307     14.40227821
 H    -10.66112372     15.40714042     15.37443712
 H    -10.54757222     14.19829267     14.79381908
 H    -11.40033125     14.28690020     14.05371446
 H    -10.51760948     13.11643937     13.65954639
 H    -10.17795046     13.15643002     14.84849557
 H     -9.90357274     11.83461451     14.51644976
 H    -10.38410857     11.95577094     13.29573269
 H    -10.51709770     10.85746167     14.76891799
 H    -11.41813415     11.18965323     13.75585371
 H    -11.94003055      9.97889547     14.39870585
 H    -10.96392214      9.83931686     15.25730298
 H    -11.12337770      8.65040549     15.19185267
 H    -11.77361612      9.06207971     13.58686638
 H    -12.80793508      9.20169729     15.02872555
