1502
Collab-Geweke equil step 3800000 E=        36.3773
 C      0.00000000      0.00000000      0.00000000
 C      1.54000000      0.00000000      0.00000000
 C      2.16637443      0.83886644     -1.12940611
 C      3.51288978      0.29428886     -1.64119871
 C      4.09853508      1.08461095     -2.82610824
 C      5.45218796      0.54896820     -3.32841366
 C      6.05755785      1.36391369     -4.48642538
 C      7.54739422      1.07264643     -4.74556047
 C      8.21360910      2.04783671     -5.73387299
 C      9.14713223      1.36724501     -6.75217035
 C      9.67336530      2.31207316     -7.84851816
 C     10.61443315      1.63366450     -8.86131280
 C     11.08866605      2.56194278     -9.99489236
 C     12.16472167      1.94049744    -10.90456812
 C     12.16939158      2.49782060    -12.34017569
 C     10.84235800      2.29554908    -13.09493930
 C     10.73594550      3.10264484    -14.40217792
 C      9.42662666      2.86817493    -15.17826301
 C      9.00749194      4.05069229    -16.07133567
 C      7.74809665      3.78214706    -16.91596989
 C      6.43640619      3.80471955    -16.10939775
 C      6.08734716      2.46072008    -15.44349744
 C      4.84563116      2.51597900    -14.53427368
 C      4.51186881      1.17842199    -13.84787442
 C      3.72092232      1.32832211    -12.53504023
 C      3.55083030      0.01287851    -11.75255902
 C      3.21880529      0.20935412    -10.26166776
 C      2.64046839     -1.04370941     -9.57832435
 C      2.95814324     -1.14005828     -8.07452929
 C      2.31338977     -2.35074761     -7.37444051
 C      2.57443344     -2.40954761     -5.85786583
 C      1.43912545     -3.06766570     -5.05191525
 C      1.89743054     -3.69655063     -3.72298327
 C      0.74267972     -4.06257508     -2.77210124
 C      1.19678905     -4.42661476     -1.34631730
 C      0.04432850     -4.53645015     -0.33075299
 C      0.44676295     -4.18551573      1.11371630
 C     -0.43409583     -4.84961194      2.18826926
 C      0.13197090     -4.74212413      3.61642010
 C     -0.72491022     -5.44676312      4.68452059
 C     -0.23037027     -5.23076959      6.12687180
 C     -1.03232913     -6.00825547      7.18704995
 C     -0.78593096     -5.53377035      8.63126317
 C     -1.66205519     -6.24188293      9.68130265
 C     -1.60539307     -5.60007527     11.08004220
 C     -2.60121931     -6.20446439     12.08733753
 C     -2.42594027     -5.68863686     13.52775386
 C     -3.43486186     -6.27763111     14.53112966
 C     -3.14665565     -5.90944254     15.99843139
 C     -4.12375484     -6.54232192     17.00656871
 C     -3.74779382     -6.29965542     18.48012437
 C     -4.78534488     -6.83030668     19.48685028
 C     -4.55119376     -6.35974256     20.93438013
 C     -5.42234754     -7.08438572     21.97725279
 C     -5.03446278     -6.78171016     23.43654472
 C     -6.23760609     -6.62731731     24.38533817
 C     -5.84966366     -6.32665394     25.84503068
 C     -6.57939352     -5.11283171     26.44978676
 C     -6.32625755     -4.91643452     27.95609029
 C     -7.35877469     -4.01008514     28.65181951
 C     -6.92764725     -3.52730185     30.04919184
 C     -7.99259793     -2.68650694     30.77757634
 C     -7.52515219     -2.11965600     32.13100698
 C     -8.48990809     -1.08817432     32.74492193
 C     -8.00073605     -0.48768992     34.07598511
 C     -8.91688285      0.61401896     34.64035429
 C     -8.54151166      1.07378584     36.06137889
 C     -9.71904770      1.66158039     36.86107037
 C     -9.56104049      1.54150371     38.38822959
 C    -10.59648061      2.35117154     39.19066449
 C    -10.39230969      2.29201448     40.71592338
 C    -10.69530956      3.61680867     41.44029307
 C    -10.53025762      3.54638066     42.96980206
 C    -11.21536850      4.69883952     43.72747062
 C    -11.14589872      4.56931463     45.26044070
 C    -11.95664177      5.63810701     46.01673334
 C    -11.91348862      5.48918222     47.54890800
 C    -12.81596999      6.48513847     48.30070487
 C    -12.33791007      6.80924870     49.72829419
 C    -13.25743958      7.78074584     50.49135304
 C    -12.76418669      8.12750671     51.90841284
 C    -13.69820871      9.07659335     52.68200021
 C    -13.31658689      9.26185071     54.16242059
 C    -14.24748137     10.21507978     54.93468338
 C    -13.85941035     10.40888183     56.41233071
 C    -14.97761326     11.01721601     57.27902084
 C    -14.58345023     11.22779036     58.75275553
 C    -15.72121775     11.77747324     59.63305876
 C    -15.23667822     12.50237406     60.90244454
 C    -16.23547859     13.53747891     61.45249524
 C    -15.76748858     14.23507697     62.74320911
 C    -16.74624705     15.30140283     63.26911881
 C    -16.46546666     15.75056058     64.71515467
 C    -17.38710659     16.88067039     65.21016139
 C    -17.10353727     17.33273856     66.65474534
 C    -18.18864278     18.25020067     67.24838605
 C    -18.02028168     18.52651289     68.75401087
 C    -19.11696982     19.42721049     69.35202339
 C    -18.88572507     19.79955433     70.82833160
 C    -19.98332587     20.69880101     71.42685302
 C    -19.75133337     21.07233594     72.90274296
 C    -20.88701701     21.90677876     73.52365185
 C    -20.66171824     22.26818978     75.00359189
 C    -21.92090352     22.79147928     75.71928773
 C    -21.62609499     23.58343208     77.00672654
 C    -22.88635540     24.08393984     77.73668249
 C    -22.59175296     24.87040864     79.02752571
 C    -23.85171760     25.37788124     79.75317070
 C    -23.55689112     26.16938807     81.04087963
 C    -24.81568241     26.69868349     81.75284230
 C    -24.52133545     27.48297284     83.04506910
 C    -25.78208453     27.97221911     83.78178469
 C    -25.48813790     28.74430908     85.08142789
 C    -26.74815540     29.25015118     85.80811880
 C    -26.45296465     30.05024226     87.09042792
 C    -27.71366845     30.51556648     87.84255777
 C    -27.42695929     31.47737590     89.01059908
 C    -28.68912046     32.11174833     89.62388595
 C    -28.39643062     33.19302763     90.68065828
 C    -29.65858859     33.82008045     91.30143362
 C    -29.36587955     34.89489984     92.36477022
 C    -30.60538401     35.69751167     92.80185479
 C    -30.31368076     36.76855854     93.86926653
 C    -31.54931981     37.58500965     94.29140836
 C    -31.30688471     38.50874278     95.49952356
 C    -32.54129332     39.32846470     95.91891758
 C    -32.20945452     40.57315190     96.76285881
 C    -33.42837092     41.46065737     97.07619068
 C    -33.09837979     42.69956789     97.92930648
 C    -34.31815194     43.58439183     98.24686353
 C    -33.95554422     44.99927638     98.73493869
 C    -35.17536183     45.88858539     99.03952769
 C    -34.81275227     47.30503375     99.52304436
 C    -36.02429528     48.24268290     99.67981683
 C    -35.66180811     49.65879166    100.16441876
 C    -36.83619891     50.65419292    100.12463721
 C    -36.47427087     52.06972577    100.61133511
 C    -37.67326776     53.03361536    100.68150150
 C    -37.31350717     54.44559393    101.17998804
 C    -38.50574279     55.41968301    101.21638442
 C    -38.14523246     56.83271105    101.71134307
 C    -39.33571928     57.80920624    101.73959662
 C    -38.97525111     59.22217729    102.23474862
 C    -39.85873535     60.33702762    101.64469411
 C    -39.29839507     61.75632972    101.85254097
 C    -40.18443135     62.87152832    101.26698842
 C    -39.62038262     64.29031231    101.46823705
 C    -40.46125219     65.39826312    100.80718988
 C    -39.89882004     66.81732811    101.01096582
 C    -40.77930844     67.93158675    100.41534190
 C    -40.21583903     69.35050003    100.61730067
 C    -41.09230397     70.46415922    100.01466280
 C    -40.61449380     71.88881059    100.35180657
 C    -41.49899910     73.00239300     99.76088816
 C    -40.89996974     74.41488451     99.89367205
 C    -41.78117984     75.52767013     99.29636396
 C    -41.18158392     76.94002357     99.42805479
 C    -42.06118869     78.05241586     98.82765589
 C    -41.35703791     79.41768136     98.71892784
 C    -42.23738808     80.53062708     98.12065082
 C    -41.62983552     81.94086580     98.23772622
 C    -42.51466311     83.05500259     97.64833726
 C    -41.99602765     84.47857775     97.92411079
 C    -42.88392639     85.59287568     97.33966578
 C    -42.36397040     87.01638169     97.61330130
 C    -43.25614584     88.13090074     97.03583246
 C    -42.73693223     89.55444321     97.31068529
 C    -43.73642466     90.66731870     96.94445721
 C    -43.21680584     92.09090234     97.21832927
 C    -44.22197955     93.20316636     96.86605871
 C    -43.70353871     94.62661302     97.14285954
 C    -44.70685298     95.73909250     96.78599837
 C    -44.19001463     97.16235314     97.06672470
 C    -45.02771264     98.27419433     96.40818753
 C    -44.75951536     99.68026990     96.97618551
 C    -45.59643241    100.79226090     96.31690873
 C    -45.32637783    102.19869082     96.88314665
 C    -46.17016558    103.30935945     96.23043123
 C    -45.89915481    104.71597538     96.79574955
 C    -46.73720942    105.82774521     96.13754569
 C    -46.46698252    107.23421191     96.70361002
 C    -47.30924962    108.34517219     96.04942857
 C    -46.81101834    109.77025895     96.35355571
 C    -47.60451635    110.87776770     95.63565233
 C    -47.37021828    112.28793314     96.20848552
 C    -48.16237832    113.39567399     95.48946350
 C    -47.92872655    114.80572741     96.06283616
 C    -48.71391935    115.91466302     95.33803682
 C    -48.47950883    117.32484476     95.91078385
 C    -49.26753225    118.43330006     95.18832558
 C    -49.03251201    119.84358563     95.76056686
 C    -49.82356577    120.95152284     95.04062999
 C    -49.58864288    122.36179168     95.61295248
 C    -50.59600671    123.41527831     95.11597758
 C    -50.58395564    124.72474518     95.92637950
 C    -51.69268654    125.71715673     95.52959855
 C    -51.68118644    127.02625152     96.34060939
 C    -52.94696998    127.88498828     96.16182687
 C    -52.93610928    129.19337886     96.97398211
 C    -54.19726214    130.05716750     96.78699905
 C    -54.18887096    131.36288692     97.60347095
 C    -55.52881661    132.12170868     97.58516294
 C    -55.51831840    133.43100930     98.39585504
 C    -56.86063216    134.18576531     98.38414406
 C    -56.84461821    135.50463119     99.17908829
 C    -58.17965566    136.27160134     99.14696666
 C    -58.11506847    137.66871966     99.79155095
 C    -59.45099988    138.43425887     99.76262038
 C    -59.33709568    139.90924797    100.19044394
 C    -60.67271362    140.67526643    100.15977765
 C    -60.55987242    142.14863529    100.59342621
 C    -61.89391022    142.77331789    101.04255293
 C    -61.74286868    144.13650077    101.74292346
 C    -63.07654514    144.75914975    102.19593045
 C    -62.92549509    146.12228558    102.89639072
 C    -64.25782086    146.73791207    103.36277260
 C    -64.21160039    148.26632225    103.54560036
 C    -65.42865086    148.84510450    104.29085149
 C    -65.26357059    150.31733966    104.71141318
 C    -66.48483195    150.89928178    105.44725560
 C    -66.31549002    152.36823578    105.87748517
 C    -67.52786101    152.94335390    106.63312777
 C    -67.19147675    154.14641206    107.53373683
 C    -68.40415552    154.72259281    108.28807491
 C    -68.21037063    156.17190074    108.77134910
 C    -69.42069589    156.74597799    109.53105173
 C    -69.22891880    158.19705794    110.00978811
 C    -70.01942236    158.54570709    111.28460099
 C    -69.82533753    159.99592951    111.76500292
 C    -70.50844475    160.30706183    113.10968177
 C    -70.24963857    161.73378954    113.62839885
 C    -70.66397904    161.95164970    115.09552493
 C    -70.00074460    163.17294743    115.75896440
 C    -70.40658176    163.38439070    117.22940241
 C    -69.74298713    164.60541756    117.89298026
 C    -70.15049259    164.81811677    119.36277560
 C    -69.48758636    166.03966192    120.02608757
 C    -69.82029956    166.19793657    121.52136382
 C    -68.96759192    167.25726282    122.24407925
 C    -69.30135171    167.41661732    123.73900752
 C    -68.45041448    168.47776779    124.46113323
 C    -68.74793008    168.60052852    125.96712602
 C    -67.95548369    169.71633774    126.67324110
 C    -68.25742519    169.84300416    128.17802911
 C    -67.46384665    170.95781111    128.88445573
 C    -67.76778416    171.08624820    130.38869172
 C    -66.97275466    172.19976494    131.09552167
 C    -67.16920562    172.23703176    132.62248539
 C    -66.37551137    173.35162623    133.32911726
 C    -66.58122022    173.39638645    134.85465992
 C    -65.65706085    174.39031202    135.58242459
 C    -65.86144513    174.43368088    137.10818545
 C    -65.01656658    175.50448116    137.82314489
 C    -65.21959322    175.54663506    139.34912105
 C    -64.06551399    176.21836834    140.11624265
 C    -64.22070628    176.17207632    141.64770352
 C    -63.06737133    176.84512725    142.41478952
 C    -63.22286346    176.79936554    143.94623592
 C    -61.88663270    176.75302311    144.71039541
 C    -62.01843832    176.29752619    146.17557452
 C    -60.68241321    176.25268818    146.94018320
 C    -60.81421883    175.79719125    148.40536231
 C    -59.46847076    175.65382319    149.14021450
 C    -59.60435216    175.29650584    150.63201226
 C    -60.42708835    174.02226039    150.89847738
 C    -59.63589743    172.71473373    150.70876454
 C    -60.45835313    171.44051447    150.97621897
 C    -59.60740275    170.16582487    151.12671776
 C    -60.39192413    168.94668013    151.64615236
 C    -59.57360162    167.64248445    151.67811950
 C    -60.35781650    166.42355579    152.19852312
 C    -59.61602698    165.08419653    152.03279716
 C    -60.36116943    163.87712644    152.63225068
 C    -59.61972818    162.53765583    152.46586758
 C    -60.36312310    161.33114485    153.06860736
 C    -59.86035032    159.96748494    152.55944021
 C    -60.60172990    158.76086969    153.16444928
 C    -60.10070351    157.39730017    152.65332236
 C    -60.84827629    156.19102606    153.25135054
 C    -60.34722342    154.82745502    152.74025366
 C    -61.09172155    153.62100775    153.34175803
 C    -60.59106147    152.25745841    152.83021851
 C    -61.49286071    151.07206843    153.22163739
 C    -60.99185248    149.70843814    152.71065483
 C    -61.90262884    148.52520010    153.08752904
 C    -61.48943043    147.18756769    152.44596330
 C    -62.44898527    146.02281298    152.75288508
 C    -62.03622623    144.68536614    152.11064997
 C    -62.99667739    143.52099098    152.41620529
 C    -62.58379763    142.18349293    151.77415445
 C    -63.55948550    141.02581484    152.05596048
 C    -63.27334742    139.75243675    151.23850515
 C    -64.07808980    138.52122524    151.69469362
 C    -63.78955465    137.24705240    150.87932190
 C    -64.59204834    136.01509921    151.33746513
 C    -64.45056284    134.79464948    150.40898018
 C    -64.99043750    133.48390357    151.01071146
 C    -64.85180964    132.26406478    150.08099342
 C    -65.35810721    130.94644864    150.69674539
 C    -65.21804366    129.72633026    149.76760958
 C    -65.93178187    128.46227612    150.28175440
 C    -66.23548775    127.42460201    149.18512539
 C    -66.48641679    126.00263604    149.72052001
 C    -66.78859988    124.96464704    148.62376835
 C    -67.03437257    123.54162305    149.15874359
 C    -66.71029476    122.42722980    148.14646829
 C    -66.97217480    121.00487548    148.67554959
 C    -66.64706605    119.89043483    147.66365713
 C    -66.87910341    118.46696437    148.20355576
 C    -66.55601304    117.35258291    147.19095190
 C    -66.81052753    115.92991980    147.72279027
 C    -66.93175106    114.86145647    146.62038791
 C    -67.18891037    113.43922235    147.15210134
 C    -67.31020997    112.37077141    146.04969534
 C    -67.57434817    110.94968721    146.58106216
 C    -67.69971385    109.88191592    145.47845257
 C    -67.96414668    108.46088114    146.00980503
 C    -68.07061525    107.38998419    144.90824061
 C    -68.69537109    106.06439632    145.38162939
 C    -68.81279823    104.99763148    144.27717312
 C    -69.43280887    103.67025442    144.75178552
 C    -69.61712455    102.62924918    143.63199276
 C    -70.24330283    101.30431961    144.10534505
 C    -70.82160170    100.44297711    142.96725037
 C    -71.44270843     99.11544585    143.43999469
 C    -72.09557538     98.29310223    142.31344432
 C    -72.71681148     96.96564021    142.78621307
 C    -73.39129985     96.15494717    141.66396434
 C    -73.55641297     94.65788316    141.98511385
 C    -74.14880010     93.83086003    140.82895200
 C    -74.31718914     92.33442509    141.15133003
 C    -74.52208119     91.44556759    139.91054335
 C    -74.69230416     89.94936894    140.23305495
 C    -75.28448106     89.12273152    139.07650962
 C    -74.83103216     87.65107333    139.06214714
 C    -75.41941350     86.82563261    137.90281328
 C    -74.96517147     85.35422483    137.88786998
 C    -74.73904093     84.78280087    136.47580071
 C    -74.30145889     83.30635940    136.46022645
 C    -74.07570315     82.73482452    135.04814209
 C    -73.63873604     81.25820121    135.03254313
 C    -73.41312549     80.68662342    133.62045293
 C    -72.95807284     79.21546591    133.60553109
 C    -72.73138268     78.64422168    132.19347882
 C    -72.25402375     77.18014290    132.17927432
 C    -72.02651239     76.60916619    130.76724593
 C    -71.58451638     75.13403863    130.75181137
 C    -70.77781894     74.73490545    129.50219866
 C    -70.31632980     73.26568616    129.49746092
 C    -69.50970575     72.86653005    128.24780814
 C    -69.02122344     71.40608924    128.25768995
 C    -68.05669350     71.06042520    127.10799504
 C    -67.70886235     69.56336687    127.01088769
 C    -66.57153782     69.24743207    126.02180826
 C    -66.22493871     67.75017641    125.92334722
 C    -65.08552115     67.43457452    124.93657315
 C    -64.74362284     65.93658885    124.83291763
 C    -63.70893417     65.60430621    123.74176796
 C    -63.37255552     64.10542265    123.63315183
 C    -62.34127366     63.77259686    122.53894677
 C    -62.18369295     62.26549873    122.26431326
 C    -61.15074611     61.93255404    121.17171606
 C    -61.02030607     60.42790771    120.87067649
 C    -59.99180438     60.09544425    119.77374790
 C    -59.74536940     58.58736705    119.58250731
 C    -58.76012493     58.25270002    118.44721382
 C    -58.33214925     56.77396957    118.40486916
 C    -57.34243871     56.44049375    117.27311525
 C    -56.86821396     54.97533981    117.26721469
 C    -55.47773500     54.76955612    116.63807135
 C    -55.03700589     53.29598853    116.56089357
 C    -53.64803812     53.08992241    115.92851292
 C    -53.56910233     51.88884725    114.96789457
 C    -52.18166316     51.68624777    114.33105393
 C    -51.95034973     50.27059680    113.77067331
 C    -50.51760591     50.02447967    113.26246913
 C    -50.34272628     48.69809879    112.49975628
 C    -48.90361140     48.43813759    112.01708815
 C    -48.72501063     47.10340355    111.26996914
 C    -47.29961192     46.87059229    110.73551854
 C    -47.23152299     45.91859966    109.52693510
 C    -45.80536526     45.68001407    108.99707566
 C    -45.73690683     44.72515228    107.79077867
 C    -44.31152292     44.49238581    107.25626911
 C    -44.25934343     44.05928362    105.77934670
 C    -42.83670154     43.78698456    105.25633305
 C    -42.77290228     43.46968474    103.75072671
 C    -41.35288592     43.17616761    103.23207342
 C    -41.28954317     42.85539118    101.72718466
 C    -39.87194701     42.54427769    101.21218027
 C    -39.80934543     42.21833843     99.70837023
 C    -38.41746221     41.77479614     99.22099837
 C    -38.28201741     41.70910926     97.68837319
 C    -37.38539262     40.56163690     97.18740296
 C    -37.23805063     40.50492356     95.65551722
 C    -36.27689424     39.40897815     95.15884623
 C    -36.13089582     39.35112548     93.62687446
 C    -35.42734840     38.08158216     93.11220875
 C    -35.06199803     38.13039682     91.61697090
 C    -34.46019029     36.82009059     91.07611508
 C    -34.09650866     36.86831463     89.58045131
 C    -33.48651559     35.56093778     89.04168026
 C    -33.01908036     35.64491018     87.57673899
 C    -32.16020617     34.44959200     87.12380458
 C    -31.69175959     34.53415577     85.65922042
 C    -30.83731939     33.33625750     85.20471883
 C    -30.36838456     33.42110405     83.74030728
 C    -29.52666126     32.21593784     83.28131238
 C    -28.44055707     32.56773549     82.24776698
 C    -27.59159615     31.36452568     81.79704368
 C    -26.88735744     31.56710791     80.44256656
 C    -25.99705196     30.38498364     80.01649335
 C    -25.28126943     30.59373479     78.66902227
 C    -24.62595672     29.31984102     78.10390289
 C    -24.21219517     29.43164476     76.62474728
 C    -24.15014218     28.08081245     75.88786093
 C    -23.71376623     28.19020102     74.41503705
 C    -23.67652094     26.84236711     73.67102324
 C    -23.38538741     26.96667006     72.16391009
 C    -23.12351364     25.62043951     71.46342067
 C    -22.33511197     25.74266792     70.14619517
 C    -21.80540260     24.40114492     69.60645077
 C    -21.05775120     24.51698576     68.26510880
 C    -20.56712549     23.16975975     67.70308700
 C    -19.82140390     23.28535462     66.36064999
 C    -19.36678882     21.93414342     65.77828119
 C    -18.60217990     22.05143161     64.44665937
 C    -17.78607127     20.79785168     64.08045720
 C    -17.34259355     20.74764179     62.60654862
 C    -16.54430988     19.48410139     62.23532249
 C    -16.05493976     19.45878678     60.77536493
 C    -15.11249099     18.28485394     60.45090845
 C    -14.73226801     18.17983756     58.96228424
 C    -13.81534443     16.98728836     58.63262145
 C    -13.48615801     16.84554367     57.13490827
 C    -12.75897846     15.53674780     56.77454280
 C    -13.00121445     15.06304948     55.32936751
 C    -11.97455587     14.03032644     54.82831333
 C    -12.05288692     13.75231832     53.31564162
 C    -11.09090604     12.65200302     52.83035919
 C    -11.17390381     12.36943208     51.31878218
 C    -10.25096038     11.23235449     50.84251549
 C    -10.36524574     10.92117089     49.33861934
 C     -9.45485119      9.77264794     48.86567452
 C     -9.59245445      9.44030715     47.36827179
 C     -8.57463028      8.40188097     46.86101936
 C     -8.77545882      7.99498061     45.38938762
 C     -7.58626823      7.22608184     44.78422613
 C     -7.96002333      6.34037873     43.58113132
 C     -6.78474230      6.04701174     42.63021055
 C     -7.15326451      5.14288506     41.43926710
 C     -6.02390253      4.97741840     40.40545750
 C     -6.51523276      4.59568877     38.99674280
 C     -5.38175073      4.32892564     37.98894525
 C     -5.87210856      3.89373657     36.59547488
 C     -4.74304155      3.70128085     35.56602431
 C     -5.20398819      3.06204441     34.24295781
 C     -4.05090209      2.68451536     33.29455691
 C     -4.51261537      2.06064630     31.96444104
 C     -3.36061933      1.70342937     31.00689146
 C     -3.82563270      1.17301628     29.63794130
 C     -2.67386484      0.83083753     28.67464254
 C     -3.12973708      0.15396779     27.36864566
 C     -1.99425590     -0.08006908     26.35498436
 C     -2.42967383     -0.84747300     25.09280273
 C     -1.32046490     -0.99315904     24.03448750
 C     -1.81760775     -1.51602148     22.67394943
 C     -0.68901869     -1.93535188     21.71371574
 C     -1.16961832     -2.26501629     20.28825253
 C     -0.03947677     -2.67252935     19.32476243
 C     -0.52749907     -3.06988065     17.91922119
 C      0.60791174     -3.31787046     16.90880378
 C      0.13028312     -3.45569670     15.45124595
 C      1.23098564     -3.20119990     14.40468714
 C      0.76026973     -3.36644742     12.94773148
 C      1.78880864     -2.90057107     11.90051281
 C      1.52962665     -3.44399283     10.48307940
 C      2.62176443     -3.07578941      9.46167776
 C      2.27013442     -3.44445558      8.00839128
 C      3.48817294     -3.52000022      7.06909624
 C      3.16957451     -3.17881151      5.60155228
 C      4.32199475     -3.47742784      4.62464088
 C      4.13480783     -2.85816370      3.22711700
 C      5.21740347     -3.26663470      2.21087976
 C      4.72062995     -3.32073543      0.75420918
 C      5.84170755     -3.51824327     -0.28298687
 C      5.37157827     -3.39625766     -1.74438961
 C      6.50585146     -3.10764807     -2.74525365
 C      6.04711482     -3.05760407     -4.21449029
 C      7.18876569     -2.81527603     -5.21923425
 C      6.83300048     -3.18203928     -6.67199570
 C      7.78183960     -2.57434385     -7.72176262
 C      7.35379361     -2.83434313     -9.17805140
 C      7.96044514     -1.84935402    -10.19459967
 C      7.65360924     -0.37053054     -9.89371290
 C      7.68432117      0.54065290    -11.13484202
 C      7.21347715      1.98196766    -10.86555095
 C      7.73421783      3.01185792    -11.88523482
 C      7.40324435      4.47217297    -11.52532301
 C      8.10043250      5.51182366    -12.42234873
 H     -0.36333333      0.00000000      1.02766186
 H     -0.36333333     -0.88998127     -0.51383093
 H     -0.36333333      0.88998127     -0.51383093
 H      1.88274777     -0.13287868     -1.02614191
 H      1.88274777      1.00434931     -0.24881003
 H      3.25103674      0.77483115     -1.04276224
 H      2.40148937      0.17377895     -1.96035713
 H      3.60437720      0.54454941     -2.69812809
 H      4.20900170      1.12847730     -1.72870779
 H      5.12895773      1.34751786     -2.58692394
 H      4.64781019      0.39098825     -3.46272775
 H      5.48051797      0.65235110     -4.41312993
 H      5.98065477      1.36353120     -3.82370139
 H      7.13359693      1.19068313     -4.50162674
 H      6.78780486      0.73885264     -5.00036896
 H      7.74730556      1.22643909     -5.80597702
 H      8.11388421      1.98280232     -4.54856972
 H      9.24940767      1.73891385     -5.87454278
 H      8.39693527      1.51706234     -6.66809464
 H      8.97091573      1.81400884     -7.73066400
 H      9.78424661      2.13150473     -7.19724602
 H     10.22229765      3.12214952     -7.36836238
 H      9.79605789      1.73724245     -8.76645943
 H     10.55810370      2.18163973     -9.80187123
 H     11.13688379      2.41156996     -9.41809681
 H     11.47660966      3.47753006     -9.54846243
 H     11.52108455      1.94638924    -10.78369404
 H     11.75424323      1.03525922    -11.35195074
 H     13.02674920      1.68297419    -10.28918993
 H     11.73104816      1.74905626    -12.99995369
 H     11.24796519      3.05979626    -12.49267732
 H     10.51565769      3.26197144    -13.47885950
 H     10.62219759      1.22833735    -13.12117899
 H     10.16762830      2.51455648    -15.12278020
 H     10.83501234      4.16091829    -14.16063480
 H      8.60104353      3.25943452    -14.58376455
 H      9.29783816      1.79471195    -15.31679367
 H      9.80444918      4.23556512    -16.79160034
 H      8.87844205      4.92898854    -15.43884706
 H      6.89450504      4.23592788    -16.41241817
 H      6.89295259      4.22727119    -16.40735104
 H      6.33564392      4.78630279    -15.64631968
 H      6.63348000      3.38542889    -15.12275838
 H      5.85959973      2.64713239    -14.39398252
 H      5.01815014      2.28613964    -15.56366157
 H      4.23785977      1.63259157    -14.73008122
 H      4.95535952      1.75883837    -13.75787317
 H      4.83957781      1.23472219    -12.80982957
 H      4.33734261      0.43044948    -14.62129392
 H      2.78581767      1.84332232    -12.75516306
 H      4.09076124      0.58800639    -11.82563779
 H      4.54132697     -0.37434321    -11.51365384
 H      3.02616227     -0.69935080    -12.38938935
 H      2.19833228     -0.13297454    -10.08977848
 H      4.02682346      0.77910532     -9.80276669
 H      3.37062716     -1.84849501     -9.66369600
 H      2.22515645     -0.74789028     -8.61494123
 H      2.54727510     -0.25968739     -7.58032845
 H      4.04129122     -1.15254328     -7.95314321
 H      2.67250313     -3.25843439     -7.85945836
 H      1.23216404     -2.27915326     -7.49244549
 H      2.17692078     -1.50067576     -5.40616279
 H      3.65156796     -2.45415404     -5.69695747
 H      1.85088151     -3.92195591     -4.51456510
 H      0.52475578     -2.49880485     -5.22051369
 H      2.26912108     -2.90081561     -3.07742001
 H      2.70393832     -4.39817995     -3.93596570
 H      0.24460874     -4.94968255     -3.16333728
 H      0.99429233     -3.70477471     -1.77371755
 H      1.74087266     -3.57754385     -0.93261253
 H      1.86095964     -5.28870623     -1.40776420
 H      0.46449681     -4.81498811      0.63567093
 H     -0.47083926     -3.57666560     -0.29181962
 H      0.81851139     -3.16094948      1.12664259
 H      1.24165610     -4.86436526      1.42259849
 H     -0.36657323     -5.93070398      2.06669341
 H     -1.46447652     -4.53009989      2.03229595
 H      0.09794602     -3.69602807      3.92076424
 H      1.16731196     -5.08262266      3.60126686
 H     -0.79818961     -6.50249195      4.42343293
 H     -1.71927214     -5.00037504      4.67546156
 H     -0.23564191     -4.16071899      6.33439033
 H      0.78887596     -5.61006731      6.20015453
 H     -0.96399527     -7.07148442      6.95688769
 H     -2.07342927     -5.69043657      7.13046680
 H     -1.06052328     -4.48102029      8.69771898
 H      0.27524623     -5.64716346      8.85294982
 H     -1.64319400     -7.31253346      9.47770574
 H     -2.68233210     -5.87120003      9.58266585
 H     -1.85563592     -4.54365504     10.98280627
 H     -0.58920416     -5.69911728     11.46168442
 H     -2.24146412     -7.19261500     12.37410323
 H     -3.57009537     -6.29873617     11.59693768
 H     -2.55764963     -4.60663519     13.52274921
 H     -1.41554769     -5.93013718     13.85773029
 H     -3.31800480     -7.36132360     14.53854715
 H     -4.44022760     -6.02288915     14.19579958
 H     -3.16680092     -4.82344967     16.08961059
 H     -2.15327216     -6.27725877     16.25533697
 H     -4.06449996     -7.62616150     16.90716731
 H     -5.13237151     -6.20958612     16.76145791
 H     -3.54496329     -5.23678717     18.61154300
 H     -2.84704713     -6.87167792     18.70271292
 H     -4.89406569     -7.90393087     19.33319191
 H     -5.73718569     -6.33690474     19.29024512
 H     -4.33078380     -5.29241122     20.91640087
 H     -3.69466739     -6.90089824     21.33639146
 H     -5.20453389     -8.15107970     21.92413820
 H     -6.46947418     -6.91445872     21.72675209
 H     -5.25116239     -5.73268719     23.63826750
 H     -3.96533628     -6.96041935     23.55113769
 H     -6.80906633     -7.55534376     24.36801476
 H     -6.85989817     -5.81054774     24.01963332
 H     -5.27737213     -5.39916190     25.86349519
 H     -5.22815959     -7.14439884     26.20989499
 H     -7.65182129     -5.30418745     26.41261615
 H     -6.34555805     -4.23633060     25.84549645
 H     -5.28083461     -4.64089097     28.09489461
 H     -6.52336121     -5.86115185     28.46280451
 H     -8.34577252     -4.45496945     28.52527604
 H     -7.33640560     -3.03252194     28.17018707
 H     -5.99627866     -2.97031276     29.94713456
 H     -6.76083968     -4.40209363     30.67769369
 H     -8.89202879     -3.29248934     30.88670684
 H     -8.21567820     -1.81190755     30.16650262
 H     -6.54244277     -1.66879958     31.99276557
 H     -7.45022511     -2.94388077     32.84033022
 H     -9.45771444     -1.56811766     32.89019848
 H     -8.59668622     -0.25961737     32.04478493
 H     -7.04273823      0.00148581     33.89978267
 H     -7.86784810     -1.30024398     34.79026565
 H     -9.90726461      0.18772309     34.80009092
 H     -8.98091532      1.41638481     33.90536526
 H     -7.52048674      1.45476434     36.03985001
 H     -8.59350743      0.21115666     36.72565845
 H    -10.49370302      0.89894045     36.94100445
 H    -10.10954253      2.52027981     36.31494850
 H     -8.65182587      2.06654934     38.68107060
 H     -9.46819370      0.48534053     38.64120946
 H    -11.59171007      1.99832440     38.92026253
 H    -10.49669765      3.40160830     38.91730397
 H     -9.40047448      2.68212409     40.94434715
 H    -10.45406165      1.25002341     41.02983624
 H    -11.73322212      3.88540400     41.24358502
 H    -10.03792850      4.38659539     41.03609195
 H     -9.49557517      3.28462104     43.19119338
 H    -11.19141121      2.76784199     43.35039826
 H    -12.28030810      4.67578765     43.49622993
 H    -10.78830817      5.63942646     43.37959752
 H    -10.10414128      4.66721013     45.56582227
 H    -11.51463982      3.58185832     45.53803760
 H    -13.00012708      5.55553930     45.71272515
 H    -11.57358232      6.61977516     45.73799851
 H    -10.87419827      5.55603135     47.87063269
 H    -12.31209853      4.50867686     47.80932954
 H    -13.84355896      6.33330558     47.97039035
 H    -12.49789295      7.49597845     48.04549999
 H    -11.33603727      7.23407851     49.66608067
 H    -12.30395931      5.88033116     50.29755647
 H    -14.24986517      7.33453110     50.55525804
 H    -13.31362880      8.71269657     49.92884916
 H    -11.77736329      8.58300383     51.82593889
 H    -12.69099594      7.20326843     52.48158533
 H    -14.72082693      8.71549627     52.57263445
 H    -13.61533145     10.07128580     52.24402956
 H    -12.30472623      9.66457284     54.20772949
 H    -13.34131670      8.28602559     54.64745025
 H    -15.26078866      9.81602128     54.88928893
 H    -14.21895833     11.19034935     54.44874542
 H    -12.84748010     10.81213136     56.45089213
 H    -13.88171751      9.43583231     56.90302108
 H    -15.84294811     10.35583195     57.23581526
 H    -15.24243949     11.98962457     56.86382369
 H    -13.72277894     11.89583823     58.78526681
 H    -14.30938958     10.26130229     59.17571129
 H    -16.55254483     11.07337406     59.59785030
 H    -16.03930199     12.73600640     59.22301412
 H    -14.67895141     13.38847471     60.59934975
 H    -14.57853399     11.82901804     61.45156916
 H    -17.16790746     13.02355800     61.68607968
 H    -16.41600332     14.28414668     60.67919189
 H    -14.82603052     14.74376649     62.53586477
 H    -15.60841019     13.47315525     63.50627488
 H    -17.70365756     14.81969299     63.46766540
 H    -16.87433552     16.05977006     62.49673776
 H    -15.45658176     16.16107212     64.75676638
 H    -16.52931643     14.87698626     65.36391589
 H    -18.41815299     16.53158036     65.15377450
 H    -17.25823915     17.74068045     64.55298875
 H    -16.07271041     17.68293786     66.70819099
 H    -17.23009262     16.47380292     67.31376986
 H    -19.13629111     17.71173550     67.23752853
 H    -18.26791458     19.13785209     66.62077874
 H    -17.04998999     18.99815715     68.90952845
 H    -18.05009427     17.57381226     69.28275724
 H    -20.08074201     18.94181102     69.19830115
 H    -19.10236721     20.38108786     68.82476187
 H    -17.93279913     20.32322059     70.90452743
 H    -18.84229966     18.87946294     71.41112321
 H    -20.93563647     20.17398861     71.35084987
 H    -20.02805140     21.61894991     70.84425055
 H    -18.79918959     21.59759043     72.97777596
 H    -19.70587997     20.15263861     73.48600176
 H    -21.81072408     21.33199121     73.45668532
 H    -20.98948075     22.82738664     72.94912395
 H    -19.88079416     23.02680685     75.05610602
 H    -20.33319625     21.37157712     75.52919539
 H    -22.68968030     22.02047563     75.66794924
 H    -22.26593881     23.68394074     75.19721189
 H    -20.99919749     24.43681853     76.74820943
 H    -21.08702708     22.93162438     77.69422382
 H    -23.49696895     23.21971129     77.99814015
 H    -23.44251394     24.72949644     77.05694405
 H    -21.97887239     25.73428049     78.77022660
 H    -22.03801605     24.22109407     79.70565994
 H    -24.46957305     24.51730078     80.00959986
 H    -24.40025770     26.02913015     79.07267190
 H    -22.94110673     27.03030312     80.78062040
 H    -23.00611186     25.52158462     81.72285682
 H    -25.44701872     25.84823301     82.01023003
 H    -25.35002937     27.35239609     81.06347074
 H    -23.88708592     28.33291156     82.79321258
 H    -23.99026150     26.82435671     83.73229922
 H    -26.38783495     27.10322376     84.03871562
 H    -26.34312652     28.61984291     83.10805232
 H    -24.87735530     29.61244756     84.83367764
 H    -24.93242847     28.08838893     85.75154413
 H    -27.37070294     28.38983966     86.05388016
 H    -27.29155100     29.91069625     85.13246991
 H    -25.84191083     30.91245787     86.82341205
 H    -25.89714186     29.40880240     87.77432552
 H    -28.23450167     29.63415041     88.21664129
 H    -28.35593908     31.04605112     87.13958233
 H    -26.92033965     32.35711031     88.61373146
 H    -26.77255115     30.97015557     89.71952610
 H    -29.33225328     31.31108546     89.98915180
 H    -29.20810890     32.66673443     88.84238647
 H    -27.81014701     33.98232677     90.21014963
 H    -27.81610565     32.73904381     91.48391516
 H    -30.23836741     33.02713639     91.77387011
 H    -30.24541594     34.27221727     90.50186752
 H    -28.78275541     35.68882872     91.89814064
 H    -28.78238311     34.43693131     93.16345459
 H    -31.33779547     35.00142575     93.21067975
 H    -31.02259615     36.18935959     91.92315140
 H    -29.57962572     37.46512352     93.46422281
 H    -29.89886685     36.27340102     94.74724629
 H    -32.29456715     36.89712189     94.69080394
 H    -31.95004119     38.08187359     93.40786515
 H    -30.50738571     39.20423981     95.24420958
 H    -30.99738101     37.89373970     96.34455532
 H    -33.33481118     38.63498549     96.19733453
 H    -32.86295590     39.92482566     95.06511035
 H    -31.42938562     41.13647801     96.25074925
 H    -31.84025133     40.24091685     97.73312108
 H    -34.15760961     40.86138226     97.62133312
 H    -33.86266771     41.79193813     96.13293072
 H    -32.36574596     43.30103182     97.39117191
 H    -32.66886443     42.36176404     98.87244227
 H    -35.04801681     42.98104929     98.78665520
 H    -34.75107832     43.92206234     97.30524079
 H    -33.36907889     45.48998398     97.95817330
 H    -33.35474599     44.90627456     99.63964425
 H    -35.77028054     45.40148288     99.81212258
 H    -35.76774079     45.98134729     98.12926267
 H    -34.13177207     47.75083354     98.79804194
 H    -34.31201700     47.22026458    100.48750192
 H    -36.70985763     47.79907367    100.40183838
 H    -36.51982351     48.32704790     98.71263829
 H    -34.97585179     50.10280571     99.44302049
 H    -35.16676566     49.57376704    101.13178828
 H    -37.63405120     50.26850771    100.75928565
 H    -37.19146999     50.72422024     99.09654255
 H    -35.73277941     52.48722638     99.93017165
 H    -36.04555949     51.98953556    101.61027258
 H    -38.41075721     52.61403864    101.36572712
 H    -38.10694417     53.11432301     99.68475126
 H    -36.57206073     54.86958097    100.50279370
 H    -36.88541400     54.35780917    102.17855204
 H    -39.26632829     55.00589743    101.87849558
 H    -38.90962390     55.50491901    100.20756586
 H    -37.38579302     57.24517377    101.04709445
 H    -37.73964276     56.74958531    102.71965210
 H    -40.09971833     57.39920760    102.40013169
 H    -39.73543726     57.89167319    100.72889155
 H    -38.21118966     59.63224861    101.57433085
 H    -38.57562716     59.13959489    103.24548144
 H    -40.89464413     60.13285908    101.91544901
 H    -39.75616717     60.31751545    100.55970607
 H    -38.31754323     61.81015975    101.38017248
 H    -39.19594177     61.93093061    102.92357685
 H    -41.16364559     62.81657480    101.74261389
 H    -40.29043705     62.69831222    100.19607341
 H    -38.64292443     64.34177791    100.98862597
 H    -39.50983840     64.46662758    102.53818700
 H    -41.46516573     65.36530448    101.23047623
 H    -40.51145235     65.19800286     99.73692087
 H    -38.89428642     66.85170411    100.58926629
 H    -39.85045289     67.01638185    102.08154428
 H    -41.76109638     67.88114565    100.88613712
 H    -40.88014737     67.75333089     99.34475498
 H    -39.23453082     69.39997318    100.14540384
 H    -40.11374210     69.52961000    101.68762578
 H    -42.07614120     70.41641844    100.48144446
 H    -41.18885307     70.28286711     98.94419026
 H    -39.59952834     72.00858033     99.97286025
 H    -40.61334329     72.00237904    101.43587340
 H    -42.51011184     72.87918069    100.14892134
 H    -41.51003505     72.89220951     98.67652761
 H    -39.93981497     74.42985908     99.37794094
 H    -40.74702477     74.62418218    100.95239879
 H    -42.74376238     75.51414868     99.80758994
 H    -41.92922463     75.31632150     98.23734814
 H    -40.21932235     76.95295855     98.91620973
 H    -41.03279306     77.15185509    100.48686954
 H    -43.02461993     78.04018145     99.33731319
 H    -42.20760541     77.83958868     97.76870984
 H    -40.47585520     79.29959500     98.08831492
 H    -41.04992488     79.72549913     99.71844263
 H    -43.11763570     80.64834060     98.75263788
 H    -42.54599546     80.22359740     97.12135393
 H    -40.67154234     81.94542139     97.71834830
 H    -41.47175158     82.15936989     99.29383485
 H    -43.51218412     82.96393447     98.07817260
 H    -42.56988576     82.91388346     96.56892267
 H    -40.99864421     84.56933278     97.49389015
 H    -41.94038928     84.61999509     99.00346499
 H    -43.87958912     85.50077990     97.77357142
 H    -42.94358976     85.45291998     96.26033604
 H    -41.36880750     87.10735469     97.17801435
 H    -42.30281639     87.15740828     98.69240819
 H    -44.24885870     88.03803995     97.47628455
 H    -43.32295870     87.99192785     95.95679466
 H    -41.82669201     89.70528794     96.73033314
 H    -42.50817816     89.63664248     98.37323639
 H    -44.64597379     90.51603493     97.52577777
 H    -43.96636445     90.58550827     95.88213205
 H    -42.30754685     92.24173792     96.63643863
 H    -42.98627188     92.17319185     98.28048864
 H    -45.12513901     93.04848302     97.45637731
 H    -44.46287571     93.12426583     95.80594374
 H    -42.79950285     94.78262475     96.55423445
 H    -43.46440279     94.70408241     98.20347847
 H    -45.61290001     95.58435066     97.37185992
 H    -44.94258260     95.66051487     95.72469865
 H    -43.16981636     97.23699642     96.69026239
 H    -44.19190439     97.32120235     98.14508612
 H    -45.97782151     98.34658538     96.93748203
 H    -45.21034737     97.99647678     95.37010394
 H    -43.70485718     99.91355474     96.82998601
 H    -44.98441756     99.66774984     98.04265738
 H    -46.65125975    100.55929595     96.46239618
 H    -45.37077508    100.80457346     95.25059396
 H    -44.27156171    102.43068063     96.73602870
 H    -45.55063038    102.18761928     97.94977133
 H    -47.22346096    103.07454756     96.38383343
 H    -45.95258889    103.32226090     95.16244531
 H    -44.84587041    104.95028192     96.64150163
 H    -46.11600310    104.70371883     97.86389120
 H    -47.79177001    105.59579415     96.28654453
 H    -46.51478334    105.83847251     95.07053512
 H    -45.41241564    107.46657575     96.55530041
 H    -46.69000302    107.22295987     97.77049111
 H    -48.36288465    108.11107862     96.20159109
 H    -47.09032162    108.35754656     94.98171259
 H    -45.78638124    109.85944074     95.99263270
 H    -46.82987617    109.91676704     97.43350004
 H    -48.64252758    110.82335783     95.96378684
 H    -47.55276830    110.69562588     94.56222487
 H    -46.30817492    112.51909734     96.12646703
 H    -47.66110367    112.28385300     97.25894686
 H    -49.22462233    113.16501937     95.57030963
 H    -47.87028838    113.39941871     94.43933520
 H    -46.86651260    115.03670646     95.98252296
 H    -48.22127135    114.80157423     97.11283630
 H    -49.77714728    115.68632768     95.41226174
 H    -48.41513303    115.91706891     94.28979021
 H    -47.41624304    117.55280054     95.83593720
 H    -48.77776372    117.32291471     96.95918277
 H    -50.33039082    118.20427270     95.26564395
 H    -48.97180841    118.43594131     94.13921146
 H    -47.96962417    120.07230728     95.68274752
 H    -49.32780765    119.84132800     96.80980248
 H    -50.88600797    120.72165108     95.12110075
 H    -49.53098945    120.95454187     93.99063476
 H    -48.58836415    122.68597135     95.32581140
 H    -49.65460200    122.30609661     96.69952850
 H    -51.59616272    122.98527247     95.16967052
 H    -50.35849977    123.65441977     94.07939579
 H    -49.54828956    125.04045662     96.05216525
 H    -51.02479875    124.52718350     96.90348069
 H    -52.65694956    125.23108418     95.67802459
 H    -51.56934900    125.96534189     94.47542020
 H    -50.67648061    127.44682108     96.29833119
 H    -51.93341091    126.79108032     97.37461970
 H    -53.80837040    127.29518847     96.47523635
 H    -53.04391866    128.13688334     95.10577297
 H    -52.07459676    129.78355649     96.66159367
 H    -52.83975245    128.94057761     98.02987363
 H    -55.06313031    129.47046655     97.09384477
 H    -54.28578889    130.31028250     95.73049736
 H    -53.42164369    132.01912284     97.19259782
 H    -53.94312704    131.11923457     98.63707796
 H    -56.29896806    131.46719767     97.99330762
 H    -55.77032564    132.36588103     96.55068082
 H    -54.74915119    134.08366663     97.98291410
 H    -55.27424424    133.19137764     99.43079681
 H    -57.62578570    133.53076565     98.80081600
 H    -57.11049680    134.42468877     97.35042106
 H    -56.08223186    136.15450944     98.74952419
 H    -56.58784790    135.27800599    100.21388780
 H    -58.92616709    135.68269893     99.67989688
 H    -58.48336339    136.38757893     98.10657692
 H    -57.36848254    138.25776261     99.25888046
 H    -57.81151255    137.55247844    100.83195557
 H    -60.14853935    137.93180790    100.43275597
 H    -59.84039993    138.40575347     98.74494900
 H    -58.64112224    140.40882372     99.51654109
 H    -58.94525385    139.94197424    101.20705054
 H    -61.36970536    140.17600678    100.83286184
 H    -61.06330196    140.64258366     99.14268740
 H    -59.86146696    142.65049636     99.92375071
 H    -60.17149539    142.17750098    101.61147830
 H    -62.27616082    142.19647618    101.88471569
 H    -62.59725652    142.71338820    100.21200347
 H    -61.25751596    144.82521633    101.05140078
 H    -61.11396268    144.00188382    102.62295501
 H    -63.55900441    144.06953448    102.88858032
 H    -63.70807349    144.89314059    101.31768310
 H    -62.44300092    146.81193394    102.20379812
 H    -62.29399526    145.98822634    103.77464814
 H    -64.73029845    146.04518797    104.05919076
 H    -64.89832385    146.86977806    102.49072485
 H    -63.94101562    148.71766943    102.59104831
 H    -63.44785848    148.49983895    104.28740104
 H    -65.47813753    148.38329783    105.27694767
 H    -66.32699953    148.59440297    103.72674298
 H    -65.09577467    150.91331195    103.81432814
 H    -64.39435037    150.39172732    105.36488291
 H    -66.66044354    150.30440548    106.34357181
 H    -67.34939593    150.82616900    104.78749530
 H    -66.13497676    152.96801939    104.98542319
 H    -65.45263019    152.43397937    106.54024506
 H    -67.69188527    152.34120410    107.52677851
 H    -68.40053937    152.87485643    105.98363522
 H    -66.77112578    154.93491845    106.90950713
 H    -66.44979282    153.82905064    108.26673525
 H    -68.92419614    153.90045389    108.77975097
 H    -69.06885638    155.19045119    107.56186466
 H    -68.01744366    156.80024324    107.90182918
 H    -67.34802440    156.19866773    109.43748911
 H    -69.60912857    156.11688654    110.40101556
 H    -70.28577054    156.71838168    108.86849284
 H    -69.04286245    158.82393149    109.13771438
 H    -68.36297428    158.22820171    110.67105216
 H    -69.69660631    157.87624463    112.08191511
 H    -71.07924602    158.38801298    111.08458506
 H    -70.14660023    160.66681960    110.96826158
 H    -68.76533571    160.15155258    111.96569574
 H    -70.09786791    159.63772065    113.86566394
 H    -71.57718096    160.12174088    113.00216872
 H    -70.61806047    162.44081808    112.88511159
 H    -69.17449672    161.86379498    113.75196493
 H    -70.10309187    161.25388078    115.71731598
 H    -71.72992980    161.74240231    115.18532751
 H    -70.27315275    164.06201637    115.19023756
 H    -68.91982932    163.03676020    115.72468320
 H    -70.12757326    162.49432952    117.79335752
 H    -71.48771735    163.51675556    117.27094031
 H    -70.02168487    165.49561776    117.32909093
 H    -68.66189204    164.47271045    117.85148039
 H    -69.87308540    163.92810817    119.92760296
 H    -71.23154884    164.95157461    119.40285523
 H    -69.76558796    166.92940481    119.46113386
 H    -68.40645221    165.90685865    119.98593481
 H    -69.48662423    165.30121661    122.04352672
 H    -70.90099061    166.29688202    121.62342579
 H    -69.12656119    168.21782657    121.75403226
 H    -67.91919846    166.97276032    122.15447194
 H    -69.14324708    166.45626986    124.22975764
 H    -70.34966580    167.70171375    123.82765062
 H    -68.61034212    169.43763157    123.97002767
 H    -67.40160574    168.19452375    124.37240311
 H    -68.55872740    167.63382025    126.43379235
 H    -69.79881977    168.86316065    126.08859710
 H    -68.20125030    170.66541031    126.19683788
 H    -66.89191590    169.51235191    126.54949409
 H    -68.01500406    168.89450523    128.65728036
 H    -69.32096828    170.04934681    128.29802414
 H    -67.70520732    171.90667251    128.40538676
 H    -66.40051458    170.75035401    128.76451217
 H    -67.52793892    170.13765181    130.86904486
 H    -68.83109842    171.29476884    130.50693692
 H    -67.21123706    173.14882422    130.61540437
 H    -65.90971459    171.98981336    130.97734325
 H    -66.85353218    171.27755625    133.03218898
 H    -68.22878932    172.38899428    132.82813021
 H    -66.48510701    174.26945312    132.75146460
 H    -65.32517440    173.06134585    133.35420819
 H    -66.22925133    172.45463132    135.27574801
 H    -67.64712089    173.50752827    135.05366558
 H    -65.84266402    175.38702538    135.18215726
 H    -64.62371474    174.10575978    135.38411712
 H    -65.63951231    173.44584070    137.51193984
 H    -66.90395885    174.68180861    137.30742843
 H    -65.28132351    176.47947849    137.41401903
 H    -63.96454514    175.30036818    137.62392444
 H    -64.75366727    174.66114781    139.78146967
 H    -66.29022258    175.53010141    139.55303134
 H    -64.01522700    177.26411327    139.81294617
 H    -63.13640703    175.71658158    139.84592747
 H    -64.27471065    175.12778063    141.95532349
 H    -65.14905159    176.67763584    141.91356921
 H    -63.01447442    177.88944676    142.10705805
 H    -62.13847699    176.34053252    142.14900863
 H    -63.27604397    175.75515735    144.25429611
 H    -64.15169918    177.30424684    144.21167723
 H    -61.31222222    177.64222054    144.45062526
 H    -61.34179978    175.86338997    144.39446828
 H    -62.45408481    175.29842522    146.18603296
 H    -62.68426319    176.98963753    146.69109285
 H    -60.24783337    177.25225408    146.92977335
 H    -60.01567599    175.56124067    146.42495332
 H    -61.24879867    174.79762535    148.41577217
 H    -61.48095605    176.48863876    148.92059219
 H    -58.96537373    176.62066624    149.12579544
 H    -58.86295558    174.92117121    148.60666746
 H    -60.53638733    174.74835686    150.76964632
 H    -60.22676388    176.05278434    151.11028675
 H    -59.94301578    173.18897377    150.38915709
 H    -61.42650980    174.16757356    150.48842755
 H    -58.78800845    172.72473482    151.39366180
 H    -59.27285286    172.67976168    149.68159581
 H    -61.30666620    171.43017981    150.29185201
 H    -60.82076314    171.47583973    152.00359967
 H    -58.79826650    170.37453076    151.82660374
 H    -59.18904164    169.91591091    150.15172186
 H    -61.20208833    168.73744714    150.94761423
 H    -60.80885846    169.19758857    152.62150395
 H    -58.71002131    167.79548760    152.32535908
 H    -59.23456417    167.42566737    150.66513185
 H    -61.22180380    166.27031199    151.55188390
 H    -60.69621699    166.64077564    153.21163745
 H    -58.64458340    165.16783879    152.52003565
 H    -59.47374922    164.90067824    150.96781919
 H    -61.33097592    163.79482103    152.14153570
 H    -60.50701170    164.05868875    153.69708173
 H    -58.64969908    162.61963256    152.95619743
 H    -59.47436983    162.35633865    151.40092860
 H    -61.33426659    161.24825754    152.58064217
 H    -60.50605589    161.51379211    154.13364736
 H    -58.80286711    159.87752830    152.80790966
 H    -59.98283080    159.93953235    151.47670424
 H    -61.65975003    158.84989702    152.91793855
 H    -60.47720038    158.78967337    154.24692918
 H    -59.04238964    157.30727590    152.89820475
 H    -60.22683709    157.36956127    151.57100038
 H    -61.83969189    156.14448583    152.80076302
 H    -60.94449787    156.34585888    154.32599849
 H    -59.29057254    154.73458084    152.99117855
 H    -60.46702737    154.80230892    151.65714947
 H    -62.14920245    153.71245597    153.09382380
 H    -60.96878067    153.64744989    154.42447977
 H    -59.53351394    152.16578591    153.07778540
 H    -60.71436371    152.23125683    151.74753202
 H    -62.48732235    151.24790073    152.81148004
 H    -61.55066778    151.02990954    154.30928668
 H    -59.99751842    149.53283777    153.12122065
 H    -60.93365661    149.75030436    151.62301497
 H    -62.83746945    148.62288961    152.53559627
 H    -62.10530660    148.57585743    154.15732134
 H    -60.47382425    146.95358652    152.76517623
 H    -61.51165505    147.30570637    151.36261233
 H    -63.43958267    146.28845666    152.38376422
 H    -62.48836803    145.88687986    153.83365851
 H    -61.04549678    144.41947284    152.47923636
 H    -61.99730516    144.82168811    151.02990881
 H    -63.98689222    143.78749482    152.04667818
 H    -63.03678559    143.38434325    153.49686191
 H    -61.59361923    141.91705773    152.14382864
 H    -62.54356244    142.32003360    150.69348902
 H    -64.51428738    141.25998457    151.58519737
 H    -63.69576271    140.94728376    153.13455280
 H    -62.32843556    139.33048422    151.58084655
 H    -63.18741157    140.03140935    150.18831977
 H    -65.13939100    138.75365168    151.60684311
 H    -63.83527892    138.32043649    152.73816224
 H    -62.72825906    137.01546579    150.96942913
 H    -64.03056139    137.44640501    149.83515990
 H    -65.65377188    136.24542272    151.24918030
 H    -64.34892646    135.81645322    152.38127139
 H    -63.38920571    134.61748198    150.23510456
 H    -64.94021840    135.02519459    149.46283728
 H    -66.04764280    133.62096641    151.23793543
 H    -64.44445842    133.27909129    151.93161252
 H    -63.79516347    132.12625132    149.85163273
 H    -65.39937368    132.47008606    149.16130388
 H    -66.41180627    131.06806290    150.94779971
 H    -64.78829731    130.75147180    151.60526105
 H    -64.16405042    129.60509536    149.51760890
 H    -65.78707055    129.92071798    148.85847713
 H    -66.99222817    128.68862482    150.39274945
 H    -65.51194515    128.20296230    151.25365638
 H    -65.29308387    127.12386600    148.72737788
 H    -66.87024336    127.89519153    148.43430528
 H    -67.33539014    126.03829914    150.40321496
 H    -65.59784485    125.67863781    150.26233644
 H    -65.93891436    124.92918807    147.94194932
 H    -67.67674145    125.28820487    148.08098396
 H    -67.88242153    123.57430998    149.84273521
 H    -66.14399875    123.22004341    149.69904072
 H    -65.65989352    122.51203362    147.86796240
 H    -67.33313577    122.57399240    147.26406826
 H    -68.02564220    120.92780531    148.94456004
 H    -66.35835302    120.85088168    149.56302282
 H    -65.59342527    119.96775246    147.39539776
 H    -67.26028768    120.04414560    146.77572007
 H    -67.92696467    118.37537883    148.48938588
 H    -66.24927026    118.32668408    149.08203833
 H    -65.50850611    117.44367521    146.90366904
 H    -67.18700624    117.49340085    146.31338829
 H    -67.86244124    115.84954965    147.99686722
 H    -66.19199217    115.77898546    148.60751218
 H    -66.00407553    114.85259586    146.04816451
 H    -67.75941804    115.13607406    145.96643642
 H    -68.11732900    113.44943536    147.72309568
 H    -66.36248470    113.16357422    147.80718815
 H    -66.38182045    112.36054604    145.47865388
 H    -68.13666360    112.64644119    145.39465292
 H    -68.50468296    110.96348706    147.14885327
 H    -66.75118554    110.67130574    147.23909487
 H    -66.77093397    109.86746142    144.90813775
 H    -68.52437237    110.16146197    144.82279082
 H    -68.97250215    108.43145533    146.42266501
 H    -67.24220767    108.25011025    146.79877885
 H    -67.13459210    107.37844404    144.34982544
 H    -68.88811740    107.66423363    144.24147418
 H    -69.69492417    106.27342945    145.76281019
 H    -68.07740207    105.66152116    146.18406686
 H    -67.81362761    104.78844999    143.89507212
 H    -69.43131886    105.40100853    143.47541307
 H    -70.43154726    103.87667087    145.13651125
 H    -68.81116014    103.26829996    145.55183894
 H    -68.64013923    102.41554978    143.19848123
 H    -70.26720685    103.05781408    142.86921814
 H    -71.25603048    101.50869141    144.45278554
 H    -69.64635915    100.91915864    144.93203076
 H    -70.01674392    100.21170341    142.26952806
 H    -71.59053545    101.02208133    142.45590001
 H    -72.20266106     99.33992751    144.18844641
 H    -70.65614593     98.51043121    143.89096779
 H    -71.33346204     98.06841519    141.56725467
 H    -72.88151850     98.89683282    141.85967920
 H    -73.47894957     97.19041966    143.53234962
 H    -71.93094069     96.36186917    143.24004964
 H    -72.64188131     95.93143722    140.90467839
 H    -74.18067371     96.76619016    141.22650471
 H    -74.21684641     94.56304755    142.84704997
 H    -72.57613849     94.25012734    142.23188731
 H    -73.48899228     93.92566107    139.96653307
 H    -75.12919267     94.23879234    140.58294054
 H    -74.81279960     92.24573604    142.11807950
 H    -73.32692615     91.88244973    141.20787631
 H    -73.65534870     91.56054163    139.25965492
 H    -75.41620198     91.78646042    139.38858540
 H    -75.56404176     89.83462732    140.87726603
 H    -73.80213286     89.60939566    140.76231218
 H    -74.62244107     89.21459539    138.21548460
 H    -76.26311413     89.53324110    138.82779455
 H    -75.13305103     87.19017219    140.00260168
 H    -73.74447765     87.62801380    138.97867524
 H    -75.11427791     87.28747973    136.96383004
 H    -76.50623692     86.84864407    137.98272163
 H    -75.26969332     84.89195356    138.82684374
 H    -73.87836670     85.33182541    137.80753532
 H    -73.97463511     85.38252583    135.98172206
 H    -75.67459938     84.85833601    135.92161226
 H    -75.07488641     82.71446829    136.94969022
 H    -73.36937878     83.21921364    137.01855636
 H    -73.30240780     83.32667914    134.55842542
 H    -75.00793229     82.82192357    134.49005377
 H    -74.41236177     80.66663736    135.52208930
 H    -72.70663791     81.17067495    135.59078342
 H    -72.63955096     81.27817315    133.13080881
 H    -74.34528135     80.77413161    133.06230622
 H    -73.72185105     78.61541326    134.10018214
 H    -72.02214366     79.14056166    134.15917892
 H    -71.96722034     79.24438576    131.69955677
 H    -73.66688597     78.71926478    131.63913044
 H    -73.00588023     76.56962902    132.67935895
 H    -71.31408987     77.12076079    132.72799835
 H    -71.25012283     77.19901726    130.28001398
 H    -72.95705254     76.69970704    130.20689124
 H    -72.35605473     74.53991552    131.24155244
 H    -70.65204966     75.04977512    131.30993814
 H    -69.90774198     75.38779953    129.43294969
 H    -71.41009845     74.87798789    128.62592814
 H    -71.19923193     72.62892229    129.55327841
 H    -69.69243831     73.09956176    130.37567621
 H    -68.62680702     73.50329306    128.19192697
 H    -70.13364891     73.03263812    127.36962647
 H    -69.89188647     70.75391890    128.32639031
 H    -68.38926293     71.26197502    129.13402151
 H    -67.18697573     71.71324671    127.18225852
 H    -68.56923157     71.24402348    126.16369827
 H    -68.60062571     69.02434032    126.69103070
 H    -67.40960925     69.21616910    127.99982717
 H    -65.67971511     69.78648615    126.34145330
 H    -66.87100169     69.59457790    125.03291435
 H    -67.11712812     67.21218131    125.60294226
 H    -65.92603256     67.40182355    126.91198537
 H    -64.19395097     67.97228164    125.25917767
 H    -65.38223767     67.78346517    123.94746515
 H    -65.63657902     65.40294459    124.50741329
 H    -64.44904735     65.58308761    125.82102803
 H    -62.79175069     66.15081100    123.96132881
 H    -64.10631533     65.93243130    122.78128780
 H    -64.29153506     63.56316345    123.41059498
 H    -62.97751971     63.77237827    124.59290605
 H    -61.42171518     64.31522648    122.75818472
 H    -62.73944455     64.10486328    121.58021898
 H    -63.15132238     61.87048299    121.95486882
 H    -61.87160367     61.77945502    123.18868428
 H    -60.18350088     62.32723326    121.48278677
 H    -61.46120195     62.41884506    120.24692515
 H    -61.99302127     60.05753394    120.54702790
 H    -60.72474397     59.91915083    121.78823275
 H    -59.01802015     60.46678034    120.09304990
 H    -60.29177074     60.60359989    118.85728839
 H    -60.69877041     58.11037643    119.35533675
 H    -59.35015725     58.18373325    120.51470209
 H    -57.81804170     58.76220419    118.64966058
 H    -59.17850791     58.62117006    117.51057861
 H    -59.22500259     56.16232148    118.27525616
 H    -57.85741608     56.52722403    119.35452439
 H    -56.45003925     57.05188877    117.40697839
 H    -57.81336709     56.68838613    116.32186564
 H    -57.74194357     54.33272029    117.15887861
 H    -56.38125462     54.76885843    118.22028134
 H    -54.75584625     55.36119855    117.20104193
 H    -55.51215594     55.12282232    115.60748017
 H    -55.76760980     52.75055850    115.96354609
 H    -55.01900166     52.89019715    117.57238218
 H    -52.91605051     53.63588049    116.52368005
 H    -53.66855991     53.49497383    114.91677570
 H    -54.29125065     52.04315382    114.16615192
 H    -53.82987426     50.98798292    115.52335967
 H    -51.45651989     51.53398952    115.13048164
 H    -51.92503310     52.58766480    113.77455743
 H    -52.70777098     50.07438609    113.01178306
 H    -52.06037250     49.55665197    114.58693170
 H    -49.85754963     49.93972501    114.12574334
 H    -50.21676919     50.87994995    112.65768168
 H    -51.01440074     48.70521752    111.64132589
 H    -50.61483045     47.88045549    113.16722819
 H    -48.24593661     48.43464063    112.88631289
 H    -48.61542374     49.24782911    111.34667968
 H    -49.38274983     47.10645649    110.40079147
 H    -49.01303830     46.29394587    111.94072866
 H    -46.59443930     47.06660987    111.54323674
 H    -47.12098168     47.57065209    109.91936444
 H    -47.83413952     46.34150564    108.72312924
 H    -47.64729937     44.95609011    109.82493741
 H    -45.20712614     45.25443660    109.80273922
 H    -45.38464198     46.64086261    108.70066040
 H    -46.33585591     45.14823347    106.98432823
 H    -46.15664292     43.76464729    108.08969634
 H    -43.70815668     44.07200188    108.06083517
 H    -43.89678459     45.45455964    106.95574683
 H    -44.90477387     44.72334856    105.20442295
 H    -44.63329401     43.03790800    105.70826369
 H    -42.42543973     42.94061195    105.80643952
 H    -42.22788989     44.67173720    105.44250808
 H    -43.18243398     44.31896130    103.20381437
 H    -43.38291357     42.58664400    103.56039729
 H    -40.95803031     42.32044061    103.77972326
 H    -40.73016847     44.04973881    103.42493690
 H    -41.68539726     43.70949261    101.17772102
 H    -41.91160466     41.98083703    101.53667337
 H    -39.48835935     41.68497614    101.76223604
 H    -39.23943496     43.41082938    101.40483721
 H    -40.35948893     42.98838851     99.16756990
 H    -40.28511163     41.25098001     99.54723606
 H    -38.14320420     40.86279410     99.75121987
 H    -37.70338162     42.56282561     99.46016037
 H    -38.48728084     42.70003612     97.28336594
 H    -39.01946286     41.00168825     97.30912428
 H    -37.80873356     39.61918709     97.53478002
 H    -36.39093645     40.69242036     97.61407918
 H    -36.80874833     41.44801915     95.31733051
 H    -38.22954167     40.38022719     95.22020546
 H    -36.64966333     38.44434509     95.50326786
 H    -35.29351820     39.59387281     95.59114881
 H    -35.54435397     40.21189852     93.30572272
 H    -37.12609243     39.40448914     93.18547212
 H    -36.09149548     37.23243969     93.27334758
 H    -34.51154060     37.94061986     93.68625205
 H    -34.39878197     38.97986865     91.45374693
 H    -35.97896419     38.27009226     91.04446914
 H    -35.18713643     36.02174699     91.22543624
 H    -33.55582960     36.59868240     91.64286913
 H    -33.37009052     37.66691269     89.42992617
 H    -35.00159340     37.08902520     89.01458167
 H    -34.23920967     34.77593771     89.11466337
 H    -32.62926950     35.30121760     89.66278779
 H    -32.26723838     36.43050015     87.50135968
 H    -33.87788383     35.90325301     86.95721047
 H    -32.74828583     33.53979039     87.24431738
 H    -31.27842888     34.39953871     87.76260305
 H    -31.10336583     35.44386508     85.53954681
 H    -32.57309215     34.58474507     85.01985070
 H    -31.42898324     32.42854944     85.32346205
 H    -29.95604357     33.28173112     85.84384308
 H    -29.77656968     34.32876645     83.62196833
 H    -31.24944506     33.47588826     83.10090828
 H    -30.12777554     31.31406427     83.39700888
 H    -28.64584288     32.14991164     83.91998250
 H    -27.77088220     33.30441374     82.69154701
 H    -28.92687235     32.99925109     81.37290028
 H    -28.25652988     30.62181819     81.35619367
 H    -27.10459161     30.94050720     82.67518655
 H    -26.23468602     32.43645920     80.52224309
 H    -27.64861427     31.75252588     79.68480129
 H    -26.62042977     29.49340787     79.94872356
 H    -25.23406779     30.23761068     80.78084692
 H    -24.65588332     31.48304217     78.74728207
 H    -26.03760055     30.74800470     77.89943534
 H    -25.33858641     28.49979004     78.19208067
 H    -23.74029464     29.09711749     78.69896330
 H    -23.70837462     30.38748211     76.48108166
 H    -25.11401570     29.40075944     76.01330159
 H    -25.13670472     27.61964371     75.93388011
 H    -23.42746746     27.44456172     76.39876821
 H    -22.72296438     28.64345697     74.38388028
 H    -24.42371263     28.83255243     73.89401807
 H    -24.67513564     26.40652247     73.70115834
 H    -22.97737497     26.18485411     74.18771615
 H    -22.41771766     27.45302432     72.04072413
 H    -24.16256419     27.58486374     71.71454073
 H    -24.00369871     24.99041591     71.59165683
 H    -22.26528224     25.14711816     71.94039631
 H    -21.37398182     26.20839913     70.36396399
 H    -22.90118694     26.37872512     69.46568774
 H    -22.65167000     23.72729103     69.47283781
 H    -21.11995784     23.98198211     70.34304293
 H    -20.21113181     25.18981916     68.40160360
 H    -21.74084813     24.93761607     67.52717336
 H    -21.43261066     22.52316726     67.55833353
 H    -19.89449642     22.71860840     68.43256118
 H    -18.95609457     23.93252466     66.50386552
 H    -20.49531416     23.73574272     65.63188698
 H    -20.24877137     21.31156910     65.62792161
 H    -18.70322422     21.45616950     66.49892184
 H    -17.71870965     22.66810316     64.61187592
 H    -19.25306101     22.53657882     63.71927641
 H    -18.47010729     19.95217343     64.00958381
 H    -17.06339488     20.61496415     64.87568735
 H    -16.73095686     21.62649058     62.40252565
 H    -18.23381614     20.77168455     61.97945674
 H    -17.16856059     18.61322332     62.43527856
 H    -15.65384738     19.44461457     62.86271179
 H    -15.41691722     20.32743130     60.61262609
 H    -16.92474090     19.51918613     60.12122589
 H    -15.60670251     17.35799199     60.74208177
 H    -14.19897742     18.40781165     61.03269396
 H    -14.23932789     19.10647131     58.66824353
 H    -15.64704754     18.05521449     58.38284701
 H    -14.32901962     16.07009241     58.92070023
 H    -12.89898146     17.08850574     59.21411430
 H    -12.99215051     17.75929565     56.80458435
 H    -14.42114616     16.72021291     56.58884110
 H    -13.39389948     14.70027377     57.06658132
 H    -11.82544220     15.49758043     57.33585908
 H    -12.65804844     15.84388525     54.65066831
 H    -14.07173534     14.90878948     55.19413120
 H    -12.01410555     13.16127497     55.48503653
 H    -10.98295144     14.47994028     54.87996656
 H    -11.88293708     14.68951313     52.78565770
 H    -13.05191322     13.38138799     53.08660637
 H    -11.32892109     11.73014750     53.36104859
 H    -10.07234237     12.95687942     53.07052252
 H    -10.93904385     13.29007354     50.78459111
 H    -12.19281384     12.06234625     51.08294188
 H    -10.50011895     10.33121976     51.40285128
 H     -9.21994229     11.51717117     51.05223234
 H    -10.11279072     11.82353208     48.78174347
 H    -11.39593610     10.63848001     49.12446228
 H     -9.71950917      8.87390128     49.42272982
 H     -8.42137333     10.04313680     49.08214457
 H     -9.34371808     10.33321842     46.79473916
 H    -10.62750618      9.15977939     47.17315110
 H     -8.71065981      7.48225312     47.43012445
 H     -7.57168069      8.79173118     47.03482651
 H     -8.86822439      8.90229917     44.79250607
 H     -9.69628289      7.41631624     45.31637677
 H     -7.42846245      6.32146833     45.37148393
 H     -6.70113920      7.85908705     44.84708313
 H     -8.38654435      6.97717717     42.80610387
 H     -8.70618434      5.61594170     43.90752792
 H     -6.00263091      5.54239904     43.19745636
 H     -6.40460803      6.99605571     42.25217156
 H     -7.94207373      5.63267561     40.86831593
 H     -7.52277470      4.19483998     41.83012865
 H     -5.15896437      4.54552629     40.90889686
 H     -5.76497445      5.96352896     40.01991605
 H     -7.18959504      5.37673973     38.64560904
 H     -7.05687988      3.65237516     39.06658433
 H     -4.76853908      3.51273900     38.37092804
 H     -4.77586169      5.23137193     37.90777159
 H     -6.50875720      4.68236734     36.19442623
 H     -6.45383102      2.97873540     36.70715225
 H     -4.06164408      2.93869225     35.94319286
 H     -4.20938052      4.64599289     35.46198072
 H     -5.96620500      3.70299387     33.79988973
 H     -5.63476257      2.08587426     34.46572513
 H     -3.40154232      1.97642786     33.80938114
 H     -3.48924908      3.58896256     33.06084522
 H     -5.15518263      2.77813660     31.45413232
 H     -5.08163609      1.15832648     32.18834806
 H     -2.70501821      0.99241962     31.50963623
 H     -2.80545034      2.61450888     30.78368410
 H     -4.45685872      1.93048548     29.17329721
 H     -4.40726504      0.26578584     29.80145504
 H     -2.04986074      0.06976425     29.14313625
 H     -2.08479397      1.73314348     28.51051008
 H     -3.81711406      0.82669584     26.85576179
 H     -3.64857647     -0.76987973     27.62440227
 H     -1.24097019     -0.71292118     26.82419524
 H     -1.55354519      0.88504162     26.10511359
 H     -3.21719606     -0.27753879     24.59976750
 H     -2.82080110     -1.81759382     25.39937254
 H     -0.47527611     -1.50710694     24.49232314
 H     -1.01264957      0.00438744     23.72103775
 H     -2.56611780     -0.82147775     22.29258122
 H     -2.27434745     -2.49356161     22.82855910
 H      0.02659640     -2.54111063     22.26963964
 H     -0.19634217     -1.03387951     21.34941172
 H     -1.65780222     -1.38096068     19.87810358
 H     -1.88881271     -3.08179529     20.34933861
 H      0.45665020     -3.55370362     19.73156698
 H      0.67293939     -1.84976511     19.26457746
 H     -1.05653484     -2.22041000     17.48722492
 H     -1.21257567     -3.91172690     18.01954539
 H      1.23868758     -4.11994557     17.29207568
 H      1.19520179     -2.40372906     16.82199426
 H     -0.38357635     -2.53631369     15.17056228
 H     -0.56612489     -4.29242371     15.39643905
 H      2.03472706     -3.91838430     14.57125925
 H      1.61147000     -2.18965455     14.54648862
 H     -0.05260398     -2.66279424     12.76826417
 H      0.39410429     -4.38503582     12.81927702
 H      2.70116305     -3.48186348     12.03396160
 H      2.00134886     -1.84574486     12.07449072
 H      0.54151128     -3.11226814     10.16419580
 H      1.55156183     -4.53299640     10.52418995
 H      3.57110556     -3.47843822      9.81484254
 H      2.68632189     -1.98914597      9.40565661
 H      1.35401094     -2.92137376      7.73415930
 H      2.10299533     -4.52041249      7.95857899
 H      4.17418481     -4.27285534      7.45729322
 H      3.97988728     -2.54721529      7.06654833
 H      2.77028988     -2.16526480      5.56420457
 H      2.41591661     -3.87968215      5.24255350
 H      4.55691451     -4.54002600      4.68626765
 H      5.19078395     -2.89487700      4.93113695
 H      4.05218866     -1.77712696      3.33951648
 H      3.21231642     -3.25051243      2.79913094
 H      5.20075929     -4.35182288      2.10993624
 H      6.18676865     -2.95255877      2.59790360
 H      4.34996055     -2.33262097      0.48156653
 H      3.90629474     -4.04296498      0.69639360
 H      6.35351355     -4.45451809     -0.06040186
 H      6.54377928     -2.68956717     -0.19083910
 H      4.94517506     -2.40309662     -1.88549757
 H      4.60409499     -4.14970196     -1.92156497
 H      7.23084916     -3.91934662     -2.68505576
 H      6.98464093     -2.17093112     -2.45990821
 H      6.41866366     -2.13397547     -4.65829392
 H      5.60310578     -4.02027619     -4.46790372
 H      7.91475142     -3.62149816     -5.11411249
 H      6.79830465     -2.22006865     -6.04468464
 H      5.97525629     -2.58240848     -6.97665588
 H      6.56722967     -4.23867277     -6.70348416
 H      8.79207192     -2.92842296     -7.51643692
 H      7.75045516     -1.48912597     -7.62472052
 H      7.46822642     -1.90719919     -9.73966448
 H      8.25112780     -2.88990814     -9.79433370
 H      9.04641763     -1.92394513    -10.13803189
 H      8.21069285     -0.92687772     -9.67065927
 H      8.23782940      0.24651325    -10.57638687
 H      8.26313934      0.24707913    -10.55335776
 H      8.02451117      1.52909158    -10.82603830
 H      8.16853309      1.47776827    -10.86015382
 H      8.03286227      2.66029773    -11.10340878
 H      6.80429422      2.38740399    -11.79091072
 H      7.02593896      3.83922164    -11.92894184
 H      8.26861111      3.79155493    -11.34246748
 H      8.33965985      5.00559615    -11.36196533
 H      7.45585896      5.06983310    -12.43534173
 H      7.43010260      5.80125145    -13.23166286
 H      9.00949593      5.07958767    -12.84053019
 H      8.35516331      6.39048851    -11.82976093
