1502
Collab-Geweke equil step 5600000 E=       108.3682
 C      0.00000000      0.00000000      0.00000000
 C      1.54000000      0.00000000      0.00000000
 C      2.16637443     -0.76969615      1.17763446
 C      3.69597010     -0.62268916      1.27925148
 C      4.44605415     -0.96678261     -0.02096912
 C      5.97331797     -1.07232918      0.14613905
 C      6.73092959     -1.33160553     -1.16930780
 C      8.26103702     -1.20890623     -1.04554946
 C      9.01567295     -1.42083554     -2.37114766
 C     10.53644481     -1.20116250     -2.26820749
 C     10.96406270      0.27509355     -2.36521800
 C     12.47235885      0.50534170     -2.15634364
 C     12.82927358      1.11562987     -0.78822075
 C     14.34291493      1.24522001     -0.53583962
 C     15.07505828     -0.10393995     -0.41201101
 C     16.47095454     -0.12108817     -1.06222603
 C     17.24664679     -1.43375369     -0.84586811
 C     18.77726140     -1.26399410     -0.84509030
 C     19.55467764     -2.59153207     -0.77532683
 C     21.06932701     -2.41966162     -0.55647104
 C     21.85614421     -3.74348771     -0.55468437
 C     23.37938824     -3.56699611     -0.69673483
 C     24.18395139     -4.85967497     -0.46595463
 C     25.64418414     -4.62082218     -0.03902411
 C     26.41384430     -5.90865157      0.30842184
 C     27.92028837     -5.84171182     -0.00422069
 C     28.62075551     -7.21318215     -0.00808434
 C     29.81522354     -7.30373588     -0.97588914
 C     30.41981623     -8.71513083     -1.09434578
 C     31.64684004     -8.79515080     -2.02149699
 C     32.07130179    -10.23239785     -2.37611389
 C     33.45107580    -10.32899707     -3.05323446
 C     33.71966502    -11.68225243     -3.73745646
 C     34.96460303    -12.41665441     -3.20605917
 C     35.17753040    -13.81305724     -3.81950932
 C     36.60176594    -14.36847040     -3.63331226
 C     36.84048565    -15.72439349     -4.32330173
 C     38.28782564    -16.23831551     -4.21064682
 C     38.49561745    -17.65459139     -4.77861267
 C     39.92311627    -18.20126585     -4.59154543
 C     40.12722148    -19.62295348     -5.14719401
 C     41.52517704    -20.20790231     -4.87304968
 C     41.79850099    -21.54133666     -5.59335993
 C     43.29011063    -21.91598301     -5.67298905
 C     43.56622218    -23.23179635     -6.42398683
 C     45.03983288    -23.67745762     -6.38580914
 C     45.26338349    -25.13948844     -6.81486742
 C     45.63512457    -25.30660192     -8.29995384
 C     45.57475369    -26.76160547     -8.80087301
 C     46.15999096    -26.96339353    -10.21097191
 C     46.17965643    -28.43110121    -10.67685539
 C     46.92360821    -28.65636804    -12.00628783
 C     46.85885122    -30.10582468    -12.52250676
 C     46.72079527    -31.16145625    -11.40977025
 C     46.81612359    -32.61486731    -11.90987906
 C     46.74737666    -33.66873448    -10.78905889
 C     46.53401245    -35.10769056    -11.29451026
 C     46.91067202    -36.19383808    -10.26980975
 C     47.59384084    -37.42797202    -10.88770439
 C     48.36949350    -38.28829331     -9.87290874
 C     49.13438799    -37.47172203     -8.81472739
 C     50.03510439    -38.32106869     -7.89880150
 C     50.53004611    -37.57846619     -6.64374205
 C     52.04416688    -37.70925368     -6.39487879
 C     52.52592819    -37.03624350     -5.09620125
 C     53.94924047    -37.44238280     -4.67095657
 C     54.20044833    -37.34925903     -3.15443998
 C     55.61921907    -37.76936016     -2.72758565
 C     55.93210685    -37.50113965     -1.24375312
 C     57.39539190    -37.77859487     -0.85207024
 C     57.80070617    -37.19117638      0.51257618
 C     59.19582413    -37.63072889      0.99428093
 C     59.62754656    -36.99333086      2.32804984
 C     59.31262316    -35.48964619      2.43461287
 C     59.12623393    -34.98955390      3.87917743
 C     58.59380492    -33.54798572      3.97918019
 C     58.40151294    -33.05007209      5.42372365
 C     58.08807075    -31.54615632      5.53138676
 C     56.59380731    -31.20540568      5.38083522
 C     56.26868489    -29.71310358      5.57814179
 C     56.89230592    -28.79023224      4.51465447
 C     56.56732616    -27.29791220      4.71206028
 C     57.33552708    -26.35877767      3.76364387
 C     56.92610422    -24.87880004      3.88043059
 C     57.57254507    -23.96474478      2.82297270
 C     56.63131102    -22.87465914      2.27763633
 C     55.34382348    -23.42303812      1.63478617
 C     54.26432281    -22.35372585      1.38408804
 C     52.87794320    -22.93112857      1.04326889
 C     51.82971768    -21.86576125      0.67203352
 C     50.40069955    -22.20499829      1.13509445
 C     49.87011669    -23.54708814      0.59762198
 C     48.33676276    -23.68033265      0.64930984
 C     47.58259750    -22.44574087      0.12146715
 C     46.10081603    -22.70913703     -0.20494689
 C     45.30783563    -21.44380279     -0.58139253
 C     43.78012907    -21.63797707     -0.57839245
 C     42.98155410    -20.32207325     -0.53069405
 C     41.47840260    -20.49075146     -0.81997460
 C     40.72296578    -19.16147835     -1.00422494
 C     39.20260014    -19.26933048     -0.78409714
 C     38.51590048    -17.92362905     -0.48554862
 C     36.98065940    -18.00920587     -0.40004175
 C     36.30073305    -16.68591185     -0.00230680
 C     34.77030189    -16.78529270      0.13734963
 C     34.06546116    -15.42445824      0.28877326
 C     32.53459560    -15.49144329      0.13526868
 C     31.87165939    -14.12748730     -0.13257389
 C     30.36034745    -14.09703354      0.16171983
 C     29.72090528    -12.70413806      0.01153362
 C     28.25061434    -12.63771386      0.46478009
 C     27.61907207    -11.23877927      0.33933538
 C     26.20602072    -11.13307815      0.94242175
 C     25.46269738     -9.83595268      0.57291406
 C     24.04895678     -9.73106667      1.17452559
 C     23.30715759     -8.43214305      0.80828606
 C     21.82580924     -8.41688091      1.22896901
 C     21.22496208     -7.00453820      1.35494819
 C     19.79778225     -6.98027040      1.93302156
 C     19.08135044     -5.62613026      1.77608228
 C     17.64756966     -5.60725144      2.33779064
 C     17.10022134     -4.19386340      2.61045175
 C     15.61250579     -4.16404945      3.00720553
 C     15.02577196     -2.74566374      3.13180648
 C     13.48775957     -2.69646078      3.07100394
 C     12.90610684     -1.27053113      3.07318219
 C     11.41591344     -1.20133118      2.69090610
 C     10.81708730      0.21586507      2.75844906
 C      9.49291799      0.37370725      1.98821436
 C      8.80214229      1.73337811      2.20204630
 C      7.34356602      1.77917708      1.71005269
 C      6.64656617      3.13272782      1.94176718
 C      5.13250117      3.11379914      1.66096673
 C      4.76610026      2.67530570      0.23090593
 C      3.41800245      3.22811446     -0.26772697
 C      3.14267413      2.95698753     -1.75845985
 C      1.85811669      3.62038839     -2.28894216
 C      1.58320958      3.34991933     -3.77987226
 C      0.27514335      3.97518937     -4.29910258
 C      0.18973396      4.06452710     -5.83413483
 C     -0.97247222      4.93494492     -6.34721340
 C     -2.36742565      4.40467195     -5.96706145
 C     -3.52091970      5.05837394     -6.75046758
 C     -4.88054959      4.36001422     -6.56258390
 C     -6.09108059      5.23403980     -6.93980262
 C     -7.45073754      4.53588272     -6.75136255
 C     -8.65794414      5.38836813     -7.18439935
 C    -10.02206513      4.73314343     -6.89899698
 C    -11.21946751      5.69062083     -7.04413333
 C    -12.53501945      4.99326851     -7.43735442
 C    -13.58176451      5.93576224     -8.05995408
 C    -14.91570049      5.24872699     -8.40664901
 C    -16.08498385      6.22631613     -8.62732048
 C    -17.38830526      5.54951670     -9.09088907
 C    -18.66612451      6.20072140     -8.52989852
 C    -19.97026232      5.62378840     -9.11125288
 C    -21.23128159      5.99292989     -8.30803127
 C    -22.54963329      5.57087962     -8.98288115
 C    -23.79660413      5.77156524     -8.10175175
 C    -25.08604659      5.17501513     -8.69594541
 C    -26.27007576      5.13719399     -7.71195126
 C    -27.63101465      4.86591494     -8.37967352
 C    -28.75196143      4.49764438     -7.38999928
 C    -30.10056268      4.17847410     -8.06156836
 C    -31.08946044      3.42404364     -7.15353978
 C    -32.53984994      3.42354238     -7.67119803
 C    -33.55766944      2.82546326     -6.68228710
 C    -35.02632584      3.11814323     -7.04143444
 C    -36.04685413      2.36920747     -6.16438414
 C    -37.48554622      2.39930583     -6.71289044
 C    -38.45690119      1.45906487     -5.97531573
 C    -39.91082857      1.54236012     -6.47607225
 C    -40.88612917      0.61741481     -5.72449729
 C    -42.08237602      0.14682690     -6.57251881
 C    -43.13034168     -0.66024739     -5.78384965
 C    -44.36627016     -1.05930296     -6.61139750
 C    -45.22237811     -2.16451486     -5.96549827
 C    -46.44125810     -2.58521505     -6.80748575
 C    -47.37080561     -3.59187860     -6.10451356
 C    -48.75494265     -3.73302434     -6.76469728
 C    -49.61706910     -4.86529568     -6.17622503
 C    -50.92125677     -5.12744124     -6.95209502
 C    -51.64980346     -6.41836427     -6.53455765
 C    -53.01246351     -6.61933060     -7.22330296
 C    -53.61634940     -8.02132463     -7.01999392
 C    -54.62021011     -8.43531624     -8.11199878
 C    -55.11568758     -9.88823855     -7.98904018
 C    -55.80889882    -10.42297212     -9.25597278
 C    -56.75687075    -11.60891375     -8.99811299
 C    -57.17469992    -12.36544498    -10.27274207
 C    -58.37805490    -13.30623844    -10.07666948
 C    -58.81044897    -14.04526535    -11.35669862
 C    -59.75036346    -15.23866015    -11.10377648
 C    -60.17812947    -15.98122741    -12.38331159
 C    -60.91674113    -17.30683113    -12.12096142
 C    -61.38086289    -18.02894991    -13.39952915
 C    -62.32774286    -19.21543266    -13.14015105
 C    -63.02596568    -19.74779819    -14.40532766
 C    -63.69770858    -21.12101496    -14.21921698
 C    -64.29359492    -21.70726331    -15.51259718
 C    -65.04087596    -23.03857824    -15.31067735
 C    -65.29928385    -23.81587979    -16.61475850
 C    -66.09443286    -25.12017853    -16.41945655
 C    -66.16956205    -26.00259499    -17.67933623
 C    -66.78186604    -27.39414426    -17.43382766
 C    -66.97641485    -28.22761109    -18.71409474
 C    -67.89338264    -29.45131476    -18.53155877
 C    -68.02790644    -30.32671268    -19.79139282
 C    -68.84842220    -31.61205338    -19.57632731
 C    -68.89669147    -32.53751395    -20.80628373
 C    -70.19528300    -33.35705768    -20.92293758
 C    -70.32991820    -34.13231063    -22.24674128
 C    -71.42352949    -35.21642788    -22.22930135
 C    -71.69396316    -35.85551325    -23.60408698
 C    -72.69781492    -37.02273469    -23.56567164
 C    -73.19744571    -37.46513388    -24.95356647
 C    -74.31385490    -38.52496038    -24.90886412
 C    -75.07945654    -38.68460513    -26.23550185
 C    -76.28794176    -39.63538716    -26.15078467
 C    -76.64978692    -40.30912001    -27.48747915
 C    -77.95326404    -41.12803058    -27.44351457
 C    -78.26829795    -41.87481145    -28.75296940
 C    -79.32246756    -42.98720405    -28.60161170
 C    -79.81795572    -43.56685236    -29.93955764
 C    -80.56402946    -44.90717904    -29.80354902
 C    -81.44515139    -45.25948010    -31.01644148
 C    -82.92853890    -44.88375881    -30.84325083
 C    -83.73248334    -44.88498120    -32.15674687
 C    -85.20766601    -44.47612213    -31.98860895
 C    -86.07062592    -44.71519691    -33.24150298
 C    -87.58516935    -44.59067729    -32.99199733
 C    -88.45576765    -45.20285204    -34.10505647
 C    -89.94022355    -45.35756195    -33.72551000
 C    -90.77483981    -46.13068056    -34.76344224
 C    -92.24438633    -45.67808616    -34.84824387
 C    -92.99523327    -46.21565113    -36.08066133
 C    -94.36490201    -45.55286875    -36.31799458
 C    -95.25413713    -46.29780619    -37.33087616
 C    -96.47625392    -45.48946108    -37.80480519
 C    -97.47325001    -46.30075369    -38.65298152
 C    -98.51536192    -45.43887269    -39.38970665
 C    -99.69704579    -46.24093142    -39.96583600
 C   -100.58601394    -45.43843560    -40.93399719
 C   -101.46172200    -46.31259022    -41.85083365
 C   -102.31317774    -45.51162259    -42.85336743
 C   -102.90568860    -46.36243320    -43.99207380
 C   -104.14476051    -45.73848856    -44.66064982
 C   -104.70814450    -46.56556114    -45.83118364
 C   -106.10439086    -46.11640852    -46.30060671
 C   -106.65830999    -46.92916594    -47.48559573
 C   -108.10543249    -46.56916492    -47.87008984
 C   -108.57699626    -47.19910843    -49.19387184
 C   -110.10805938    -47.27700744    -49.34008228
 C   -110.58017630    -47.84207450    -50.69263720
 C   -111.98848581    -48.46400936    -50.65440953
 C   -112.71037389    -48.46397198    -52.01473214
 C   -114.17863612    -48.92320980    -51.94468463
 C   -114.74159510    -49.42841495    -53.28611854
 C   -116.18795152    -49.95044231    -53.20161670
 C   -116.87742688    -50.10938741    -54.56944716
 C   -118.29492278    -50.70614651    -54.49080890
 C   -119.09858981    -50.58598626    -55.79896822
 C   -120.55519202    -51.07301726    -55.68622600
 C   -121.40498181    -50.80273551    -56.94177572
 C   -122.73199322    -51.58323903    -56.97991975
 C   -123.72973164    -51.07119528    -58.03534822
 C   -125.01181515    -51.91692535    -58.14760921
 C   -125.58820963    -51.99443363    -59.57356919
 C   -126.80761309    -52.92555011    -59.70652521
 C   -127.06288000    -53.42229816    -61.14168380
 C   -127.62272325    -54.85488075    -61.21838233
 C   -127.30606406    -55.58127297    -62.53886758
 C   -128.00740616    -56.94418584    -62.68782323
 C   -127.80121678    -57.60785252    -64.06209849
 C   -128.17998209    -59.10006021    -64.10021711
 C   -128.32439052    -59.67351765    -65.52214987
 C   -128.97025984    -61.07066453    -65.57147947
 C   -129.10260309    -61.64973835    -66.99230978
 C   -130.14919443    -62.77264840    -67.11608213
 C   -130.05639231    -63.57355314    -68.42815658
 C   -131.01965237    -64.77299724    -68.49931774
 C   -130.88175787    -65.61177186    -69.78346814
 C   -131.92334667    -66.73899328    -69.91021441
 C   -131.73487461    -67.62919486    -71.15263923
 C   -132.58349082    -68.91418828    -71.13706798
 C   -132.28827358    -69.87397801    -72.30465115
 C   -132.91713039    -71.27028967    -72.14200783
 C   -132.34011553    -72.33217188    -73.09650247
 C   -133.06457227    -73.68972541    -73.03477032
 C   -132.49125137    -74.74982714    -73.99346081
 C   -133.15310464    -76.13435248    -73.86446529
 C   -132.56655833    -77.19950078    -74.80946399
 C   -131.17354779    -77.70731029    -74.39322954
 C   -130.75695581    -79.02347884    -75.07568942
 C   -129.26251065    -79.36250105    -74.92305389
 C   -128.38529068    -78.86489148    -76.08687081
 C   -126.87599979    -78.87154354    -75.78093493
 C   -125.98733404    -78.58605276    -77.00583011
 C   -124.49473052    -78.41085320    -76.66961615
 C   -123.60959971    -78.10147462    -77.89126600
 C   -122.10447534    -78.03225179    -77.57281846
 C   -121.19476365    -78.24716711    -78.79667958
 C   -119.69027923    -78.14265233    -78.48490515
 C   -118.79301476    -78.93216724    -79.45608107
 C   -117.29193349    -78.86240157    -79.11920159
 C   -116.43351455    -79.90030056    -79.86584917
 C   -114.91634399    -79.68399658    -79.71417167
 C   -114.08244103    -80.97028491    -79.86137284
 C   -112.57019839    -80.76322898    -79.65680005
 C   -112.16586311    -80.50305927    -78.19378101
 C   -110.67680355    -80.15723736    -78.00747795
 C   -110.34003936    -79.56107573    -76.62806461
 C   -108.97256122    -78.85542233    -76.56759291
 C   -108.63982225    -78.25124490    -75.19069262
 C   -107.15707549    -77.87480491    -75.01361919
 C   -106.77052841    -77.51541656    -73.56689138
 C   -105.38108143    -76.86495554    -73.43296029
 C   -104.90025984    -76.70857413    -71.97832787
 C   -103.55927717    -75.96439654    -71.83845221
 C   -103.27499964    -75.44783948    -70.41579446
 C   -101.91454958    -74.74192750    -70.26591483
 C   -101.57429515    -74.33835628    -68.81920920
 C   -100.18421397    -73.69529129    -68.65876687
 C    -99.99873564    -72.92578719    -67.33775921
 C    -98.54494403    -72.50099647    -67.05911466
 C    -98.40425791    -71.43459245    -65.95703032
 C    -96.94626828    -71.10769689    -65.58419589
 C    -96.77617498    -69.77599268    -64.82972114
 C    -95.30987314    -69.39734849    -64.55010086
 C    -95.12136566    -67.95663201    -64.03980588
 C    -93.66386474    -67.60085865    -63.69236323
 C    -93.45204935    -66.12189206    -63.31901076
 C    -92.10705484    -65.83750531    -62.62495460
 C    -91.79721901    -64.33923829    -62.44946181
 C    -90.65989973    -64.04732336    -61.45302289
 C    -90.36209237    -62.54825892    -61.26403462
 C    -89.27380717    -62.25321621    -60.21513752
 C    -88.73624178    -60.81075288    -60.25898941
 C    -87.38119943    -60.62548926    -59.55107865
 C    -86.88362090    -59.16837464    -59.52222429
 C    -85.71734930    -58.92394878    -58.54669031
 C    -85.38169735    -57.43640325    -58.33187392
 C    -84.42545368    -57.17386036    -57.15362552
 C    -84.44603367    -55.72152993    -56.64185137
 C    -83.49679471    -55.46125376    -55.45745207
 C    -83.47536138    -53.99662569    -54.98205201
 C    -82.69384490    -53.77406844    -53.67388526
 C    -82.48324803    -52.29145947    -53.31455314
 C    -81.46161326    -52.05952463    -52.18580666
 C    -81.63097410    -50.71503315    -51.45419229
 C    -80.44668070    -50.34471536    -50.54209917
 C    -80.26164543    -48.82928221    -50.34004884
 C    -78.95477737    -48.44833563    -49.61992693
 C    -78.92554126    -46.99899035    -49.10017362
 C    -77.63317095    -46.62892760    -48.34888636
 C    -77.40966476    -45.11290655    -48.19616056
 C    -76.14678853    -44.74341680    -47.39602248
 C    -75.68889063    -43.28544814    -47.58643491
 C    -74.35008776    -42.95478044    -46.90096736
 C    -73.82722436    -41.53720454    -47.19878009
 C    -72.49588179    -41.20129011    -46.50143623
 C    -72.00995326    -39.75962467    -46.74033835
 C    -70.68273260    -39.42122334    -46.03637111
 C    -70.31615550    -37.92601389    -46.07599362
 C    -69.01551256    -37.57991834    -45.32756473
 C    -68.74132522    -36.06878541    -45.21399293
 C    -67.62611782    -35.70786231    -44.21517014
 C    -67.13775811    -34.25118979    -44.32104727
 C    -66.10878573    -33.85579019    -43.24565200
 C    -65.32487476    -32.57083433    -43.57118546
 C    -64.11359244    -32.32627439    -42.65217209
 C    -63.10865576    -31.29653090    -43.20110798
 C    -61.90599551    -31.03937145    -42.27424374
 C    -60.80766302    -30.16138506    -42.90226096
 C    -59.64020553    -29.84206765    -41.95006381
 C    -58.51187388    -29.01745364    -42.59696368
 C    -57.53821448    -28.38584543    -41.58470954
 C    -56.36509676    -27.62767754    -42.23322805
 C    -55.58325082    -26.72969039    -41.25653158
 C    -54.46485593    -25.90594364    -41.92153847
 C    -53.72980877    -24.95534775    -40.95838057
 C    -52.37192773    -24.45597901    -41.48600729
 C    -51.59663642    -23.57699364    -40.48705380
 C    -50.20433422    -23.14419712    -40.98281760
 C    -49.32105594    -22.50863660    -39.89310099
 C    -47.89170681    -22.17643485    -40.36022311
 C    -47.01640179    -21.51727355    -39.27811983
 C    -45.63447195    -21.06144396    -39.78219254
 C    -44.93774061    -20.04104044    -38.86298522
 C    -43.50681547    -19.67786406    -39.30134141
 C    -42.92940102    -18.43946725    -38.59101339
 C    -41.46373036    -18.13604860    -38.95343113
 C    -40.87229946    -16.92460166    -38.20898113
 C    -39.35420085    -16.75134876    -38.40123110
 C    -38.71598070    -15.72131993    -37.45080192
 C    -37.22641214    -15.44902441    -37.73123131
 C    -36.65053043    -14.25291553    -36.95066498
 C    -35.15013470    -14.00825250    -37.19673946
 C    -34.36173539    -13.62654886    -35.93011842
 C    -32.89265694    -13.24924539    -36.19667164
 C    -31.95818089    -13.48216926    -34.99496411
 C    -30.58956446    -12.78763757    -35.12190818
 C    -29.61684472    -13.10520989    -33.97101109
 C    -28.39212289    -12.17352172    -33.91089808
 C    -27.47844459    -12.41764466    -32.69549857
 C    -26.27523007    -11.45992293    -32.61398836
 C    -25.34418667    -11.72436794    -31.41614570
 C    -24.08998644    -10.83116140    -31.38850786
 C    -23.01534461    -11.29119810    -30.38595553
 C    -21.82288299    -10.32505421    -30.25867127
 C    -20.79416935    -10.73720266    -29.18933414
 C    -19.60298417     -9.76971660    -29.06030462
 C    -18.70147982    -10.04504527    -27.84248525
 C    -17.50655967     -9.08168765    -27.71715396
 C    -16.81419012     -9.11807369    -26.34205379
 C    -15.47238475     -8.36371522    -26.29621017
 C    -14.73754110     -8.47405701    -24.94734787
 C    -13.46017960     -7.61849551    -24.85811725
 C    -12.73444087     -7.71586054    -23.50333928
 C    -11.59148607     -6.69832926    -23.33046813
 C    -10.58754100     -7.06631459    -22.22218969
 C     -9.53464105     -5.97744260    -21.94405397
 C     -8.51400903     -6.35666068    -20.85496998
 C     -7.41362438     -5.30231666    -20.63335702
 C     -6.66071270     -5.45377811    -19.29852242
 C     -5.54711939     -4.41155383    -19.08573499
 C     -4.70877859     -4.64130627    -17.81451569
 C     -3.92693100     -3.39967092    -17.34690901
 C     -3.10133016     -3.62483786    -16.06656409
 C     -2.19951423     -2.43605574    -15.68561122
 C     -1.16644493     -2.75933612    -14.59023110
 C     -0.50326326     -1.51639221    -13.96823390
 C      0.03205372     -1.73982980    -12.54166060
 C      0.44762016     -0.44516600    -11.81864594
 C      1.04030474     -0.67378335    -10.41577064
 C      1.72119457      0.56919109     -9.81327287
 C      2.34201544      0.33179847     -8.42409103
 C      3.15756957      1.52413829     -7.89042708
 C      4.01028765      1.19514583     -6.65097726
 C      4.79632678      2.39685261     -6.09452124
 C      5.59660907      2.08427839     -4.81645801
 C      6.24022393      3.32096439     -4.16226564
 C      7.10742644      2.99842282     -2.93119832
 C      8.08583492      4.12232191     -2.54239545
 C      9.03772289      3.75309814     -1.38949342
 C     10.23877717      4.70524172     -1.23952270
 C     10.98944700      4.56086067      0.09735759
 C     12.16690607      5.53943591      0.26343181
 C     13.05152306      5.25245185      1.49090602
 C     14.34434550      4.48179625      1.16486908
 C     15.13542421      4.03164881      2.40710970
 C     16.61301385      3.70308223      2.12360867
 C     17.17547433      2.55540232      2.98271812
 C     18.71139474      2.44687244      2.95497374
 C     19.29219647      1.50465635      4.02572029
 C     19.56845646      0.07651979      3.52004610
 C     20.40725968     -0.77918113      4.48740595
 C     21.07533371     -1.99905677      3.82620968
 C     22.09562717     -2.71937667      4.72717610
 C     22.63281300     -4.03629461      4.13661828
 C     23.94496339     -4.52204159      4.77997761
 C     24.32813758     -5.96632067      4.40737130
 C     25.68738606     -6.41927653      4.97206109
 C     26.13912254     -7.80683800      4.47991548
 C     27.60963674     -8.13593775      4.79753372
 C     28.27820931     -9.06978103      3.77159637
 C     29.81748310     -9.03209757      3.80016455
 C     30.48660754    -10.06148907      2.87052718
 C     32.01463279     -9.90515978      2.75962196
 C     32.67398153    -10.88243149      1.76876413
 C     34.18750873    -10.66391124      1.58687321
 C     34.92086504    -11.85903653      0.95011262
 C     36.45462673    -11.78850092      1.06927562
 C     37.18009158    -13.05412252      0.57581568
 C     38.70152444    -12.88049056      0.41243277
 C     39.42942449    -14.15128498     -0.06384768
 C     40.93576430    -13.95322720     -0.31546944
 C     41.65180813    -15.20757591     -0.84978259
 C     43.17398996    -15.20715790     -0.61619682
 C     43.92907178    -16.29293681     -1.40520606
 C     45.39511420    -15.93705573     -1.71450892
 C     45.79716684    -16.16018550     -3.18425951
 C     45.57867508    -17.60120609     -3.68157329
 C     45.54299227    -17.73590123     -5.21525642
 C     44.16466391    -18.13049939     -5.77748699
 C     44.04200300    -17.97116520     -7.30430293
 C     42.81663407    -18.67922040     -7.91153340
 C     42.69889868    -18.52741989     -9.43950427
 C     41.53051873    -19.31641086    -10.05916672
 C     41.71305923    -20.84488354    -10.01388743
 C     40.39356498    -21.63005445     -9.89539027
 C     39.61444165    -21.35319324     -8.59619255
 C     38.19197186    -21.94306690     -8.58106756
 C     37.45474838    -21.76618858     -7.24061405
 C     38.11282637    -22.50642897     -6.06138654
 C     37.28523105    -22.47690181     -4.76299749
 C     36.81612973    -21.06911200     -4.35108512
 C     35.76188659    -21.06366141     -3.22852478
 C     35.00661465    -19.72928215     -3.08501070
 C     33.99904043    -19.70190797     -1.92068908
 H     -0.36333333      0.00000000      1.02766186
 H     -0.36333333     -0.88998127     -0.51383093
 H     -0.36333333      0.88998127     -0.51383093
 H      1.88274777     -0.35402041      0.97226206
 H      1.88274777      0.06400724      1.03272796
 H      3.19693073     -0.43510558      1.29638991
 H      3.17237580     -0.38399735      1.34285458
 H      4.15391419     -1.53821172      0.90481103
 H      4.10763268     -0.61784246      0.26998916
 H      5.38849535     -0.41919430     -0.02815483
 H      5.47820177     -1.20867441      0.23252577
 H      6.44469278     -0.42954614     -0.59732295
 H      6.44433257     -0.41543960     -0.58512104
 H      7.42955680     -0.51051736     -1.33003813
 H      7.78430102     -1.48361231     -0.93393027
 H      8.71588318     -1.72864358     -1.88880983
 H      8.61331218     -0.52301100     -1.81597139
 H      9.70408057     -0.58733523     -2.51069038
 H     10.08534098     -1.36381226     -2.16950778
 H     10.84937096     -0.57365269     -3.10271852
 H     10.71346656     -0.29626637     -1.68689320
 H     11.52177997      0.53030302     -1.46415220
 H     11.86087233      0.33232932     -2.98211066
 H     12.60964649      1.48688203     -1.70265797
 H     12.69629508      0.37083988     -1.09810839
 H     13.62499370      0.51805483     -0.34343591
 H     13.51287337      0.43702341     -0.27803981
 H     14.68459382      0.34220211     -0.02995998
 H     14.86689047      0.64190124     -1.27716013
 H     15.44803007     -0.38321194     -1.39740392
 H     16.14510848      0.07601180     -0.51549978
 H     16.98862389      0.79777599     -0.78689514
 H     16.74556542     -1.15776718     -1.25712473
 H     18.00954277     -1.51269936     -1.62037266
 H     17.94713346     -1.28643446     -0.02384896
 H     19.02475789     -0.38897806     -0.24409744
 H     19.20545457     -2.01239666     -1.51190678
 H     19.09310057     -3.29580895     -1.46745447
 H     19.48055207     -2.97914792      0.24072403
 H     21.22058106     -1.66773517      0.21801512
 H     21.51349464     -2.07417497     -1.48998809
 H     21.49956742     -4.35525453     -1.38335460
 H     22.88709468     -3.52907810     -0.27313570
 H     23.85841227     -4.00638993      0.17823320
 H     23.59885621     -3.30313845     -1.73129413
 H     23.68611704     -5.67230210     -0.99500859
 H     24.19115343     -5.07267599      0.60300687
 H     25.65578675     -3.83864587      0.72003162
 H     26.20646005     -4.28859916     -0.91170599
 H     26.19279928     -6.65616736     -0.45345691
 H     26.06628408     -6.26456955      1.27827971
 H     28.29961436     -4.87998117      0.34115728
 H     28.04994683     -5.91692074     -1.08386522
 H     27.99082108     -7.91825350     -0.55044677
 H     28.73129459     -7.54449947      1.02444166
 H     30.41100335     -6.39703680     -0.87080246
 H     29.42825199     -7.36838390     -1.99283243
 H     29.60305751     -9.43168628     -1.18125659
 H     30.98913378     -8.92130242     -0.18799553
 H     32.29797078     -7.94898586     -1.80210314
 H     31.30160358     -8.72998962     -3.05332343
 H     31.17582017    -10.80384718     -2.62036445
 H     32.55602977    -10.67162339     -1.50420810
 H     34.14345684     -9.68240896     -2.51413121
 H     33.35357329     -9.97997704     -4.08123168
 H     32.82727364    -11.96781776     -4.29440356
 H     33.80103416    -12.44679712     -2.96483075
 H     34.95908019    -12.35722263     -2.11769463
 H     35.85064783    -11.91330868     -3.59292824
 H     35.01352274    -13.74364879     -4.89486226
 H     34.44645059    -14.49399238     -3.38367718
 H     36.91100877    -14.18110353     -2.60503091
 H     37.26775506    -13.83959363     -4.31510978
 H     36.40756490    -15.68131919     -5.32271367
 H     36.33767955    -16.49771580     -3.74256201
 H     38.62474677    -16.09157645     -3.18446370
 H     38.91276471    -15.65330052     -4.88541242
 H     37.97554714    -17.72033431     -5.73428245
 H     38.06356731    -18.37090867     -4.07981211
 H     40.24492664    -17.97836937     -3.57426707
 H     40.57948484    -17.69508298     -5.29940078
 H     39.65545067    -19.67852665     -6.12823628
 H     39.64361005    -20.32793241     -4.47101009
 H     41.78952671    -19.99322206     -3.83761178
 H     41.98560189    -20.45786570     -5.82888819
 H     41.44497292    -21.45463927     -6.62078461
 H     41.24188589    -22.32713907     -5.08267980
 H     43.40495353    -22.94195615     -5.32328884
 H     43.76357447    -21.28071658     -6.42156673
 H     42.96095680    -23.24260062     -7.33042883
 H     44.17596943    -23.87000263     -5.78445494
 H     45.40940859    -23.55261700     -5.36800335
 H     45.60901805    -23.03754636     -7.06008047
 H     44.64589067    -25.33784067     -7.69091480
 H     44.92488939    -25.78914084     -6.00772834
 H     46.19917819    -26.23279953     -8.40996061
 H     44.73805195    -25.14619867     -8.89797685
 H     44.65963063    -27.21679792     -8.42212557
 H     46.43771359    -27.29664928     -8.40447885
 H     47.09822223    -26.41225620    -10.27476643
 H     45.75099675    -27.88590901    -10.62302642
 H     45.22102455    -28.88392514    -10.42372416
 H     46.97781776    -28.94888118    -10.14493208
 H     47.85419398    -28.08949536    -11.97862055
 H     46.29641001    -28.28580656    -12.81709397
 H     45.83491024    -30.46316897    -12.41319108
 H     46.37981197    -30.72011160    -11.76009415
 H     46.05414647    -31.94770313    -11.76402330
 H     47.68400503    -31.25967637    -10.90909094
 H     47.64629280    -32.68162493    -12.61305934
 H     45.88603538    -32.86310912    -12.42116363
 H     45.94766386    -33.38834468    -10.10353646
 H     47.69901268    -33.66640681    -10.25756714
 H     47.19305826    -35.27283173    -12.14685234
 H     45.49637679    -35.20892512    -11.61257283
 H     46.51204429    -35.90153249     -9.29834005
 H     47.99778516    -36.25048683    -10.21434857
 H     48.33993821    -37.08400984    -11.60403444
 H     46.83614844    -38.01552650    -11.40614626
 H     47.75331427    -38.40590749     -8.98151092
 H     48.20696923    -37.87445724     -8.87770747
 H     48.47985905    -36.67751208     -8.45566974
 H     50.01201145    -37.03262127     -9.28914028
 H     50.57545272    -39.03716496     -8.51793784
 H     49.39920760    -38.85705073     -7.19420337
 H     49.68949814    -37.03342491     -6.21419681
 H     51.30420912    -36.87311589     -6.94582249
 H     52.56122072    -37.56393918     -7.34337182
 H     52.24471194    -38.71362507     -6.02189113
 H     51.82708324    -37.28986234     -4.29908569
 H     52.52642959    -35.95703822     -5.24922317
 H     54.58866742    -37.42524048     -5.55353196
 H     53.91117877    -38.45503528     -4.26947648
 H     53.34254316    -37.77964215     -2.63784623
 H     54.29535687    -36.29691787     -2.88672658
 H     56.33230317    -37.31947468     -3.41839252
 H     55.68848046    -38.85536222     -2.79005467
 H     55.07603971    -37.82104386     -0.64969054
 H     56.08448817    -36.42969081     -1.11384038
 H     58.04203281    -37.35710171     -1.62167991
 H     57.53951780    -38.85810878     -0.80760185
 H     57.00466724    -37.40221180      1.22663925
 H     57.91290033    -36.11264158      0.40178293
 H     59.88624190    -37.56143617      0.15367292
 H     59.13259373    -38.66642486      1.32810092
 H     58.78392164    -37.03542480      3.01698025
 H     59.09963287    -36.04656127      2.44221854
 H     58.30135945    -35.32408461      2.06308215
 H     60.02232402    -34.94580400      1.81118656
 H     59.91768729    -35.41712931      4.49471040
 H     58.15791837    -35.33659478      4.23977082
 H     57.78114465    -33.43223448      3.26204357
 H     59.40388924    -32.86491432      3.72368683
 H     59.27602976    -33.34085258      6.00576063
 H     57.51427842    -33.53020058      5.83650874
 H     57.01083502    -31.41260293      5.43225715
 H     59.00550541    -30.99015406      5.33831906
 H     56.01858650    -31.91729713      5.97280783
 H     56.32375686    -31.30509726      4.32953395
 H     57.19668690    -29.14679951      5.49932570
 H     56.33265027    -29.48616853      6.64233581
 H     56.74517282    -29.24678107      3.53587205
 H     57.95957276    -28.70428852      4.71875044
 H     56.68782766    -27.05770773      5.76841306
 H     55.53130995    -27.13083959      4.41734490
 H     57.30763601    -26.78615976      2.76131327
 H     58.36918845    -26.29832199      4.10421586
 H     56.84826681    -24.62714844      4.93812280
 H     55.95343735    -24.75368719      3.40465130
 H     57.51221957    -24.46362318      1.85571824
 H     58.61870622    -23.81707289      3.09100229
 H     56.09867337    -22.42984780      3.11819567
 H     55.61271876    -23.11925068      2.57887506
 H     54.94328508    -24.20353651      2.28169517
 H     55.59996703    -23.85054920      0.66539215
 H     54.74570619    -21.47454304      0.95582686
 H     53.81328471    -22.09109633      2.34100515
 H     52.67071079    -23.75254634      1.72914612
 H     52.90595069    -23.30933667      0.02137153
 H     52.29420356    -21.14944421     -0.00564101
 H     51.52158973    -21.35549377      1.58460366
 H     50.45094675    -22.57454023      2.15930828
 H     50.22710726    -23.26695487      0.96127288
 H     50.65855033    -24.29282348      0.69936281
 H     49.62340596    -23.42067987     -0.45653871
 H     47.92818905    -22.76985274      1.08770903
 H     48.04183267    -23.84573697      1.68553262
 H     48.06223841    -22.11980745     -0.80146947
 H     47.65540243    -21.65465162      0.86777623
 H     45.66982365    -23.29476381      0.60707949
 H     46.05035187    -23.28073814     -1.13167530
 H     45.91215491    -20.85262970     -1.26944237
 H     45.12610318    -20.87015745      0.32745528
 H     43.50727122    -22.19570884      0.31747801
 H     43.50607143    -22.21376897     -1.46239251
 H     43.43225302    -19.62194594     -1.23410875
 H     43.04883697    -19.91671962      0.47889075
 H     41.11797954    -21.35770558     -0.26627272
 H     41.35238150    -20.66411514     -1.88869519
 H     41.32269022    -18.51194519     -1.64182769
 H     40.60127125    -18.69786281     -0.02527087
 H     39.02734494    -19.86675477      0.11059266
 H     38.76603155    -19.77137244     -1.64749840
 H     38.90637809    -17.17839202     -1.17854863
 H     38.76060981    -17.63318736      0.53614653
 H     36.71865418    -18.88790302      0.18931773
 H     36.58667862    -18.11871385     -1.41043136
 H     36.76247857    -15.87882928     -0.57108515
 H     36.46711294    -16.52153067      1.06230419
 H     34.53477258    -17.69631427      0.68750019
 H     34.33793845    -16.84205956     -0.86161952
 H     34.49447330    -14.73361724     -0.43702789
 H     34.24995667    -15.05319760      1.29685408
 H     32.17078645    -16.35008820      0.69960175
 H     32.30159757    -15.62573297     -0.92103535
 H     32.46350396    -13.59969535     -0.88040786
 H     31.87011574    -13.55866421      0.79723141
 H     30.18604245    -14.60110899      1.11231212
 H     29.84523578    -14.63457978     -0.63439827
 H     30.09852585    -12.25064935     -0.90490006
 H     30.01772930    -12.09673741      0.86655405
 H     28.15919631    -13.17109701      1.41095405
 H     27.63671804    -13.12905698     -0.29007968
 H     27.90250221    -10.82010789     -0.62631550
 H     28.01494031    -10.61116069      1.13776086
 H     26.20739963    -11.63664257      1.90912800
 H     25.50876231    -11.63554430      0.27200511
 H     25.60749755     -9.64916816     -0.49115570
 H     25.89556905     -9.01722525      1.14772490
 H     24.09622200    -10.04411225      2.21753492
 H     23.39108248    -10.40275288      0.62303757
 H     23.45347808     -8.24201588     -0.25498341
 H     23.73995018     -7.61564143      1.38631347
 H     21.75361941     -8.80837328      2.24367210
 H     21.26994287     -9.06323653      0.54975108
 H     21.54435239     -6.41808964      0.49345651
 H     21.60926902     -6.54870885      2.26743259
 H     19.76230818     -7.65679304      2.78692946
 H     19.11016980     -7.33049478      1.16319560
 H     19.25691526     -5.26071775      0.76427662
 H     19.50921397     -4.92672929      2.49432395
 H     17.65340758     -6.10202123      3.30901089
 H     17.00380752     -6.15902787      1.65279935
 H     17.35234972     -3.55892362      1.76110921
 H     17.58168360     -3.80724158      3.50868205
 H     15.43544094     -4.95751615      3.73326244
 H     15.01580032     -4.34909014      2.11400761
 H     15.36575004     -2.15798231      2.27907825
 H     15.40036288     -2.29950396      4.05306817
 H     13.09419697     -3.49705242      3.69731177
 H     13.18021632     -2.85875571      2.03796110
 H     13.49030330     -0.66101105      2.38376231
 H     12.99525074     -0.86554158      4.08121832
 H     10.88941259     -1.99658978      3.21859977
 H     11.33011487     -1.35984690      1.61591244
 H     11.52202217      0.90811957      2.29806821
 H     10.68017141      0.48048949      3.80693748
 H      8.86204466     -0.48674935      2.21117912
 H      9.71701530      0.39329759      0.92167950
 H      9.55800032      2.51595999      2.13613542
 H      8.35853524      1.73963086      3.19767359
 H      6.84372572      0.86634111      2.03407455
 H      7.35041929      1.82268147      0.62094278
 H      7.33543414      3.92675777      1.65353577
 H      6.41375643      3.22114318      3.00293746
 H      4.71285024      2.21103466      2.10482411
 H      4.95683243      2.51249631      0.76896034
 H      5.37063655      1.80557622     -0.02640029
 H      4.99987382      3.49436706     -0.44923260
 H      3.35906044      4.28255058      0.00206981
 H      2.61776693      2.68043256      0.23003568
 H      3.41156655      1.92292552     -1.97412773
 H      3.76804567      3.62590457     -2.34969620
 H      1.82024411      4.64296582     -1.91344106
 H      1.00223803      3.06210591     -1.90961065
 H      1.76102799      2.29234150     -3.97483313
 H      2.27576724      3.94969886     -4.37040457
 H      0.20672515      4.99366360     -3.91683409
 H     -0.56030915      3.38745021     -3.91873196
 H      0.53577940      3.11926295     -6.25225949
 H      0.84367894      4.87034173     -6.16747959
 H     -1.00428541      5.84868622     -5.75377868
 H     -1.86202888      4.69751979     -5.76375966
 H     -2.34532410      4.10156680     -4.92028602
 H     -2.58678242      3.53863828     -6.59153586
 H     -3.23488766      5.11166856     -7.80091765
 H     -3.67050032      6.06616197     -6.36305444
 H     -5.00883729      4.13903791     -5.50295579
 H     -4.86877678      3.42886773     -7.12908864
 H     -5.87112315      5.73592953     -7.88204751
 H     -6.23385261      5.97832509     -6.15637709
 H     -7.44035882      4.01857861     -5.79199362
 H     -7.57737518      3.80973992     -7.55434421
 H     -8.42234884      5.85540066     -8.14068146
 H     -8.81922957      6.16100341     -6.43265356
 H     -9.99595369      4.31074246     -5.89450924
 H    -10.17748942      3.93497907     -7.62485987
 H    -11.08398991      6.27319214     -7.95537232
 H    -11.22981245      6.35941488     -6.18348967
 H    -12.63879710      4.09170009     -6.83361226
 H    -12.47658355      4.72024069     -8.49098673
 H    -13.07802702      6.57809698     -8.78227992
 H    -14.00804614      6.54755931     -7.26491426
 H    -15.19913956      4.60901654     -7.57086625
 H    -14.76548895      4.63807294     -9.29695128
 H    -15.72994246      7.05157898     -9.24456180
 H    -16.40028630      6.60829494     -7.65635367
 H    -17.54319315      4.65484079     -8.48784283
 H    -17.27434908      5.26701579    -10.13745834
 H    -18.56424252      7.28276394     -8.61298880
 H    -18.75909476      5.92411591     -7.47968619
 H    -19.88565264      4.53725153     -9.13071652
 H    -20.08680011      5.99742836    -10.12855919
 H    -21.17870555      7.05184973     -8.05500057
 H    -21.24036053      5.40073035     -7.39298085
 H    -22.43173861      4.55502396     -9.36002585
 H    -22.74040915      6.24776837     -9.81566335
 H    -23.72629418      6.74973381     -7.62599683
 H    -23.80427907      4.99516380     -7.33674070
 H    -24.85729359      4.18255932     -9.08427972
 H    -25.41638336      5.81733855     -9.51227760
 H    -26.31198939      6.09276481     -7.18923943
 H    -26.09286962      4.33726977     -6.99304986
 H    -27.50469921      4.05661493     -9.09882435
 H    -27.94302985      5.77046547     -8.90172223
 H    -28.69698633      5.17889049     -6.54089300
 H    -28.58514437      3.47629541     -7.04777369
 H    -29.91160610      3.53622936     -8.92175270
 H    -30.54598165      5.11469058     -8.39802138
 H    -31.07747265      3.89293050     -6.16961833
 H    -30.75532306      2.39010413     -7.06739292
 H    -32.52226871      3.20986036     -8.73990327
 H    -32.96319340      4.41424021     -7.50567425
 H    -33.34243832      3.21915182     -5.68891664
 H    -33.43573604      1.74231285     -6.67811269
 H    -35.15689902      2.95385972     -8.11104258
 H    -35.23535472      4.16166930     -6.80593439
 H    -35.72380517      2.44048112     -5.12579884
 H    -36.05905807      1.32303324     -6.47011368
 H    -37.44841846      2.19853905     -7.78359779
 H    -37.89602595      3.39482210     -6.54391192
 H    -38.28875751      1.56472136     -4.90355810
 H    -38.23884799      0.43491306     -6.27807944
 H    -39.89787931      1.55315964     -7.56594182
 H    -40.34719226      2.47118036     -6.10867641
 H    -40.68066932      0.69748546     -4.65703538
 H    -40.70899193     -0.40677178     -6.05277190
 H    -41.71168310     -0.14806759     -7.55421326
 H    -42.77484839      0.98153854     -6.68132367
 H    -43.31075893     -0.15355128     -4.83579444
 H    -42.72525004     -1.65407987     -5.59332990
 H    -44.02654680     -1.42364002     -7.58090591
 H    -44.98486967     -0.17304039     -6.75272446
 H    -45.33714781     -1.93419452     -4.90630968
 H    -44.69748926     -3.11337612     -6.07619616
 H    -46.12171054     -2.69072643     -7.84423872
 H    -47.19381645     -1.79982316     -6.73737516
 H    -47.51691707     -3.26284683     -5.07568436
 H    -46.88492915     -4.56758806     -6.10840323
 H    -48.61524328     -3.79456670     -7.84395472
 H    -49.34140836     -2.84627126     -6.52422494
 H    -49.54242459     -4.82354549     -5.08958566
 H    -49.22173583     -5.81700615     -6.53127263
 H    -50.69236611     -5.12556168     -8.01778988
 H    -51.62053657     -4.32155916     -6.72924566
 H    -51.65251072     -6.47361931     -5.44596243
 H    -51.10085663     -7.26822705     -6.94013208
 H    -52.89930951     -6.38525368     -8.28184166
 H    -53.72854850     -5.93150428     -6.77361726
 H    -53.49897609     -8.29636700     -5.97181684
 H    -53.06605509     -8.72535764     -7.64418435
 H    -54.20170883     -8.16664959     -9.08193430
 H    -55.54748290     -7.88532893     -7.95143994
 H    -55.35034719    -10.08294202     -6.94255777
 H    -54.31361163    -10.55231558     -8.31118282
 H    -55.21458398    -10.12997233    -10.12144432
 H    -56.79744119     -9.96873223     -9.32342719
 H    -57.35346246    -11.38483589     -8.11382376
 H    -56.15243941    -12.49692092     -8.81316428
 H    -56.28878839    -12.51099641    -10.89086466
 H    -57.89795010    -11.75420551    -10.81255266
 H    -59.13326163    -12.77969759     -9.49313068
 H    -58.04048090    -14.18433553     -9.52613402
 H    -57.91587196    -14.41528955    -11.85761184
 H    -59.32296676    -13.33529776    -12.00582999
 H    -60.50538330    -14.93281394    -10.37955059
 H    -59.16122180    -16.05740650    -10.69065844
 H    -59.29809574    -16.11502347    -13.01238968
 H    -60.90971352    -15.36666658    -12.90790644
 H    -61.64521258    -17.14199843    -11.32707255
 H    -60.18630419    -18.04764257    -11.79575335
 H    -60.56603060    -18.00259402    -14.12303016
 H    -62.24141308    -17.49445316    -13.80185562
 H    -63.06570885    -18.90927250    -12.39868484
 H    -61.73910035    -20.04397219    -12.74629545
 H    -62.28556737    -19.81623811    -15.20233852
 H    -63.80344410    -19.03947022    -14.69150730
 H    -64.23650407    -21.11341317    -13.27172470
 H    -62.91833723    -21.88239482    -14.18789611
 H    -63.57117104    -21.56770739    -16.31679112
 H    -65.20780256    -21.16182452    -15.74673584
 H    -65.66776482    -22.94862069    -14.42353700
 H    -64.30298609    -23.82575475    -15.15584945
 H    -64.38715903    -23.79744842    -17.21123867
 H    -66.09974137    -23.31512199    -17.15937709
 H    -66.92391933    -24.91772543    -15.74191324
 H    -65.43237632    -25.86146942    -15.97194236
 H    -65.17810804    -26.04085096    -18.13061821
 H    -66.86927600    -25.54379413    -18.37790774
 H    -67.66703664    -27.27377584    -16.80926024
 H    -66.04689951    -28.00420832    -16.90871240
 H    -66.07635884    -28.13692573    -19.32218631
 H    -67.82711439    -27.82160159    -19.26142150
 H    -68.76495298    -29.14339110    -17.95393592
 H    -67.34254396    -30.21313143    -17.97991387
 H    -67.03638539    -30.45881018    -20.22444737
 H    -68.66895403    -29.80669322    -20.50324797
 H    -69.73909415    -31.35797964    -19.00165347
 H    -68.23942408    -32.31672140    -19.01005504
 H    -67.89206388    -32.60557395    -21.22364597
 H    -69.56682568    -32.09410439    -21.54276734
 H    -71.03715936    -32.69678068    -20.71466261
 H    -70.16576226    -34.15369996    -20.17957387
 H    -69.37361615    -34.60805783    -22.46411419
 H    -70.57010348    -33.42142883    -23.03734745
 H    -72.31358312    -34.79789853    -21.75947402
 H    -71.06239098    -36.05809872    -21.63831136
 H    -70.73554828    -36.06748836    -24.07801470
 H    -72.24924003    -35.14051820    -24.21116990
 H    -73.53749706    -36.73201377    -22.93439101
 H    -72.19944905    -37.88925571    -23.13107669
 H    -72.34112044    -37.51556598    -25.62607197
 H    -73.90234276    -36.71799997    -25.31827330
 H    -75.03586283    -38.23031898    -24.14729273
 H    -73.86780537    -39.48135034    -24.63599404
 H    -74.35472440    -38.70242997    -27.04947089
 H    -75.73975371    -37.82572979    -26.35567173
 H    -76.83818687    -39.40976448    -25.23731616
 H    -75.91624040    -40.65914034    -26.10756975
 H    -75.72877618    -40.65236703    -27.95866988
 H    -77.13015217    -39.56774119    -28.12599827
 H    -78.70712777    -40.54428420    -26.91528201
 H    -77.75983833    -42.05112809    -26.89709213
 H    -77.35124059    -42.34424270    -29.10897516
 H    -78.61313207    -41.14745384    -29.48791180
 H    -80.14077086    -42.60334089    -27.99240830
 H    -78.85789932    -43.83298975    -28.09473608
 H    -78.95368100    -43.73040254    -30.58328160
 H    -80.48358793    -42.83868482    -30.40302910
 H    -81.25384002    -44.83171723    -28.96297367
 H    -79.83107057    -45.68863225    -29.60304430
 H    -80.87876232    -45.05012590    -31.92389629
 H    -82.32840491    -44.62110685    -30.99539847
 H    -82.98082798    -43.88301610    -30.41443866
 H    -83.38500332    -45.59729754    -30.15724593
 H    -83.46766571    -45.77990260    -32.71985193
 H    -83.45487317    -44.00001131    -32.72933824
 H    -85.24954098    -43.60522357    -31.33448191
 H    -85.74233017    -45.30499906    -31.52471536
 H    -85.82880030    -45.69990945    -33.64145496
 H    -85.82231386    -43.95233303    -33.97939174
 H    -87.76017875    -43.70540469    -32.38063479
 H    -87.91750874    -45.47698277    -32.45152243
 H    -88.03430677    -46.17069762    -34.37661802
 H    -88.42552608    -44.53823489    -34.96846222
 H    -90.26525004    -44.44133654    -33.23257110
 H    -90.03158394    -46.19461154    -33.03333858
 H    -90.20670090    -47.00671370    -35.07630661
 H    -90.94192568    -45.48032283    -35.62205574
 H    -92.26816683    -44.58835223    -34.84444137
 H    -92.77055597    -46.05604915    -33.97166559
 H    -92.75125350    -47.27160517    -36.19700106
 H    -92.65364893    -45.66510694    -36.95720067
 H    -94.25262748    -44.47685009    -36.18503493
 H    -95.06552232    -45.93928390    -35.57778211
 H    -95.20479593    -47.36425397    -37.11097939
 H    -94.86183091    -46.11455694    -38.33118388
 H    -96.15086985    -44.47220261    -38.02254452
 H    -97.20918933    -45.47168893    -36.99821369
 H    -97.62266564    -47.26843649    -38.17406089
 H    -97.04086254    -46.44805861    -39.64264931
 H    -98.00233464    -44.58594847    -39.83403006
 H    -99.24444355    -45.08495141    -38.66081728
 H   -100.02757244    -46.95433113    -39.21091018
 H    -99.34846838    -46.77968481    -40.84693677
 H    -99.93895885    -44.87703378    -41.60797619
 H   -101.19063007    -44.74510439    -40.34933389
 H   -101.90431848    -47.10544801    -41.24785365
 H   -100.82329877    -46.75225543    -42.61713012
 H   -101.68661694    -44.73453832    -43.29115917
 H   -103.13818735    -45.05026892    -42.31058576
 H   -103.30544913    -47.28057099    -43.56159208
 H   -102.10467900    -46.60694799    -44.68970990
 H   -103.94700236    -44.67982542    -44.82865007
 H   -104.99121972    -45.84684449    -43.98251577
 H   -104.73049845    -47.61320571    -45.53111508
 H   -104.04281576    -46.44667235    -46.68634627
 H   -106.11249178    -45.02803415    -46.35956097
 H   -106.83632704    -46.44578502    -45.56312413
 H   -106.47051473    -47.98566655    -47.29418149
 H   -106.12881608    -46.62369808    -48.38805104
 H   -108.19909183    -45.48320191    -47.87359374
 H   -108.77425881    -46.98910810    -47.11881155
 H   -108.26140671    -48.24231814    -49.20859404
 H   -108.10207858    -46.66420093    -50.01632376
 H   -110.53202801    -46.32620350    -49.01709240
 H   -110.47378154    -48.07578867    -48.69487236
 H   -109.97319844    -48.71584395    -50.92971279
 H   -110.42972591    -47.07751665    -51.45481564
 H   -112.64284500    -47.79650855    -50.09373430
 H   -111.92518134    -49.42462880    -50.14323163
 H   -112.00225485    -48.78531864    -52.77854085
 H   -113.03865102    -47.44680393    -52.22851539
 H   -114.64830379    -48.44026320    -51.08778623
 H   -114.19338747    -50.00421069    -51.80569016
 H   -113.99750136    -50.07783072    -53.74729491
 H   -114.92026524    -48.56664161    -53.92917663
 H   -116.77113146    -49.24916155    -52.60478637
 H   -116.17325328    -50.92248753    -52.70865417
 H   -116.17470742    -50.58382939    -55.25442174
 H   -117.13379855    -49.11739978    -54.94138009
 H   -118.82758096    -50.21787050    -53.67474407
 H   -118.20688088    -51.77210329    -54.28084516
 H   -118.44630939    -50.85951428    -56.62831295
 H   -119.41544397    -49.54926191    -55.91257308
 H   -120.97636474    -50.68268803    -54.75975062
 H   -120.55068683    -52.16249036    -55.65263921
 H   -120.81573424    -51.07083711    -57.81870721
 H   -121.64060529    -49.73898645    -56.97370530
 H   -123.19470971    -51.52093461    -55.99497731
 H   -122.51039171    -52.62493396    -57.21200688
 H   -123.18571714    -50.89175781    -58.96268334
 H   -124.15658196    -50.13429919    -57.67740337
 H   -125.36367353    -52.14130084    -57.14065772
 H   -124.76567234    -52.84591228    -58.66190193
 H   -124.76576068    -52.17186979    -60.26652961
 H   -126.05893771    -51.03903981    -59.80538315
 H   -127.47637019    -52.73652207    -58.86680362
 H   -126.45723654    -53.95694181    -59.66693420
 H   -126.10886449    -53.72201312    -61.57541798
 H   -127.48220012    -52.59891649    -61.71988209
 H   -128.40626082    -54.95732319    -60.46759979
 H   -126.81396140    -55.55124746    -60.99684754
 H   -126.26056383    -55.39952178    -62.78785708
 H   -127.94304483    -55.16595642    -63.31980783
 H   -129.04468046    -56.83219159    -62.37219795
 H   -127.50525473    -57.66089133    -62.03799465
 H   -126.75013447    -57.51246356    -64.33454466
 H   -128.41517053    -57.08112640    -64.79266019
 H   -129.12975227    -59.22598449    -63.58042900
 H   -127.40449297    -59.66387187    -63.58172598
 H   -127.48733730    -59.31671648    -66.12226221
 H   -129.25859002    -59.30594459    -65.94672183
 H   -129.82980939    -61.07477211    -64.90121259
 H   -128.23698598    -61.79961474    -65.22645621
 H   -128.16762296    -61.47157423    -67.52350626
 H   -129.91413770    -61.12890384    -67.50048592
 H   -131.04499502    -62.46739717    -66.57528365
 H   -129.73970818    -63.67451655    -66.66104933
 H   -129.00665035    -63.79454330    -68.62130204
 H   -130.45225345    -62.95673317    -69.23495711
 H   -131.99517902    -64.45125724    -68.13472053
 H   -130.63283979    -65.56197109    -67.85433999
 H   -129.82067322    -65.76300490    -69.98178088
 H   -131.32940363    -65.05465219    -70.60646931
 H   -132.89820143    -66.33758049    -69.63340046
 H   -131.64997932    -67.53741954    -69.22036964
 H   -130.67488591    -67.86463629    -71.24798743
 H   -132.06290714    -67.06928192    -72.02842011
 H   -133.59054012    -68.65592526    -70.80957459
 H   -132.13786247    -69.61064275    -70.42680990
 H   -131.20724240    -69.94607812    -72.42412151
 H   -132.72692483    -69.45638527    -73.21090795
 H   -133.94315465    -71.14588476    -71.79574547
 H   -132.34508936    -71.81876897    -71.39364994
 H   -131.25495260    -72.23013712    -73.10700575
 H   -132.73242706    -72.14408366    -74.09590953
 H   -134.13871879    -73.50482157    -73.02382409
 H   -132.77297543    -74.19220809    -72.11250005
 H   -131.40364959    -74.71838167    -73.92839511
 H   -132.80197736    -74.49866072    -75.00759334
 H   -134.23226949    -75.99396896    -73.80285610
 H   -132.79453511    -76.60154286    -72.94726246
 H   -131.52739133    -76.94159829    -75.01371442
 H   -132.92196925    -76.99478977    -75.81935333
 H   -131.18212728    -77.88942333    -73.31858484
 H   -130.44294740    -76.93219371    -74.62456769
 H   -131.00946405    -78.95574943    -76.13387292
 H   -131.31855748    -79.83876299    -74.61960248
 H   -128.97354434    -79.17966246    -73.88808117
 H   -128.69329312    -78.70699112    -75.58214276
 H   -128.68223736    -77.84416831    -76.32780002
 H   -128.56254060    -79.50793277    -76.94894991
 H   -126.63040443    -79.81201928    -75.28769229
 H   -126.65883900    -78.04128609    -75.10891279
 H   -126.41985380    -77.75020864    -77.55573126
 H   -125.98113905    -79.47324557    -77.63903667
 H   -124.20701103    -79.19443906    -75.96868056
 H   -124.36128015    -77.43632124    -76.19995836
 H   -124.11459773    -77.35072910    -78.49909670
 H   -123.49132850    -79.01774344    -78.46968053
 H   -121.85198127    -78.87251215    -76.92605013
 H   -121.90789578    -77.09758513    -77.04759973
 H   -121.59490740    -77.66596645    -79.62745679
 H   -121.21028646    -79.30636555    -79.05350192
 H   -119.49177217    -78.69311216    -77.56529169
 H   -119.44259400    -77.09115608    -78.33962036
 H   -119.14454850    -78.75082800    -80.47177793
 H   -118.88618641    -79.99293854    -79.22330802
 H   -117.17484167    -79.00398268    -78.04479743
 H   -116.92365489    -77.87506531    -79.39783750
 H   -116.74918521    -79.91954376    -80.90896074
 H   -116.60810644    -80.87735952    -79.41532343
 H   -114.70427977    -79.46503728    -78.66766052
 H   -114.62848949    -78.83144594    -80.32931166
 H   -114.46209757    -81.52886222    -80.71691496
 H   -114.20591246    -81.56431191    -78.95584166
 H   -112.42655092    -80.12333240    -78.78616938
 H   -112.17010932    -80.26410486    -80.53935535
 H   -112.70160471    -81.20917473    -77.55936641
 H   -112.45841712    -79.48594803    -77.93301891
 H   -110.39215366    -79.44123856    -78.77846444
 H   -110.09504204    -81.07112645    -78.12772884
 H   -110.85428197    -80.14731899    -75.86650477
 H   -110.70194729    -78.53326031    -76.60126692
 H   -108.86558471    -78.23827998    -77.45966428
 H   -108.19360336    -79.61780406    -76.55765483
 H   -108.90192596    -78.98040102    -74.42405515
 H   -109.24049763    -77.35157609    -75.05695739
 H   -106.82211733    -77.36664251    -75.91787247
 H   -106.58422251    -78.79232088    -74.87906840
 H   -107.22133682    -78.24962976    -72.89920676
 H   -107.16896272    -76.52624244    -73.34131507
 H   -105.27587736    -76.11649508    -74.21835129
 H   -104.62577836    -77.63954927    -73.56570753
 H   -105.11256075    -77.63554108    -71.44563603
 H   -105.45585177    -75.89057003    -71.51975737
 H   -103.58080276    -75.09325276    -72.49323856
 H   -102.76027770    -76.63574845    -72.15307337
 H   -103.52717343    -76.23726093    -69.70775338
 H   -103.90873817    -74.57999561    -70.23324999
 H   -101.77952818    -74.07381689    -71.11650136
 H   -101.13212011    -75.50078517    -70.27217265
 H   -101.82084994    -75.17338211    -68.16343287
 H   -102.18310357    -73.47457295    -68.55213121
 H   -100.04525736    -72.97394942    -69.46403513
 H    -99.43209064    -74.48001584    -68.74011718
 H   -100.40678253    -73.53108360    -66.52830631
 H   -100.55244732    -71.98938022    -67.40591621
 H    -98.12359253    -72.09671285    -67.97950462
 H    -97.98132960    -73.38431587    -66.75880547
 H    -99.05060707    -71.71416396    -65.12506124
 H    -98.72899437    -70.47675304    -66.36346592
 H    -96.37134563    -71.00727732    -66.50478258
 H    -96.54908583    -71.93511237    -64.99620802
 H    -97.55235625    -69.71256864    -64.06708098
 H    -96.89929092    -68.96028248    -65.54215314
 H    -94.73031700    -69.57932657    -65.45514155
 H    -94.93871173    -70.03384920    -63.74685367
 H    -95.88045274    -67.75901948    -63.28294652
 H    -95.25904912    -67.27496367    -64.87913391
 H    -93.02030432    -67.97714633    -64.48755979
 H    -93.40586059    -68.09100070    -62.75359029
 H    -94.25353117    -65.82046991    -62.64456908
 H    -93.50210149    -65.52752487    -64.23132783
 H    -91.32419956    -66.37291402    -63.16214650
 H    -92.16430397    -66.20832237    -61.60156941
 H    -92.69994679    -63.84179625    -62.09487196
 H    -91.51517442    -63.93156499    -63.42021066
 H    -89.84526632    -64.74454747    -61.64885686
 H    -91.03937291    -64.20619653    -60.44363722
 H    -91.31052122    -62.02012144    -61.16578225
 H    -89.83617076    -62.18910998    -62.14863538
 H    -88.44925393    -62.94867845    -60.37180347
 H    -89.70020831    -62.41242324    -59.22471579
 H    -89.58336869    -60.13216887    -60.35898805
 H    -88.08766936    -60.71299984    -61.12956287
 H    -86.72897378    -61.45032195    -59.83805032
 H    -87.55020595    -60.65350546    -58.47462527
 H    -87.72175346    -58.52523684    -59.25388203
 H    -86.52997874    -58.90714194    -60.51961825
 H    -84.99795557    -59.73459486    -58.66255920
 H    -86.11278354    -58.93150967    -57.53097647
 H    -86.31551666    -56.88994614    -58.19971452
 H    -84.86839973    -57.06906174    -59.22051657
 H    -83.61848247    -57.90527303    -57.19759108
 H    -84.98205753    -57.30230283    -56.22529655
 H    -85.48434056    -55.39705837    -56.57302550
 H    -83.91714024    -55.09692283    -57.36173867
 H    -82.54196677    -55.94143741    -55.67152510
 H    -83.93447323    -55.90537979    -54.56342209
 H    -84.50303128    -53.63630917    -54.93550539
 H    -82.91663932    -53.40818644    -55.70983558
 H    -81.75983691    -54.33281337    -53.73332596
 H    -83.29340058    -54.15543641    -52.84733130
 H    -83.42305319    -51.76309653    -53.47486182
 H    -81.71953027    -51.88345775    -53.97664813
 H    -80.59573094    -52.69508746    -52.37129983
 H    -81.92472746    -52.34316991    -51.24072963
 H    -82.69222788    -50.56336522    -51.25712060
 H    -81.26547779    -49.92164067    -52.10614383
 H    -79.52174164    -50.54967318    -51.08115393
 H    -80.49308594    -50.96889699    -49.64971818
 H    -81.24024360    -48.38608231    -50.15560514
 H    -79.83957859    -48.41069790    -51.25369361
 H    -78.14310053    -49.03564622    -50.04928341
 H    -79.06150487    -48.69394538    -48.56333567
 H    -79.88255909    -46.78636045    -48.62372278
 H    -78.78738369    -46.33233212    -49.95139586
 H    -76.78516895    -47.01303191    -48.91585769
 H    -77.65918363    -47.10333867    -47.36788816
 H    -78.35325618    -44.65561388    -47.89847172
 H    -77.10083241    -44.71297237    -49.16196345
 H    -75.32707561    -45.37500724    -47.73846113
 H    -76.33992316    -44.93892548    -46.34123560
 H    -76.56619836    -42.64083871    -47.53249199
 H    -75.23205908    -43.19560670    -48.57199742
 H    -73.65199396    -43.76728945    -47.10244726
 H    -74.52341325    -42.88252728    -45.82726454
 H    -74.66046559    -40.83965428    -47.11373492
 H    -73.44244521    -41.52100378    -48.21847737
 H    -71.82647111    -42.05443760    -46.61156672
 H    -72.69643374    -41.03099251    -45.44366610
 H    -72.86053557    -39.08775812    -46.62542508
 H    -71.62781162    -39.69108382    -47.75885194
 H    -69.99330294    -40.25193357    -46.18706034
 H    -70.88048726    -39.30183762    -44.97112929
 H    -71.21013043    -37.34764438    -45.84276082
 H    -69.97841414    -37.68249613    -47.08333163
 H    -68.26253296    -38.32421839    -45.58667699
 H    -69.21465460    -37.62207915    -44.25674033
 H    -69.67022109    -35.57199798    -44.93389522
 H    -68.41452214    -35.70555766    -46.18834674
 H    -66.79348512    -36.39443420    -44.36827732
 H    -68.01747709    -35.83085244    -43.20531304
 H    -68.00959534    -33.60296940    -44.40942240
 H    -66.19312659    -34.16648305    -43.78383590
 H    -65.37975177    -34.66116012    -43.15627212
 H    -66.63322419    -33.73360388    -42.29795225
 H    -66.02812236    -31.82477892    -43.94124509
 H    -64.59686317    -32.80124854    -44.34900833
 H    -63.57655248    -33.26754986    -42.53517399
 H    -64.48147724    -31.99473516    -41.68117131
 H    -63.66783761    -30.44553780    -43.58998639
 H    -62.54751581    -31.76315848    -44.01072558
 H    -61.54403573    -32.00003276    -41.90789013
 H    -62.24457034    -30.43402739    -41.43339556
 H    -61.28638805    -29.32158567    -43.40590699
 H    -60.26490811    -30.76154281    -43.63255390
 H    -59.36245350    -30.75829313    -41.42902190
 H    -59.98086131    -29.10155497    -41.22639633
 H    -58.96448497    -28.21485713    -43.17927119
 H    -57.94544473    -29.67204973    -43.25935479
 H    -57.29184636    -29.13532822    -40.83259366
 H    -58.03869118    -27.54321129    -41.10764480
 H    -56.75804300    -27.02195182    -43.04979991
 H    -55.66137551    -28.35954675    -42.62976790
 H    -55.41762988    -27.28814920    -40.33523170
 H    -56.18739375    -25.84786013    -41.04325546
 H    -54.85575187    -25.48070172    -42.84591375
 H    -53.63633224    -26.57580140    -42.15162339
 H    -53.52155712    -25.49636679    -40.03532605
 H    -54.38449848    -24.11050707    -40.74454512
 H    -52.49375921    -24.17218080    -42.53133771
 H    -51.65421413    -25.27304816    -41.41262335
 H    -51.65130417    -24.04520675    -39.50425783
 H    -52.07381942    -22.59769562    -40.45001628
 H    -50.29412649    -22.82524747    -42.02123393
 H    -49.53678589    -24.00380366    -40.92318694
 H    -49.40539790    -23.11136433    -38.98883017
 H    -49.69142907    -21.50278079    -39.69516707
 H    -47.95231346    -21.70826369    -41.34269071
 H    -47.33057781    -23.10786100    -40.43558608
 H    -47.16353851    -22.05693112    -38.34258763
 H    -47.34168173    -20.48406218    -39.15659929
 H    -45.76719454    -20.56292529    -40.74238202
 H    -45.00952234    -21.94461535    -39.91465496
 H    -45.04912147    -20.37654075    -37.83190140
 H    -45.43007636    -19.07642843    -38.98639175
 H    -43.50938929    -19.51525945    -40.37914154
 H    -42.85194089    -20.51564976    -39.06185362
 H    -43.16287399    -18.51360327    -37.52889559
 H    -43.40672495    -17.55215608    -39.00687484
 H    -41.34938681    -18.23781866    -40.03262917
 H    -40.82831870    -18.86496011    -38.45040027
 H    -41.16328864    -16.99105326    -37.16064460
 H    -41.28978041    -16.01707661    -38.64510948
 H    -39.12340141    -16.89794029    -39.45638158
 H    -38.84475226    -17.51139509    -37.80886997
 H    -39.11499474    -15.88528632    -36.44980101
 H    -38.99070121    -14.72338039    -37.79248205
 H    -37.09468049    -15.33984388    -38.80771930
 H    -36.64948979    -16.30432282    -37.37948533
 H    -36.99991400    -14.31594248    -35.92010265
 H    -37.02369289    -13.33524494    -37.40534120
 H    -34.96007532    -14.09256755    -38.26672469
 H    -34.58621113    -14.77532561    -36.66599559
 H    -34.67214758    -14.28761797    -35.12096337
 H    -34.60629679    -12.59626533    -35.67165072
 H    -32.85955750    -12.59421422    -37.06726833
 H    -32.33706866    -14.16288344    -36.40806506
 H    -32.19251986    -14.45465258    -34.56199592
 H    -32.14645963    -12.70144749    -34.25799422
 H    -30.75239911    -11.77342830    -35.48655106
 H    -29.98981738    -13.34150257    -35.84415261
 H    -29.65892234    -14.17612194    -33.77232324
 H    -29.94264613    -12.55842922    -33.08614707
 H    -28.73344596    -11.14882992    -34.05788539
 H    -27.71196850    -12.44906443    -34.71685479
 H    -27.34109613    -13.49281558    -32.58042088
 H    -27.97200134    -12.01755378    -31.80981859
 H    -26.62576609    -10.45020755    -32.82776241
 H    -25.54731667    -11.75910593    -33.36813133
 H    -25.18069837    -12.79933587    -31.33988614
 H    -25.83818479    -11.36698767    -30.51262747
 H    -24.39179672     -9.80931960    -31.61839889
 H    -23.39911206    -11.18666146    -32.15297650
 H    -22.90294800    -12.37166405    -30.47573490
 H    -23.35609757    -11.04364260    -29.38061792
 H    -22.21048369     -9.30793287    -30.20096620
 H    -21.20228294    -10.42742017    -31.14888292
 H    -20.61014009    -11.80726984    -29.28519575
 H    -21.21816224    -10.52800237    -28.20721130
 H    -19.98719791     -8.74972898    -29.07055441
 H    -18.94579025     -9.91904310    -29.91698294
 H    -18.52954212    -11.11954085    -27.77926607
 H    -19.22273898     -9.70718145    -26.94680845
 H    -17.86225135     -8.06834698    -27.90349800
 H    -16.76780487     -9.35194701    -28.47167449
 H    -16.69696001    -10.16018710    -26.04480518
 H    -17.45275579     -8.60480746    -25.62310202
 H    -15.59762260     -7.41007572    -26.80903294
 H    -14.72511017     -8.96149670    -26.81807031
 H    -14.78139751     -9.51187741    -24.61703676
 H    -15.25137335     -7.84061003    -24.22428400
 H    -13.67757702     -6.63381792    -25.27193897
 H    -12.68346123     -8.09916949    -25.45289545
 H    -12.69991026     -8.76440123    -23.20758590
 H    -13.30500160     -7.14936360    -22.76737619
 H    -11.94002085     -5.72800633    -23.68415856
 H    -10.74729031     -7.02465067    -23.93787892
 H    -10.35299384     -8.12710174    -22.31061062
 H    -11.05783103     -6.87739698    -21.25718326
 H    -10.04007233     -5.01225677    -21.91156507
 H     -8.81268146     -5.98221019    -22.76066381
 H     -8.19141788     -7.38301253    -21.03000375
 H     -9.00734335     -6.29123799    -19.88520655
 H     -7.88146982     -4.31807631    -20.61118514
 H     -6.71589639     -5.35420737    -21.46916981
 H     -6.43005116     -6.50909897    -19.15294381
 H     -7.31348223     -5.11046778    -18.49594535
 H     -5.93213386     -3.43427595    -19.37692529
 H     -4.70432280     -4.67515552    -19.72472486
 H     -4.47018472     -5.70282153    -17.74849807
 H     -5.30737552     -4.34910983    -16.95172779
 H     -4.58928314     -2.53589754    -17.40422552
 H     -3.08108209     -3.25414077    -18.01881718
 H     -2.58656308     -4.58159376    -16.15450162
 H     -3.78560483     -3.65699421    -15.21872322
 H     -2.77676245     -1.51826087    -15.79758030
 H     -1.35060625     -2.41701779    -16.36905309
 H     -0.71422719     -3.72420967    -14.81961758
 H     -1.68760152     -2.82027461    -13.63483469
 H     -1.27873245     -0.77572210    -13.77290004
 H      0.21123287     -1.11368610    -14.68616361
 H      0.55498743     -2.69589626    -12.51763443
 H     -0.81654648     -1.77257975    -11.85835601
 H     -0.32289208      0.30624538    -11.99124898
 H      1.39091550     -0.10266767    -12.24407371
 H      1.74171875     -1.50625609    -10.47151573
 H      0.22637310     -0.92927734     -9.73728843
 H      1.07871217      1.43169251     -9.99049498
 H      2.67518265      0.71663722    -10.31950046
 H      2.87881505     -0.61660123     -8.44609530
 H      1.53532461      0.27582951     -7.69318927
 H      2.59191632      2.43707705     -8.07665068
 H      4.10156572      1.56437704     -8.43389015
 H      4.50527834      0.23875807     -6.81952004
 H      3.34667016      1.11406108     -5.79008407
 H      4.13267908      3.26132103     -6.07538754
 H      5.63447578      2.59694581     -6.76203076
 H      6.10305084      1.12895786     -4.95422380
 H      4.89702492      2.00792865     -3.98408025
 H      5.50443556      4.12508029     -4.15163112
 H      7.09732433      3.62070232     -4.76528810
 H      7.72590615      2.13190562     -3.16514444
 H      6.44555583      2.75839303     -2.09908475
 H      7.55311881      5.07209690     -2.58973491
 H      8.90426949      4.12851416     -3.26227497
 H      9.41887093      2.74769354     -1.56834465
 H      8.47029757      3.76635394     -0.45892758
 H      9.87747909      5.72962228     -1.33012169
 H     10.94427695      4.49633805     -2.04371752
 H     11.11731400      3.49861807      0.30566192
 H     10.38331342      5.01449883      0.88152243
 H     11.84139131      6.52631972     -0.06550660
 H     12.98758070      5.19846702     -0.36770476
 H     13.23501986      4.17902825      1.53771085
 H     12.51173305      5.56805120      2.38372392
 H     14.79025300      4.92220910      0.27307144
 H     14.08280465      3.44268354      0.96501625
 H     14.43213972      3.61852686      3.13017345
 H     15.62630177      4.90526546      2.83598400
 H     17.02067246      4.48389104      1.48154009
 H     16.65774505      2.74566598      1.60451981
 H     16.44086750      1.75038310      3.00263930
 H     17.33200786      2.92955203      3.99445388
 H     19.12773017      3.44886278      3.05880131
 H     19.00808457      2.02798749      1.99340702
 H     18.67313323      0.60841236      4.06581293
 H     19.22874991      2.00402832      4.99252026
 H     20.05284319      0.14550531      2.54602839
 H     18.61463966     -0.44062658      3.41567584
 H     20.02262818     -0.63214003      5.49663215
 H     21.44108168     -0.43715050      4.43916564
 H     21.50833376     -1.68063289      2.87793904
 H     20.30858345     -2.75134369      3.64111939
 H     21.66381716     -2.81807595      5.72311714
 H     22.99682751     -2.10858761      4.78079216
 H     22.86848722     -3.86962121      3.08553425
 H     21.85190294     -4.79232879      4.21842161
 H     23.85667459     -4.41521528      5.86113127
 H     24.75780976     -3.89256088      4.41785221
 H     24.17559708     -6.09582655      3.33589586
 H     23.67323378     -6.64614148      4.95238936
 H     25.75066592     -6.09841685      6.01184219
 H     26.47624393     -5.93740882      4.39447406
 H     25.95711940     -7.86589155      3.40684160
 H     25.54335629     -8.56269340      4.99162359
 H     27.81279288     -7.83902177      5.82644989
 H     28.24312719     -7.56138794      4.12175094
 H     28.00810612     -8.72995124      2.77176639
 H     27.89727930    -10.07907178      3.92755956
 H     30.14171253     -9.05776000      4.84050907
 H     30.14611836     -8.10021870      3.34005516
 H     29.96702649    -10.04675072      1.91244664
 H     30.38641757    -11.04804278      3.32304651
 H     32.41626433     -9.74465980      3.76013776
 H     32.22593213     -9.03418628      2.13925291
 H     32.07006082    -10.91041386      0.86179292
 H     32.69154111    -11.87253381      2.22427379
 H     34.63293640    -10.51484907      2.57047611
 H     34.33437333     -9.76903835      0.98211433
 H     34.32576122    -12.21860727      0.11067214
 H     35.00663136    -12.64682132      1.69853714
 H     36.70582913    -11.48405812      2.08530314
 H     36.81906514    -11.04043023      0.36523379
 H     36.72859861    -13.36229704     -0.36720213
 H     37.04215704    -13.83984524      1.31859012
 H     39.19897353    -13.67205558      0.97285156
 H     38.88447327    -12.28569276     -0.48246684
 H     38.84987407    -14.59525021     -0.87324015
 H     39.48152252    -14.84980140      0.77129340
 H     41.34860132    -13.37651265      0.51221765
 H     41.05772173    -13.39503406     -1.24371876
 H     41.03126230    -15.65087703     -1.62856818
 H     41.76360205    -15.91468417     -0.02783367
 H     43.36407571    -14.87431784      0.40418787
 H     43.62814792    -14.50696615     -1.31731882
 H     43.54241638    -16.30746809     -2.42421855
 H     43.73929437    -17.25576836     -0.93082231
 H     45.84365279    -15.51856486     -0.81352139
 H     45.41158504    -15.27251591     -2.57834661
 H     45.00380637    -15.76722092     -3.82007237
 H     44.98224814    -16.68073647     -3.68728456
 H     44.60197954    -17.93899068     -3.33506586
 H     46.35540321    -18.23363497     -3.25165803
 H     46.35758159    -17.14249543     -5.63048383
 H     44.60039027    -17.32232794     -5.57380714
 H     43.79216127    -17.30424621     -6.38300121
 H     44.29959899    -18.48202500     -6.80038594
 H     43.83719575    -18.95094144     -7.73580325
 H     43.00410455    -17.73833546     -7.54233048
 H     41.95315624    -18.47261624     -7.27921960
 H     43.14011996    -19.22372212     -8.79864937
 H     42.49762730    -19.50966983     -9.86702606
 H     41.67694970    -18.23179529     -9.67683604
 H     41.94441548    -20.12182323    -10.66587950
 H     41.55084512    -20.32999302     -9.65874440
 H     41.21377830    -21.22342147     -9.12196389
 H     41.03838441    -21.24842353     -9.25885804
 H     40.21505527    -21.84325738     -8.84145536
 H     39.64077567    -20.97177778     -9.46170826
 H     38.58242131    -21.12026873     -8.85845234
 H     38.70026744    -21.94661172     -8.61168544
 H     37.98182112    -22.30530993     -7.57472932
 H     37.52190360    -21.21049372     -8.13112858
 H     38.17908744    -21.87765120     -6.43376276
 H     38.19468247    -21.76352578     -6.44024511
 H     38.10280900    -21.84649555     -5.19392616
 H     37.37112125    -23.16953419     -5.61611699
 H     37.67024445    -21.67802638     -4.12922881
 H     36.42328016    -21.82859996     -4.92062164
 H     35.73334025    -21.09103808     -4.22785285
 H     36.62957984    -21.07056023     -3.27716844
 H     35.80906748    -20.10140545     -2.71868419
 H     35.04677145    -20.26705670     -3.43378380
 H     33.93720776    -19.93997080     -3.07611185
 H     34.50918700    -19.71957422     -2.11518005
 H     34.52057764    -19.89939913     -0.98415494
 H     33.23796872    -20.46561000     -2.08077989
 H     33.52542175    -18.72133957     -1.87303463
